Mo  S                                   
    1.000000000000000     
    33.0000000000000000    0.0000000000000000    0.0000000000000000
     0.0000000000000000   25.5200004577999984    0.0000000000000000
     0.0000000000000000    0.0000000000000000   17.4729003905999996
   Mo   S    O    C 
    48    97     2     1
Direct
  0.2852736699526047  0.1040499220336503  0.4897364811777115
  0.3692031331676202  0.0358553982129552  0.4928533187154270
  0.2872806632560039  0.2137299804538991  0.4906974469958978
  0.3694198239732638  0.1606093860438939  0.4932209074670375
  0.4519685488465092  0.0983161681124659  0.4957890491577854
  0.5347275037339905  0.0358783463136995  0.4985566968847807
  0.2876778684511382  0.3552594267217115  0.4949195523999942
  0.3676865963341423  0.2860932511919190  0.4945404551860402
  0.4517235392961437  0.2236195587493653  0.4962973691796529
  0.5346097829946225  0.1607367741447052  0.4987803405566305
  0.6166091757379428  0.0982742838244191  0.5024013333919237
  0.2876763466039602  0.4659069754350349  0.4953986689556388
  0.3704471310711295  0.4106167702446226  0.4954830599974282
  0.4520122414341738  0.3479383471871717  0.4970625261198405
  0.5349107044736802  0.2858691311591758  0.4992092739267728
  0.2872810521145789  0.6075975153722610  0.4915653773386660
  0.3676710931852940  0.5352015268715429  0.4953509667610300
  0.4519993208211327  0.4733142515432699  0.4975197631383927
  0.5347516295047018  0.4104872935895508  0.4995814920392641
  0.2852696885268745  0.7172515466032902  0.4905136919153560
  0.3693988559551322  0.6606633249590875  0.4942825220067144
  0.4516773508804058  0.5976421598808961  0.4973930219835557
  0.5348674608676028  0.5357073353386363  0.4996982136875208
  0.4519654618670489  0.7229510598653639  0.4969068853695112
  0.5345613961366757  0.6602099602048180  0.4994857015627267
  0.6181800005905208  0.2232210131903919  0.5024720582134311
  0.7000916609978926  0.0373655811179486  0.5037394959090418
  0.6168245946421030  0.3482243290300145  0.5026137998297451
  0.7000652289824023  0.1589341402877835  0.5099204654706847
  0.6182091025241209  0.4731307881356720  0.5019371076973296
  0.7001990661440202  0.2874745355505421  0.5107247856508024
  0.6167231740104514  0.5980777047474264  0.5007573744332494
  0.7001868881895490  0.4092947798725999  0.5026819947523630
  0.6180191443576756  0.7229201692120146  0.5007719548470848
  0.7001701775789713  0.5371012152199308  0.5046126862990798
  0.7000036387563742  0.6590200451384092  0.4975652908960512
  0.2850158411943015  0.8556830660997913  0.4900589334736319
  0.3691927779393380  0.7854620586277075  0.4936080108038244
  0.2850240121804578  0.9656335218652887  0.4897871654640091
  0.3691827008396972  0.9106405632635982  0.4931172585665013
  0.4517791421317661  0.8480719409566894  0.4963595294207950
  0.5347168871852933  0.7856944402249797  0.4991359366846101
  0.4517975239313279  0.9732036773094802  0.4958780396160916
  0.5345831554953773  0.9104882555923853  0.4987377620535879
  0.6166333103059620  0.8480942702313272  0.5005926378996666
  0.6180429509376246  0.9731614964880383  0.5012278871189096
  0.6998741050082281  0.7869689907953874  0.4969780627032407
  0.7000431999454455  0.9088075151362945  0.5058240106874828
  0.3124982300976233  0.0353889681023222  0.4048993396203311
  0.3107220955342649  0.0353806668807814  0.5764648929680003
  0.3165294640303386  0.1593318480822516  0.3967341343180791
  0.3145966814661728  0.1586177264249140  0.5855465337321571
  0.3976374260009287  0.0980560186203751  0.4045639779006258
  0.3959349320679602  0.0978348488495051  0.5833060394793887
  0.4802665241163335  0.0356497329689516  0.4074127471429682
  0.4785728265985209  0.0356674412900089  0.5859986579297756
  0.3089199750662617  0.2858520062777398  0.4068956512288215
  0.3078734776695498  0.2831026372735570  0.5789981919972091
  0.3968031431503671  0.2247197824574753  0.4058537712033017
  0.3953515164514839  0.2239936264129368  0.5835315739396957
  0.4800483860338667  0.1611685876231004  0.4075339178022552
  0.4783589567788630  0.1608546818124979  0.5862834141424117
  0.5629405355780749  0.0984815087394001  0.4099829954577479
  0.5607601873151917  0.0981498200281626  0.5896690326555387
  0.3170558562086882  0.4106899295336570  0.4011483908686638
  0.3164175862266608  0.4104499414029397  0.5884850661965356
  0.3973526885585937  0.3475221846821335  0.4063380636742674
  0.3961053633057757  0.3468350518473408  0.5851037803332227
  0.4803983953509075  0.2858589378311110  0.4080912347080604
  0.4788589250326745  0.2854276537561907  0.5868900339889548
  0.5636765420436453  0.2233439396307774  0.4109376300444069
  0.5614459928180560  0.2230794301791839  0.5891147881304067
  0.6462988402297616  0.0358380431741367  0.4136355514221086
  0.6451125606961267  0.0352956627931089  0.5917583521052892
  0.6479569695117211  0.1607462330303691  0.4155837682580788
  0.6436262545823023  0.1609058456284623  0.5935831513874625
  0.3089325266850961  0.5354832277269209  0.4076368736626701
  0.3078402720133318  0.5380944145241235  0.5797473316935452
  0.3973229346364132  0.4739802179975333  0.4068016471671699
  0.3960718058653578  0.4742047702186221  0.5855362158104195
  0.4800909811505936  0.4107637636135326  0.4086749718445099
  0.4786905542017604  0.4105341855439534  0.5874320415857278
  0.5630458702845066  0.3481981627638547  0.4104941976985005
  0.5611300999257920  0.3482355990627960  0.5903203654631139
  0.3165761424246998  0.6619416817916570  0.3976400590988802
  0.3145328627204789  0.6627173280897261  0.5864877167388970
  0.3968049546301642  0.5966471404651380  0.4068606774666940
  0.3953111964539970  0.5972001637461671  0.5845994373214684
  0.4802482549120693  0.5355165957368508  0.4088276634335468
  0.4789280563134121  0.5356261145524988  0.5876538966594679
  0.5632607824499370  0.4730914968206103  0.4113234288501690
  0.5619119348538779  0.4730463924478210  0.5895503769941659
  0.3976501537321111  0.7231383667746200  0.4056092462718869
  0.3958788711086065  0.7235510847212639  0.5842782255190849
  0.4798586043360643  0.6601329121101376  0.4085820458131357
  0.4784726703154425  0.6604322103576091  0.5873782086656493
  0.5624065113602066  0.5978939480516835  0.4101379053411321
  0.5615701462098895  0.5982285447021291  0.5899959783327082
  0.5626920213121597  0.7228211796542842  0.4108849890209598
  0.5619844533154742  0.7230331694054507  0.5889897262117566
  0.6483561522910879  0.2858567188727776  0.4158526450418716
  0.6435926091095909  0.2853607253447961  0.5937655953540679
  0.7278384366323213  0.0981517517858555  0.4200589681294131
  0.7251508161351287  0.0980472060119647  0.5964496392189573
  0.6460206961607114  0.4108227183072706  0.4136249462095180
  0.6459261485085162  0.4108316602783670  0.5920099585565440
  0.7489847386736715  0.2232172728617279  0.5055705440237400
  0.6469105057129049  0.5352738792168364  0.4130304393269695
  0.6449219044303838  0.5357043750958717  0.5913090139839235
  0.7280275895373268  0.3487845619048902  0.4199262097632561
  0.7256360164376887  0.3479492759420996  0.5960765671019201
  0.6449395288036108  0.6607754848754580  0.4109806023539351
  0.6466548017754152  0.6605749834208456  0.5893574913992136
  0.7493482769133495  0.4731203363303499  0.5089820589732572
  0.7267106115534321  0.5981172585730857  0.4131227064579557
  0.7266955682477338  0.5980479315028449  0.5889965859547196
  0.7489639584789320  0.7231444245720096  0.5040978558669226
  0.2290241174409968  0.1685877713134860  0.4884100585630397
  0.2290174130254214  0.6527072276530606  0.4891453219145420
  0.2349877883132573  0.0378458732845571  0.4880173601556987
  0.3125356276457809  0.7857792934221816  0.4055373373423174
  0.3106644268333723  0.7860868960914487  0.5770998664602982
  0.3156007969637264  0.9105444208932819  0.3972541463471423
  0.3136187387229960  0.9107631725818788  0.5848119182519942
  0.3972947068939925  0.8476875261914132  0.4050827530781367
  0.3954920272856119  0.8480060048870581  0.5836474749500495
  0.4801590579519125  0.7854153261264204  0.4082262072749572
  0.4786572263603336  0.7857284436812393  0.5868130936248674
  0.3972781793849702  0.9733749104035097  0.4046791247174058
  0.3955088866712170  0.9735213441221343  0.5831875913338767
  0.4799846245497373  0.9105277863460995  0.4076247035981235
  0.4784065459826545  0.9107812830004386  0.5863974991577922
  0.5624057329077536  0.8481588611903941  0.4096662847409718
  0.5613187985445893  0.8481088060703191  0.5894129557010646
  0.5632027124724168  0.9731064278670631  0.4104029406882992
  0.5615835967181362  0.9731720161652884  0.5885179513964549
  0.6446533035335337  0.7851220394208874  0.4108861210569625
  0.6467103040664891  0.7856187237618535  0.5891117414754157
  0.6473372573976343  0.9106858306504304  0.4130764546084311
  0.6442613878200610  0.9107658126025688  0.5911751456300863
  0.7267748531905646  0.8474606329957065  0.4134797417579345
  0.7264702102290492  0.8483464184042863  0.5896834332151345
  0.7489374572429338  0.9729660384880142  0.5007148682344041
  0.2282059776623018  0.9106656296987298  0.4878222469553302
  0.2349823678073966  0.7834603540673587  0.4884665193463665
  0.2248761154371677  0.4564282936268142  0.5319246013249606
  0.2245819302183615  0.3651603296723702  0.5299931954915635
  0.2368168508091934  0.4109039177329551  0.5127305506021330
 
  0.00000000E+00  0.00000000E+00  0.00000000E+00
  0.00000000E+00  0.00000000E+00  0.00000000E+00
  0.00000000E+00  0.00000000E+00  0.00000000E+00
  0.00000000E+00  0.00000000E+00  0.00000000E+00
  0.00000000E+00  0.00000000E+00  0.00000000E+00
  0.00000000E+00  0.00000000E+00  0.00000000E+00
  0.00000000E+00  0.00000000E+00  0.00000000E+00
  0.00000000E+00  0.00000000E+00  0.00000000E+00
  0.00000000E+00  0.00000000E+00  0.00000000E+00
  0.00000000E+00  0.00000000E+00  0.00000000E+00
  0.00000000E+00  0.00000000E+00  0.00000000E+00
  0.00000000E+00  0.00000000E+00  0.00000000E+00
  0.00000000E+00  0.00000000E+00  0.00000000E+00
  0.00000000E+00  0.00000000E+00  0.00000000E+00
  0.00000000E+00  0.00000000E+00  0.00000000E+00
  0.00000000E+00  0.00000000E+00  0.00000000E+00
  0.00000000E+00  0.00000000E+00  0.00000000E+00
  0.00000000E+00  0.00000000E+00  0.00000000E+00
  0.00000000E+00  0.00000000E+00  0.00000000E+00
  0.00000000E+00  0.00000000E+00  0.00000000E+00
  0.00000000E+00  0.00000000E+00  0.00000000E+00
  0.00000000E+00  0.00000000E+00  0.00000000E+00
  0.00000000E+00  0.00000000E+00  0.00000000E+00
  0.00000000E+00  0.00000000E+00  0.00000000E+00
  0.00000000E+00  0.00000000E+00  0.00000000E+00
  0.00000000E+00  0.00000000E+00  0.00000000E+00
  0.00000000E+00  0.00000000E+00  0.00000000E+00
  0.00000000E+00  0.00000000E+00  0.00000000E+00
  0.00000000E+00  0.00000000E+00  0.00000000E+00
  0.00000000E+00  0.00000000E+00  0.00000000E+00
  0.00000000E+00  0.00000000E+00  0.00000000E+00
  0.00000000E+00  0.00000000E+00  0.00000000E+00
  0.00000000E+00  0.00000000E+00  0.00000000E+00
  0.00000000E+00  0.00000000E+00  0.00000000E+00
  0.00000000E+00  0.00000000E+00  0.00000000E+00
  0.00000000E+00  0.00000000E+00  0.00000000E+00
  0.00000000E+00  0.00000000E+00  0.00000000E+00
  0.00000000E+00  0.00000000E+00  0.00000000E+00
  0.00000000E+00  0.00000000E+00  0.00000000E+00
  0.00000000E+00  0.00000000E+00  0.00000000E+00
  0.00000000E+00  0.00000000E+00  0.00000000E+00
  0.00000000E+00  0.00000000E+00  0.00000000E+00
  0.00000000E+00  0.00000000E+00  0.00000000E+00
  0.00000000E+00  0.00000000E+00  0.00000000E+00
  0.00000000E+00  0.00000000E+00  0.00000000E+00
  0.00000000E+00  0.00000000E+00  0.00000000E+00
  0.00000000E+00  0.00000000E+00  0.00000000E+00
  0.00000000E+00  0.00000000E+00  0.00000000E+00
  0.00000000E+00  0.00000000E+00  0.00000000E+00
  0.00000000E+00  0.00000000E+00  0.00000000E+00
  0.00000000E+00  0.00000000E+00  0.00000000E+00
  0.00000000E+00  0.00000000E+00  0.00000000E+00
  0.00000000E+00  0.00000000E+00  0.00000000E+00
  0.00000000E+00  0.00000000E+00  0.00000000E+00
  0.00000000E+00  0.00000000E+00  0.00000000E+00
  0.00000000E+00  0.00000000E+00  0.00000000E+00
  0.00000000E+00  0.00000000E+00  0.00000000E+00
  0.00000000E+00  0.00000000E+00  0.00000000E+00
  0.00000000E+00  0.00000000E+00  0.00000000E+00
  0.00000000E+00  0.00000000E+00  0.00000000E+00
  0.00000000E+00  0.00000000E+00  0.00000000E+00
  0.00000000E+00  0.00000000E+00  0.00000000E+00
  0.00000000E+00  0.00000000E+00  0.00000000E+00
  0.00000000E+00  0.00000000E+00  0.00000000E+00
  0.00000000E+00  0.00000000E+00  0.00000000E+00
  0.00000000E+00  0.00000000E+00  0.00000000E+00
  0.00000000E+00  0.00000000E+00  0.00000000E+00
  0.00000000E+00  0.00000000E+00  0.00000000E+00
  0.00000000E+00  0.00000000E+00  0.00000000E+00
  0.00000000E+00  0.00000000E+00  0.00000000E+00
  0.00000000E+00  0.00000000E+00  0.00000000E+00
  0.00000000E+00  0.00000000E+00  0.00000000E+00
  0.00000000E+00  0.00000000E+00  0.00000000E+00
  0.00000000E+00  0.00000000E+00  0.00000000E+00
  0.00000000E+00  0.00000000E+00  0.00000000E+00
  0.00000000E+00  0.00000000E+00  0.00000000E+00
  0.00000000E+00  0.00000000E+00  0.00000000E+00
  0.00000000E+00  0.00000000E+00  0.00000000E+00
  0.00000000E+00  0.00000000E+00  0.00000000E+00
  0.00000000E+00  0.00000000E+00  0.00000000E+00
  0.00000000E+00  0.00000000E+00  0.00000000E+00
  0.00000000E+00  0.00000000E+00  0.00000000E+00
  0.00000000E+00  0.00000000E+00  0.00000000E+00
  0.00000000E+00  0.00000000E+00  0.00000000E+00
  0.00000000E+00  0.00000000E+00  0.00000000E+00
  0.00000000E+00  0.00000000E+00  0.00000000E+00
  0.00000000E+00  0.00000000E+00  0.00000000E+00
  0.00000000E+00  0.00000000E+00  0.00000000E+00
  0.00000000E+00  0.00000000E+00  0.00000000E+00
  0.00000000E+00  0.00000000E+00  0.00000000E+00
  0.00000000E+00  0.00000000E+00  0.00000000E+00
  0.00000000E+00  0.00000000E+00  0.00000000E+00
  0.00000000E+00  0.00000000E+00  0.00000000E+00
  0.00000000E+00  0.00000000E+00  0.00000000E+00
  0.00000000E+00  0.00000000E+00  0.00000000E+00
  0.00000000E+00  0.00000000E+00  0.00000000E+00
  0.00000000E+00  0.00000000E+00  0.00000000E+00
  0.00000000E+00  0.00000000E+00  0.00000000E+00
  0.00000000E+00  0.00000000E+00  0.00000000E+00
  0.00000000E+00  0.00000000E+00  0.00000000E+00
  0.00000000E+00  0.00000000E+00  0.00000000E+00
  0.00000000E+00  0.00000000E+00  0.00000000E+00
  0.00000000E+00  0.00000000E+00  0.00000000E+00
  0.00000000E+00  0.00000000E+00  0.00000000E+00
  0.00000000E+00  0.00000000E+00  0.00000000E+00
  0.00000000E+00  0.00000000E+00  0.00000000E+00
  0.00000000E+00  0.00000000E+00  0.00000000E+00
  0.00000000E+00  0.00000000E+00  0.00000000E+00
  0.00000000E+00  0.00000000E+00  0.00000000E+00
  0.00000000E+00  0.00000000E+00  0.00000000E+00
  0.00000000E+00  0.00000000E+00  0.00000000E+00
  0.00000000E+00  0.00000000E+00  0.00000000E+00
  0.00000000E+00  0.00000000E+00  0.00000000E+00
  0.00000000E+00  0.00000000E+00  0.00000000E+00
  0.00000000E+00  0.00000000E+00  0.00000000E+00
  0.00000000E+00  0.00000000E+00  0.00000000E+00
  0.00000000E+00  0.00000000E+00  0.00000000E+00
  0.00000000E+00  0.00000000E+00  0.00000000E+00
  0.00000000E+00  0.00000000E+00  0.00000000E+00
  0.00000000E+00  0.00000000E+00  0.00000000E+00
  0.00000000E+00  0.00000000E+00  0.00000000E+00
  0.00000000E+00  0.00000000E+00  0.00000000E+00
  0.00000000E+00  0.00000000E+00  0.00000000E+00
  0.00000000E+00  0.00000000E+00  0.00000000E+00
  0.00000000E+00  0.00000000E+00  0.00000000E+00
  0.00000000E+00  0.00000000E+00  0.00000000E+00
  0.00000000E+00  0.00000000E+00  0.00000000E+00
  0.00000000E+00  0.00000000E+00  0.00000000E+00
  0.00000000E+00  0.00000000E+00  0.00000000E+00
  0.00000000E+00  0.00000000E+00  0.00000000E+00
  0.00000000E+00  0.00000000E+00  0.00000000E+00
  0.00000000E+00  0.00000000E+00  0.00000000E+00
  0.00000000E+00  0.00000000E+00  0.00000000E+00
  0.00000000E+00  0.00000000E+00  0.00000000E+00
  0.00000000E+00  0.00000000E+00  0.00000000E+00
  0.00000000E+00  0.00000000E+00  0.00000000E+00
  0.00000000E+00  0.00000000E+00  0.00000000E+00
  0.00000000E+00  0.00000000E+00  0.00000000E+00
  0.00000000E+00  0.00000000E+00  0.00000000E+00
  0.00000000E+00  0.00000000E+00  0.00000000E+00
  0.00000000E+00  0.00000000E+00  0.00000000E+00
  0.00000000E+00  0.00000000E+00  0.00000000E+00
  0.00000000E+00  0.00000000E+00  0.00000000E+00
  0.00000000E+00  0.00000000E+00  0.00000000E+00
  0.00000000E+00  0.00000000E+00  0.00000000E+00
  0.00000000E+00  0.00000000E+00  0.00000000E+00
  0.00000000E+00  0.00000000E+00  0.00000000E+00
  0.00000000E+00  0.00000000E+00  0.00000000E+00
