Mo  S                                   
1.0
  33.0000000000         0.0000000000         0.0000000000
   0.0000000000        25.5200004578         0.0000000000
   0.0000000000         0.0000000000        17.4729003906
Mo S O C
48 97 2 1
Cartesian
     9.424659600         2.614995667         8.708801763
    12.196736303         0.883169756         8.716093124
     9.504353141         5.416471532         8.706240264
    12.206968920         4.058380980         8.709578222
    14.930925517         2.477254385         8.717696571
    17.660838133         0.886004530         8.731614894
     9.581219126         8.943304650         8.709239998
    12.146240546         7.246209972         8.709742863
    14.919488779         5.674385808         8.714303847
    17.655758274         4.073602690         8.729391971
    20.362200671         2.478286821         8.760651140
     9.467599774        11.866392975         8.715350705
    12.172062024        10.446407434         8.717021190
    14.902835970         8.856004922         8.718395114
    17.652462987         7.270859104         8.729247307
     9.478225751        15.508899757         8.722755496
    12.144644600        13.655357261         8.726360225
    14.900325061        12.045743143         8.727803328
    17.638845124        10.447781481         8.732234481
     9.420649022        18.299467238         8.725096931
    12.191758479        16.843300111         8.733306037
    14.903834317        15.227496345         8.737630543
    17.643423720        13.641353142         8.737772406
    14.920525586        18.424825103         8.741479039
    17.642938930        16.819522538         8.742430746
    20.408167162         5.670953211         8.757488660
    23.112113395         0.914673754         8.745541750
    20.353478512         8.861212047         8.761421860
    23.124349501         4.014515561         8.859611864
    20.395417008        12.047088334         8.743371281
    23.121988807         7.326985697         8.846697425
    20.350367140        15.233962561         8.729514945
    23.108812582        10.421668960         8.761745426
    20.398877130        18.420116767         8.729226696
    23.110862921        13.684373468         8.775118076
    23.099011923        16.792435723         8.636272590
     9.413945800        21.817347791         8.721828150
    12.191413222        20.025452843         8.733132389
     9.414203566        24.617509819         8.715908980
    12.193683551        23.214827958         8.726078353
    14.918431351        21.616983391         8.737153845
    17.652364051        20.022104231         8.742185442
    14.922532418        24.807776048         8.727125959
    17.652059422        23.206020310         8.737336707
    20.357631501        21.611841959         8.727528323
    20.407510709        24.801485205         8.742277271
    23.100946740        20.047034516         8.629642062
    23.115415331        23.159317164         8.773974385
    10.297472363         0.867144589         7.212658476
    10.293062831         0.873497425        10.213911263
    10.430572778         4.006999841         7.059340648
    10.427373076         4.010377788        10.356593698
    13.114506444         2.460372861         7.150854890
    13.108098722         2.466206601        10.276734868
    15.842340556         0.876470890         7.163625995
    15.830859788         0.883621362        10.285656369
    10.210538090         7.183038960         7.171910189
    10.207539059         7.180499799        10.243749775
    13.093092502         5.682802811         7.156182103
    13.086821824         5.682376327        10.264661384
    15.837545141         4.076996178         7.156855803
    15.822022804         4.079580753        10.281534062
    18.571861914         2.482301668         7.168869806
    18.540466557         2.478786566        10.309678742
    10.351298533        10.449311683         7.073436692
    10.345157315        10.442767985        10.354220337
    13.072497953         8.841245954         7.157004089
    13.066190293         8.834615933        10.272182452
    15.833317070         7.268922704         7.158306478
    15.818324372         7.265538306        10.280478526
    18.590320489         5.671919415         7.180242280
    18.554605178         5.672101409        10.292666760
    21.314043415         0.878732296         7.197779586
    21.323549512         0.870232819        10.310696406
    21.381488112         4.071025571         7.232847755
    21.272840996         4.080909032        10.337611033
    10.163956061        13.689352472         7.222292721
    10.155904392        13.683174078        10.219402850
    13.067603436        12.068083254         7.168919637
    13.060508715        12.059670064        10.278377120
    15.814377118        10.455777121         7.163169705
    15.803182057        10.448552015        10.287598723
    18.562676124         8.860504707         7.168081854
    18.531016635         8.861870558        10.311111503
    10.420855838        16.896374649         7.074747123
    10.410216613        16.893482548        10.380473847
    13.077815579        15.221877269         7.176503826
    13.069445094        15.215652620        10.288918721
    15.819168649        13.639310331         7.173756345
    15.814068339        13.631889514        10.295721339
    18.564074930        12.046161507         7.180399021
    18.553250382        12.042637796        10.294118580
    13.103614229        18.439615742         7.175034734
    13.095347543        18.439803351        10.297967244
    15.817348689        16.825041200         7.179211004
    15.814835827        16.822248588        10.303477576
    18.538483872        15.229878285         7.165906682
    18.548327896        15.232637493        10.309185748
    18.551619537        18.419259702         7.184536398
    18.572198861        18.419611421        10.296452192
    21.369742995         7.269139600         7.230259641
    21.275746337         7.261337390        10.335282976
    24.007662199         2.458826063         7.268504967
    23.968783437         2.469113062        10.358048392
    21.316106295        10.453905098         7.201699903
    21.308450987        10.465315891        10.315087626
    24.712603556         5.670439526         8.707126276
    21.339086615        13.636886641         7.187353791
    21.292220778        13.639854441        10.298742221
    24.003470207         8.876382836         7.268869419
    23.964698132         8.873808681        10.360410578
    21.261386131        16.834866525         7.147483506
    21.362213769        16.827213147        10.264446546
    24.733974053        12.052626791         8.720328010
    23.968079182        15.242299597         7.157212366
    24.000044213        15.232607161        10.235277964
    24.725176850        18.419470215         8.739163141
     7.572254576         4.281640728         8.706298244
     7.556152264        16.658101317         8.717488006
     7.758285753         0.938303781         8.709037897
    10.297587044        20.041752471         7.225360896
    10.288102649        20.044279172        10.228691862
    10.396559146        23.213929759         7.082475707
    10.387899042        23.220585729        10.360640306
    13.095498068        21.610840495         7.171291896
    13.087733990        21.617072268        10.293442679
    15.829009712        20.019373693         7.180194136
    15.826622635        20.022651756        10.301870927
    13.098044616        24.809542514         7.162070785
    13.091120156        24.818308976        10.283752245
    15.827714429        23.208286434         7.171559698
    15.822718522        23.216012001        10.296872476
    18.544950819        21.615522567         7.166202323
    18.556150505        21.612953844        10.307528972
    18.576772663        24.801643827         7.180280274
    18.567069162        24.805513044        10.292960981
    21.260530414        20.006380735         7.146349766
    21.367408842        20.016720833        10.261400214
    21.347440475        23.209697475         7.184398086
    21.300465107        23.206840037        10.297686556
    23.971210190        21.595931419         7.154688494
    24.004718171        21.609924823        10.229421124
    24.732304807        24.798233147         8.740449397
     7.537737549        23.218107987         8.712983706
     7.758311734        19.981219951         8.719441608
     7.343600000        11.866400000         8.715300000
     7.343600000        11.866400000         6.395300000
     7.343600000        11.866400000         7.555300000     
