W36 Se72                                
   1.00000000000000     
    19.6919994353999996    0.0000000000000000    0.0000000000000000
    -9.8459997176999998   17.0537717624000003    0.0000000000000000
     0.0000000000000000    0.0000000000000000   25.9200000762999991
   W    Se   O    C 
    36    69     2     1
Direct
  0.1229997137588531  0.0485161925776313  0.4999888092554409
  0.1268899307053904  0.2161160165951826  0.5009151985253100
  0.1230259388174861  0.3797159584370343  0.5005804582878925
  0.1205424044116668  0.5457416459063108  0.5005280571887213
  0.1198235628291217  0.7125220992265726  0.5002642134716460
  0.1205536142960656  0.8800914382661714  0.4999762357909307
  0.2882821057164169  0.0485230603409694  0.4966679242951762
  0.2982982711624354  0.2193581301329547  0.4920520876172525
  0.2991108618613876  0.3835775702820011  0.4928333868707099
  0.2893662789358362  0.5483362920082848  0.4989039512169934
  0.2866336060947396  0.7120876021982678  0.5000665699440294
  0.2870171954910788  0.8800407920134734  0.4996651451108156
  0.4536039543777943  0.0467851321177167  0.4993662789523317
  0.4497189282035023  0.2156524477243170  0.4928844646082801
  0.4477921140630092  0.3746767161846735  0.4864587461612391
  0.4523857677847233  0.5313021101431816  0.4948906266775949
  0.4501262243931477  0.7103301650510492  0.5012916034135284
  0.4529311406733221  0.8792736906504701  0.5014029246509966
  0.6202227578047301  0.0455125852229536  0.5024492579816152
  0.6189767455783726  0.2120415376391590  0.4999110067088653
  0.6150328865944211  0.3766870199577603  0.4963054872589339
  0.6165822818557473  0.5412092438111764  0.4959784321377427
  0.6168293729347932  0.7090138608143306  0.5009961476324490
  0.6188923689259560  0.8770706837563685  0.5033991775401148
  0.7872375105082691  0.0453495279152931  0.5039153925649085
  0.7871130588699096  0.2121825031077795  0.5027906835816653
  0.7856152580625760  0.3781891416815076  0.5007760954981081
  0.7850865290125103  0.5441098488270322  0.4995168769462306
  0.7851966673709354  0.7105691941273684  0.5008868511146064
  0.7864078369709728  0.8783116973775609  0.5032524588076150
  0.9555284252804174  0.0468929359784838  0.5031926695494295
  0.9560111832840659  0.2131065220934700  0.5031494128896145
  0.9543842440286866  0.3790726046481463  0.5019567937661412
  0.9530624614027062  0.5451981964211564  0.5008061126027179
  0.9528301753679324  0.7120552639755046  0.5007721519760866
  0.9539702509804232  0.8795227436307084  0.5019413000439297
  0.0708088725747291  0.1052321230160921  0.5665749554185434
  0.0709618488672975  0.2704262789360678  0.5668866600381289
  0.0673935221160263  0.4351667180238019  0.5662130153601271
  0.0647287879968820  0.6014697444195430  0.5656867545436560
  0.0648809735218913  0.7688302868426211  0.5654791469595075
  0.0676363839143004  0.9373803839167621  0.5657651797375949
  0.2409108185394254  0.1117710538408988  0.5610669161417084
  0.2541336335019913  0.2794227685338420  0.5609485890737440
  0.2407171106406790  0.4351844375522550  0.5615487974798044
  0.2318080326109813  0.6006454430059672  0.5651784847949288
  0.2313903446103198  0.7687124612590516  0.5650458626856696
  0.2332620964490491  0.9388653133145423  0.5637931802710382
  0.3982343481417793  0.1084864261196562  0.5613890305929062
  0.3963475161887864  0.7678068742020149  0.5663600811336041
  0.3972222405970583  0.9366547603418879  0.5654557540061563
  0.5629692667922700  0.1021894341725417  0.5659302700933969
  0.5564137668150944  0.2676825334471634  0.5615962969197066
  0.5457698862616021  0.4241283054113956  0.5585833699912287
  0.5603396394654837  0.5917935060607665  0.5623109212535821
  0.5598586640860843  0.7619789424974209  0.5672256274097391
  0.5631535629365246  0.9339130951492388  0.5676369784422013
  0.7309004519391523  0.1013261738869751  0.5684066065344365
  0.7289008049572183  0.2679509212562459  0.5664478460786412
  0.7249111639629070  0.4319911554001629  0.5637587286607205
  0.7256038542952147  0.5960984598154047  0.5638811609259242
  0.7282845951294449  0.7640714780376155  0.5666952657577844
  0.7303479261783643  0.9329740620005305  0.5688118295624738
  0.9000158507726400  0.1020791865063172  0.5686937835460089
  0.8993073735548646  0.2686694641363964  0.5678229767385440
  0.8969644097438981  0.4343811312828357  0.5663148215548161
  0.8958381268484357  0.5999357550946053  0.5654577755552750
  0.8967280112919039  0.7666492322178560  0.5662914568483386
  0.8990525479445644  0.9345828804657337  0.5680071233301481
  0.0654063073960944  0.1034407320017646  0.4368253260882808
  0.0660736752371531  0.2676712838441712  0.4368342929899559
  0.0647769354383748  0.4337529226181785  0.4359562275309306
  0.0641257188794944  0.6007797045782803  0.4353824505507056
  0.0637444127602905  0.7679542351749387  0.4352472494781017
  0.0639691222338930  0.9355868101442990  0.4356649925737298
  0.2308343765667596  0.1024757360289170  0.4314847200358312
  0.2326379887586159  0.2693119426068977  0.4309118525781552
  0.2328706715792379  0.4364241438370389  0.4335022865623422
  0.2309913742653483  0.6010131187970627  0.4344436811432693
  0.2308835023387668  0.7679527457967295  0.4348941986308384
  0.2305425286344865  0.9340091620426146  0.4337202267452184
  0.3996090786941635  0.1010475003389138  0.4313771328824567
  0.3998191287806712  0.2667998321083397  0.4213129810927133
  0.3992114577627016  0.4336622835990518  0.4209766781568844
  0.4016986260410681  0.6000503461357333  0.4356857951077621
  0.3988514428068091  0.7683726385616360  0.4355676746663051
  0.3986295550895588  0.9344909198111595  0.4349012195855053
  0.5661156463204399  0.1003750717448996  0.4355693199535370
  0.5646923728622252  0.2655810377761162  0.4316017821618269
  0.5646735859944453  0.4331952349390885  0.4273844846703198
  0.5653696668246588  0.6019542667931388  0.4318390002978793
  0.5625393998909263  0.7673396833981999  0.4371657887946343
  0.5656529341079891  0.9341560604200133  0.4374607753687030
  0.7323698477636550  0.1005988766270179  0.4380551647475796
  0.7322214120090537  0.2666861259398036  0.4361655393523036
  0.7312109801204897  0.4332031117660402  0.4341434184543372
  0.7320954414957314  0.6014755732143811  0.4338450208095498
  0.7302090846428707  0.7682349045654090  0.4370641978573616
  0.7309027324966229  0.9341641093028764  0.4386322812692380
  0.8985213477277617  0.1012926426672232  0.4385689008980091
  0.8987909487844084  0.2669270520970859  0.4377493451154806
  0.8980146727207811  0.4333906137929602  0.4362011008537922
  0.8978872881262138  0.6008927934418922  0.4353485807253773
  0.8974073949310791  0.7685607062764500  0.4362551412246334
  0.8977727103043125  0.9354956832485340  0.4379325106255113
  0.3840599293392605  0.6142832462630802  0.5523709125383940
  0.4001255293868727  0.5350214182529658  0.6074028322505211
  0.4079761647191811  0.5581052976328044  0.5631004700878416
 
  0.00000000E+00  0.00000000E+00  0.00000000E+00
  0.00000000E+00  0.00000000E+00  0.00000000E+00
  0.00000000E+00  0.00000000E+00  0.00000000E+00
  0.00000000E+00  0.00000000E+00  0.00000000E+00
  0.00000000E+00  0.00000000E+00  0.00000000E+00
  0.00000000E+00  0.00000000E+00  0.00000000E+00
  0.00000000E+00  0.00000000E+00  0.00000000E+00
  0.00000000E+00  0.00000000E+00  0.00000000E+00
  0.00000000E+00  0.00000000E+00  0.00000000E+00
  0.00000000E+00  0.00000000E+00  0.00000000E+00
  0.00000000E+00  0.00000000E+00  0.00000000E+00
  0.00000000E+00  0.00000000E+00  0.00000000E+00
  0.00000000E+00  0.00000000E+00  0.00000000E+00
  0.00000000E+00  0.00000000E+00  0.00000000E+00
  0.00000000E+00  0.00000000E+00  0.00000000E+00
  0.00000000E+00  0.00000000E+00  0.00000000E+00
  0.00000000E+00  0.00000000E+00  0.00000000E+00
  0.00000000E+00  0.00000000E+00  0.00000000E+00
  0.00000000E+00  0.00000000E+00  0.00000000E+00
  0.00000000E+00  0.00000000E+00  0.00000000E+00
  0.00000000E+00  0.00000000E+00  0.00000000E+00
  0.00000000E+00  0.00000000E+00  0.00000000E+00
  0.00000000E+00  0.00000000E+00  0.00000000E+00
  0.00000000E+00  0.00000000E+00  0.00000000E+00
  0.00000000E+00  0.00000000E+00  0.00000000E+00
  0.00000000E+00  0.00000000E+00  0.00000000E+00
  0.00000000E+00  0.00000000E+00  0.00000000E+00
  0.00000000E+00  0.00000000E+00  0.00000000E+00
  0.00000000E+00  0.00000000E+00  0.00000000E+00
  0.00000000E+00  0.00000000E+00  0.00000000E+00
  0.00000000E+00  0.00000000E+00  0.00000000E+00
  0.00000000E+00  0.00000000E+00  0.00000000E+00
  0.00000000E+00  0.00000000E+00  0.00000000E+00
  0.00000000E+00  0.00000000E+00  0.00000000E+00
  0.00000000E+00  0.00000000E+00  0.00000000E+00
  0.00000000E+00  0.00000000E+00  0.00000000E+00
  0.00000000E+00  0.00000000E+00  0.00000000E+00
  0.00000000E+00  0.00000000E+00  0.00000000E+00
  0.00000000E+00  0.00000000E+00  0.00000000E+00
  0.00000000E+00  0.00000000E+00  0.00000000E+00
  0.00000000E+00  0.00000000E+00  0.00000000E+00
  0.00000000E+00  0.00000000E+00  0.00000000E+00
  0.00000000E+00  0.00000000E+00  0.00000000E+00
  0.00000000E+00  0.00000000E+00  0.00000000E+00
  0.00000000E+00  0.00000000E+00  0.00000000E+00
  0.00000000E+00  0.00000000E+00  0.00000000E+00
  0.00000000E+00  0.00000000E+00  0.00000000E+00
  0.00000000E+00  0.00000000E+00  0.00000000E+00
  0.00000000E+00  0.00000000E+00  0.00000000E+00
  0.00000000E+00  0.00000000E+00  0.00000000E+00
  0.00000000E+00  0.00000000E+00  0.00000000E+00
  0.00000000E+00  0.00000000E+00  0.00000000E+00
  0.00000000E+00  0.00000000E+00  0.00000000E+00
  0.00000000E+00  0.00000000E+00  0.00000000E+00
  0.00000000E+00  0.00000000E+00  0.00000000E+00
  0.00000000E+00  0.00000000E+00  0.00000000E+00
  0.00000000E+00  0.00000000E+00  0.00000000E+00
  0.00000000E+00  0.00000000E+00  0.00000000E+00
  0.00000000E+00  0.00000000E+00  0.00000000E+00
  0.00000000E+00  0.00000000E+00  0.00000000E+00
  0.00000000E+00  0.00000000E+00  0.00000000E+00
  0.00000000E+00  0.00000000E+00  0.00000000E+00
  0.00000000E+00  0.00000000E+00  0.00000000E+00
  0.00000000E+00  0.00000000E+00  0.00000000E+00
  0.00000000E+00  0.00000000E+00  0.00000000E+00
  0.00000000E+00  0.00000000E+00  0.00000000E+00
  0.00000000E+00  0.00000000E+00  0.00000000E+00
  0.00000000E+00  0.00000000E+00  0.00000000E+00
  0.00000000E+00  0.00000000E+00  0.00000000E+00
  0.00000000E+00  0.00000000E+00  0.00000000E+00
  0.00000000E+00  0.00000000E+00  0.00000000E+00
  0.00000000E+00  0.00000000E+00  0.00000000E+00
  0.00000000E+00  0.00000000E+00  0.00000000E+00
  0.00000000E+00  0.00000000E+00  0.00000000E+00
  0.00000000E+00  0.00000000E+00  0.00000000E+00
  0.00000000E+00  0.00000000E+00  0.00000000E+00
  0.00000000E+00  0.00000000E+00  0.00000000E+00
  0.00000000E+00  0.00000000E+00  0.00000000E+00
  0.00000000E+00  0.00000000E+00  0.00000000E+00
  0.00000000E+00  0.00000000E+00  0.00000000E+00
  0.00000000E+00  0.00000000E+00  0.00000000E+00
  0.00000000E+00  0.00000000E+00  0.00000000E+00
  0.00000000E+00  0.00000000E+00  0.00000000E+00
  0.00000000E+00  0.00000000E+00  0.00000000E+00
  0.00000000E+00  0.00000000E+00  0.00000000E+00
  0.00000000E+00  0.00000000E+00  0.00000000E+00
  0.00000000E+00  0.00000000E+00  0.00000000E+00
  0.00000000E+00  0.00000000E+00  0.00000000E+00
  0.00000000E+00  0.00000000E+00  0.00000000E+00
  0.00000000E+00  0.00000000E+00  0.00000000E+00
  0.00000000E+00  0.00000000E+00  0.00000000E+00
  0.00000000E+00  0.00000000E+00  0.00000000E+00
  0.00000000E+00  0.00000000E+00  0.00000000E+00
  0.00000000E+00  0.00000000E+00  0.00000000E+00
  0.00000000E+00  0.00000000E+00  0.00000000E+00
  0.00000000E+00  0.00000000E+00  0.00000000E+00
  0.00000000E+00  0.00000000E+00  0.00000000E+00
  0.00000000E+00  0.00000000E+00  0.00000000E+00
  0.00000000E+00  0.00000000E+00  0.00000000E+00
  0.00000000E+00  0.00000000E+00  0.00000000E+00
  0.00000000E+00  0.00000000E+00  0.00000000E+00
  0.00000000E+00  0.00000000E+00  0.00000000E+00
  0.00000000E+00  0.00000000E+00  0.00000000E+00
  0.00000000E+00  0.00000000E+00  0.00000000E+00
  0.00000000E+00  0.00000000E+00  0.00000000E+00
  0.00000000E+00  0.00000000E+00  0.00000000E+00
  0.00000000E+00  0.00000000E+00  0.00000000E+00
  0.00000000E+00  0.00000000E+00  0.00000000E+00
