W36 Se72                                
1.0
  19.6919994354         0.0000000000         0.0000000000
  -9.8459997177        17.0537717624         0.0000000000
   0.0000000000         0.0000000000        25.9200000763
W Se O C
36 69 2 1
Cartesian
     1.939378425         0.830323217        12.982738837
     0.384240229         3.706042136        12.993956806
    -1.248360234         6.534257775        12.994152045
    -2.961767604         9.317917934        12.982210447
    -4.646917956        12.150758738        12.991974581
    -6.295575193        15.008068499        12.992282752
     5.195354349         0.828409834        12.896352248
     3.700811699         3.749873285        12.746908183
     2.111064793         6.587690214        12.688704149
     0.447953793         9.383349107        12.746225676
    -1.334171419        12.138266365        12.894913006
    -3.006592779        15.001768690        12.955142276
     8.470609734         0.799075000        12.966169239
     6.708650805         3.687245412        12.811889952
     5.082411200         6.409044704        12.618635768
     3.442850736         9.248997066        12.618625493
     1.899151095        12.019009680        12.811412211
     0.278615736        14.988267865        12.965676460
    11.759932213         0.788988210        13.042440515
    10.086135152         3.630902563        13.014578282
     8.365327731         6.439551842        12.934143227
     6.686428324         9.229452536        12.907145752
     5.110406824        12.078377705        12.932753626
     3.539935277        14.972699290        13.012836926
    15.053618694         0.791655347        13.090583596
    13.407836688         3.640557296        13.092011720
    11.732145267         6.466036745        13.062574155
    10.055388278         9.287568989        13.036565899
     8.420787016        12.118899235        13.035554557
     6.817354422        14.981792441        13.060405177
    18.351701816         0.812885913        13.075927042
    16.739415287         3.664071473        13.095241688
    15.076279125         6.485188107        13.077058618
    13.397029138         9.311222544        13.053122298
    11.735408348        12.144556215        13.043593251
    10.112870738        14.999544933        13.051595730
     0.362875017         1.817187521        14.706374067
    -1.215793036         4.667855291        14.717372337
    -2.894934123         7.459535606        14.706447704
    -4.595572039        10.268976284        14.697028205
    -6.277454968        13.114135553        14.694240909
    -7.900915138        15.992567739        14.696024578
     3.636773000         1.925895842        14.552716577
     2.260554454         4.822751652        14.502876168
     0.657905551         7.601162323        14.503050406
    -1.164554643        10.240364977        14.551272270
    -2.953961716        13.088098454        14.629613294
    -4.636567235        16.004196407        14.630798097
     6.769800355         1.840945850        14.576882234
     0.330332384        12.994078781        14.576410073
    -1.376550151        15.942107548        14.653043479
    10.073219308         1.734519349        14.702127575
     8.285462236         4.566985081        14.609150043
     6.487726592         7.241274949        14.516888934
     4.865107516        10.051904483        14.516766958
     3.450041372        12.946617267        14.607848994
     1.890649170        15.908553173        14.700505978
    13.387014651         1.728287238        14.767212867
    11.702679366         4.573320154        14.748484085
     9.985878974         7.374176608        14.692882074
     8.308213438        10.167367719        14.669884869
     6.728903948        13.016323808        14.691189973
     5.164334055        15.902886768        14.746607637
    16.719561079         1.754528115        14.777248703
    15.076130692         4.600462074        14.778580335
    13.395532097         7.424035812        14.749961205
    11.715076385        10.241524043        14.728878945
    10.076377216        13.078755023        14.728039918
     8.478698483        15.941199859        14.749083035
     0.263382151         1.769317998        11.347667185
    -1.336931470         4.598273599        11.368091899
    -2.986841452         7.396651474        11.347693054
    -4.668264877        10.237246478        11.327641354
    -6.327173903        13.085840759        11.327634583
    -7.963135994        15.946772355        11.327639724
     3.532674491         1.736547751        11.199456111
     1.926134897         4.577500529        11.138691075
     0.278110104         7.432086642        11.138656416
    -1.379909001        10.244176033        11.198194652
    -3.036325184        13.099843928        11.264610990
    -4.667942747        15.928094947        11.264784551
     6.868876117         1.737220335        11.211908726
     5.246273913         4.567093211        10.934515299
     3.611301796         7.452639050        10.865323883
     1.930261285        10.312218273        10.934723873
     0.290990194        13.132488981        11.211540155
    -1.358034876        15.953194664        11.275636448
    10.150602782         1.744487104        11.323395470
     8.490773873         4.556067313        11.247568769
     6.832288629         7.410773354        11.132563047
     5.185055836        10.263889685        11.132191794
     3.542262709        13.127280103        11.245821567
     1.937934116        15.970662420        11.323232311
    13.430516415         1.754697750        11.393723982
    11.781461824         4.577858026        11.375760920
    10.110498091         7.405680681        11.341223449
     8.438109280        10.240925001        11.329431210
     6.819290574        13.107081491        11.339090013
     5.207113326        15.969014683        11.373835320
    16.698963550         1.762155522        11.410891686
    15.070980505         4.579372276        11.412195721
    13.405939336         7.403033301        11.388154258
    11.732418803        10.239673496        11.367878555
    10.084897412        13.092876617        11.366556043
     8.466279970        15.961625911        11.385380415
     1.930000000        10.312000000        14.570000000
     3.090000000         8.316000000        14.570000000
     2.510000000         9.314000000        14.570000000
     
