W36 Se72                                
   1.00000000000000     
    19.6919994353999996    0.0000000000000000    0.0000000000000000
    -9.8459997176999998   17.0537717624000003    0.0000000000000000
     0.0000000000000000    0.0000000000000000   25.9200000762999991
   W    Se   O    C 
    36    71     1     1
Direct
  0.1206217120940281  0.0466658432531446  0.5004506453540714
  0.1212508121991647  0.2138083984329455  0.5000767309044321
  0.1212333100052732  0.3796587615698854  0.5000518156184981
  0.1206197169906886  0.5461665705982668  0.5003767011227183
  0.1204189890726184  0.7129149828535262  0.5005612604711587
  0.1204077739357956  0.8797342324780146  0.5005997330358198
  0.2871504251329000  0.0466671575044160  0.5004226210971296
  0.2876587256143353  0.2142439957283315  0.4992085790117713
  0.2900410456421483  0.3811592802609667  0.4975536832366529
  0.2876560138612163  0.5456774855661095  0.4992088191902582
  0.2871671517758685  0.7127140181788292  0.5003768270348772
  0.2870726356652895  0.8796549770603121  0.5006932398081076
  0.4536719916348559  0.0464692450763096  0.5008744332746318
  0.4536685278069825  0.2137881471181302  0.5000289271436742
  0.4522020560528546  0.3811324504006208  0.4975115765090123
  0.4521753507060211  0.5432927553866591  0.4975537666239163
  0.4536754961226990  0.7121015216978748  0.5000521534262603
  0.4536604496672254  0.8794030958483319  0.5008939534346126
  0.6203767270035598  0.0462823354138848  0.5012300551978939
  0.6202371259040973  0.2130960124072701  0.5008686466894119
  0.6195450570165306  0.3796644901887092  0.5000288228624399
  0.6190901803662996  0.5456761487054820  0.4992079266884275
  0.6195255340244259  0.7120833046130883  0.5000764101088606
  0.6202340207155785  0.8793178582233381  0.5009398233739262
  0.7870528020654177  0.0462810391388757  0.5012790490343377
  0.7870515101038862  0.2129569673157761  0.5012303241775413
  0.7868636062954408  0.3796607003893158  0.5008742891826827
  0.7866665477029073  0.5461830559826524  0.5004224285287435
  0.7866684327572031  0.7127124444793935  0.5004499427548623
  0.7868489958318889  0.8793784432196006  0.5009455288797469
  0.9539557461946302  0.0464850439274329  0.5009459341578122
  0.9540164462966203  0.2130997557171810  0.5009398722602540
  0.9539305273678735  0.3796727842388279  0.5008941083292342
  0.9536786437245084  0.5462608910447173  0.5006931260977794
  0.9535993227597785  0.7129258259358480  0.5005996131920938
  0.9536870669145188  0.8796463160608781  0.5007548171513960
  0.0659870331511954  0.1029919260996266  0.5657372974427446
  0.0660480866739732  0.2691484541434761  0.5656994414710326
  0.0659496160789601  0.4352439830326702  0.5656681879718377
  0.0651126508078832  0.6017437032448285  0.5657654702858608
  0.0648168287443980  0.7685168419610875  0.5658306526068202
  0.0651074731940469  0.9355967469718749  0.5658572812074496
  0.2323856981990318  0.1036611094173523  0.5652161840166698
  0.2345736163432903  0.2719421351454727  0.5643268089165616
  0.2345193655763964  0.4348696175864362  0.5643104357593671
  0.2323385809725949  0.6009955295613594  0.5651567452166404
  0.2315899801535721  0.7682211869473718  0.5657656114397938
  0.2315619773582824  0.9355868931567173  0.5658238350896170
  0.3981550283905548  0.1029621102560441  0.5656774309063479
  0.3984971517900036  0.2719581359339216  0.5642791753856145
  0.3984645853776101  0.5988147632945626  0.5643109572792326
  0.3980898021317572  0.7673842600476632  0.5656688777430645
  0.3979922493740276  0.9351483305760411  0.5660798229046620
  0.5645737409082798  0.1020782544210164  0.5662801420286243
  0.5642369569770835  0.2690958520029838  0.5656477971282854
  0.5613777849006283  0.4348390873309000  0.5642784985258373
  0.5613908998391537  0.5987599301367510  0.5643267778757703
  0.5641861211506196  0.7672865748806927  0.5656991697088571
  0.5645568051509926  0.9347536105291212  0.5663051993850559
  0.7314468449586471  0.1018866611365539  0.5665689473913247
  0.7312544821505540  0.2687596149575526  0.5662799992693266
  0.7303709504698404  0.4351784522547248  0.5656768493445128
  0.7296736170590279  0.6009481627640909  0.5652152466588873
  0.7303415622595111  0.7673472538242621  0.5657368698360656
  0.7312617716335481  0.9347462850340236  0.5663533818587894
  0.8985884837096592  0.1020723258913279  0.5663531048162653
  0.8985812236390558  0.2687782433503969  0.5663053403260676
  0.8981850481378117  0.4353415462681198  0.5660791102249831
  0.8977464217665059  0.6017715220998525  0.5658235556834157
  0.8977367095498465  0.7682262164537192  0.5658570691806375
  0.8981867983536276  0.9351466576142542  0.5661238405934554
  0.0646307578014884  0.1018459598690811  0.4353235842234895
  0.0644961259999377  0.2683342925075607  0.4351173179687606
  0.0646096892931780  0.4349309961546126  0.4352773931689313
  0.0647377821324966  0.6017522206935411  0.4353261366248589
  0.0648070189915373  0.7685268393400690  0.4353521859018272
  0.0647181376563992  0.9351907018898231  0.4353730938765139
  0.2313595547211307  0.1016600116309405  0.4348792020948267
  0.2309825242479491  0.2683156930338413  0.4335835005677424
  0.2309902411576843  0.4349941202647258  0.4335751004277455
  0.2313944072074534  0.6019397988321558  0.4348325701834810
  0.2315816945821396  0.7685960123596303  0.4353258988763429
  0.2315582704118100  0.9351747153779471  0.4353541111927726
  0.3983448927252908  0.1018210375665518  0.4352872495901963
  0.3983354775141450  0.2682425865223763  0.4335484502512870
  0.3981406077568650  0.4351934376342470  0.4301719327711240
  0.3983408114833438  0.6023439504667536  0.4335754824269671
  0.3984028730536195  0.7687242778634058  0.4352767630636194
  0.3983819780946121  0.9352588754144904  0.4356241069673246
  0.5649849318410887  0.1017512599659725  0.4357973756140723
  0.5649790593786506  0.2683535462585169  0.4350886635244677
  0.5650906944645726  0.4349976893312615  0.4335485860104669
  0.5650181810071473  0.6023520232932285  0.4335828437623945
  0.5650000085975222  0.7688400335442154  0.4351169429383646
  0.5649982770101474  0.9353341429459050  0.4358380157985948
  0.7315361058790657  0.1017967233760828  0.4360211139503463
  0.7315815896022144  0.2683475378614162  0.4357975924774067
  0.7315120288772263  0.4349878980470834  0.4352875226357966
  0.7316741086532232  0.6019744259318074  0.4348789707095335
  0.7314878642895835  0.7687036688571922  0.4353229375726784
  0.7315804898481417  0.9353390321221084  0.4358674514995755
  0.8979937028133449  0.1017517117466440  0.4358677056295406
  0.8979996897571638  0.2683347481947891  0.4358389197057093
  0.8980740297367689  0.4349508515973497  0.4356249240187395
  0.8981585506515515  0.6017751136993041  0.4353546496862393
  0.8981448363818956  0.7686160874035082  0.4353718864523088
  0.8980695054701826  0.9352647694491054  0.4356834753882595
  0.3981364159806091  0.4351976966188147  0.5940721927982295
  0.3981644658341850  0.4351725413933849  0.5463738638155533
 
  0.00000000E+00  0.00000000E+00  0.00000000E+00
  0.00000000E+00  0.00000000E+00  0.00000000E+00
  0.00000000E+00  0.00000000E+00  0.00000000E+00
  0.00000000E+00  0.00000000E+00  0.00000000E+00
  0.00000000E+00  0.00000000E+00  0.00000000E+00
  0.00000000E+00  0.00000000E+00  0.00000000E+00
  0.00000000E+00  0.00000000E+00  0.00000000E+00
  0.00000000E+00  0.00000000E+00  0.00000000E+00
  0.00000000E+00  0.00000000E+00  0.00000000E+00
  0.00000000E+00  0.00000000E+00  0.00000000E+00
  0.00000000E+00  0.00000000E+00  0.00000000E+00
  0.00000000E+00  0.00000000E+00  0.00000000E+00
  0.00000000E+00  0.00000000E+00  0.00000000E+00
  0.00000000E+00  0.00000000E+00  0.00000000E+00
  0.00000000E+00  0.00000000E+00  0.00000000E+00
  0.00000000E+00  0.00000000E+00  0.00000000E+00
  0.00000000E+00  0.00000000E+00  0.00000000E+00
  0.00000000E+00  0.00000000E+00  0.00000000E+00
  0.00000000E+00  0.00000000E+00  0.00000000E+00
  0.00000000E+00  0.00000000E+00  0.00000000E+00
  0.00000000E+00  0.00000000E+00  0.00000000E+00
  0.00000000E+00  0.00000000E+00  0.00000000E+00
  0.00000000E+00  0.00000000E+00  0.00000000E+00
  0.00000000E+00  0.00000000E+00  0.00000000E+00
  0.00000000E+00  0.00000000E+00  0.00000000E+00
  0.00000000E+00  0.00000000E+00  0.00000000E+00
  0.00000000E+00  0.00000000E+00  0.00000000E+00
  0.00000000E+00  0.00000000E+00  0.00000000E+00
  0.00000000E+00  0.00000000E+00  0.00000000E+00
  0.00000000E+00  0.00000000E+00  0.00000000E+00
  0.00000000E+00  0.00000000E+00  0.00000000E+00
  0.00000000E+00  0.00000000E+00  0.00000000E+00
  0.00000000E+00  0.00000000E+00  0.00000000E+00
  0.00000000E+00  0.00000000E+00  0.00000000E+00
  0.00000000E+00  0.00000000E+00  0.00000000E+00
  0.00000000E+00  0.00000000E+00  0.00000000E+00
  0.00000000E+00  0.00000000E+00  0.00000000E+00
  0.00000000E+00  0.00000000E+00  0.00000000E+00
  0.00000000E+00  0.00000000E+00  0.00000000E+00
  0.00000000E+00  0.00000000E+00  0.00000000E+00
  0.00000000E+00  0.00000000E+00  0.00000000E+00
  0.00000000E+00  0.00000000E+00  0.00000000E+00
  0.00000000E+00  0.00000000E+00  0.00000000E+00
  0.00000000E+00  0.00000000E+00  0.00000000E+00
  0.00000000E+00  0.00000000E+00  0.00000000E+00
  0.00000000E+00  0.00000000E+00  0.00000000E+00
  0.00000000E+00  0.00000000E+00  0.00000000E+00
  0.00000000E+00  0.00000000E+00  0.00000000E+00
  0.00000000E+00  0.00000000E+00  0.00000000E+00
  0.00000000E+00  0.00000000E+00  0.00000000E+00
  0.00000000E+00  0.00000000E+00  0.00000000E+00
  0.00000000E+00  0.00000000E+00  0.00000000E+00
  0.00000000E+00  0.00000000E+00  0.00000000E+00
  0.00000000E+00  0.00000000E+00  0.00000000E+00
  0.00000000E+00  0.00000000E+00  0.00000000E+00
  0.00000000E+00  0.00000000E+00  0.00000000E+00
  0.00000000E+00  0.00000000E+00  0.00000000E+00
  0.00000000E+00  0.00000000E+00  0.00000000E+00
  0.00000000E+00  0.00000000E+00  0.00000000E+00
  0.00000000E+00  0.00000000E+00  0.00000000E+00
  0.00000000E+00  0.00000000E+00  0.00000000E+00
  0.00000000E+00  0.00000000E+00  0.00000000E+00
  0.00000000E+00  0.00000000E+00  0.00000000E+00
  0.00000000E+00  0.00000000E+00  0.00000000E+00
  0.00000000E+00  0.00000000E+00  0.00000000E+00
  0.00000000E+00  0.00000000E+00  0.00000000E+00
  0.00000000E+00  0.00000000E+00  0.00000000E+00
  0.00000000E+00  0.00000000E+00  0.00000000E+00
  0.00000000E+00  0.00000000E+00  0.00000000E+00
  0.00000000E+00  0.00000000E+00  0.00000000E+00
  0.00000000E+00  0.00000000E+00  0.00000000E+00
  0.00000000E+00  0.00000000E+00  0.00000000E+00
  0.00000000E+00  0.00000000E+00  0.00000000E+00
  0.00000000E+00  0.00000000E+00  0.00000000E+00
  0.00000000E+00  0.00000000E+00  0.00000000E+00
  0.00000000E+00  0.00000000E+00  0.00000000E+00
  0.00000000E+00  0.00000000E+00  0.00000000E+00
  0.00000000E+00  0.00000000E+00  0.00000000E+00
  0.00000000E+00  0.00000000E+00  0.00000000E+00
  0.00000000E+00  0.00000000E+00  0.00000000E+00
  0.00000000E+00  0.00000000E+00  0.00000000E+00
  0.00000000E+00  0.00000000E+00  0.00000000E+00
  0.00000000E+00  0.00000000E+00  0.00000000E+00
  0.00000000E+00  0.00000000E+00  0.00000000E+00
  0.00000000E+00  0.00000000E+00  0.00000000E+00
  0.00000000E+00  0.00000000E+00  0.00000000E+00
  0.00000000E+00  0.00000000E+00  0.00000000E+00
  0.00000000E+00  0.00000000E+00  0.00000000E+00
  0.00000000E+00  0.00000000E+00  0.00000000E+00
  0.00000000E+00  0.00000000E+00  0.00000000E+00
  0.00000000E+00  0.00000000E+00  0.00000000E+00
  0.00000000E+00  0.00000000E+00  0.00000000E+00
  0.00000000E+00  0.00000000E+00  0.00000000E+00
  0.00000000E+00  0.00000000E+00  0.00000000E+00
  0.00000000E+00  0.00000000E+00  0.00000000E+00
  0.00000000E+00  0.00000000E+00  0.00000000E+00
  0.00000000E+00  0.00000000E+00  0.00000000E+00
  0.00000000E+00  0.00000000E+00  0.00000000E+00
  0.00000000E+00  0.00000000E+00  0.00000000E+00
  0.00000000E+00  0.00000000E+00  0.00000000E+00
  0.00000000E+00  0.00000000E+00  0.00000000E+00
  0.00000000E+00  0.00000000E+00  0.00000000E+00
  0.00000000E+00  0.00000000E+00  0.00000000E+00
  0.00000000E+00  0.00000000E+00  0.00000000E+00
  0.00000000E+00  0.00000000E+00  0.00000000E+00
  0.00000000E+00  0.00000000E+00  0.00000000E+00
  0.00000000E+00  0.00000000E+00  0.00000000E+00
  0.00000000E+00  0.00000000E+00  0.00000000E+00
  0.00000000E+00  0.00000000E+00  0.00000000E+00
