Mo48 Se98                               
   1.00000000000000     
    33.0000000000000000    0.0000000000000000    0.0000000000000000
     0.0000000000000000   26.3120002747000008    0.0000000000000000
     0.0000000000000000    0.0000000000000000   18.0970001220999990
   Mo   Se   O    C 
    48    98     2     1
Direct
  0.2835129187312309  0.0340628842923386  0.4947526450618812
  0.2815010646872723  0.2915414041180818  0.4996797093459608
  0.2886669215650037  0.5310088154281409  0.5024146585209502
  0.2885603757304289  0.7795922736096879  0.4976031563778682
  0.4551301853409753  0.0358446218662991  0.5007550472071856
  0.4534229962460132  0.2859065375166657  0.5001596776539718
  0.4553093736442579  0.5355295286827768  0.5003855118184610
  0.4565774829900921  0.7854106185842900  0.4999898005677003
  0.6277705147053814  0.0370560783944843  0.5009172023387182
  0.6266253426815311  0.2855611019435443  0.5003698080293819
  0.6279640794358159  0.5340007916332743  0.5005655642004965
  0.6287271057166137  0.7854597810148128  0.5008898079083792
  0.2822703409506210  0.1572147494060937  0.5100045319452516
  0.2859364373484469  0.4243361795974497  0.5013682283353513
  0.2872370431765648  0.6681619720553744  0.4984697085805323
  0.2835763522592198  0.9051764043685069  0.4965471487625037
  0.4541576178336882  0.1602951841515314  0.5007652251872504
  0.4542140521153002  0.4108555930618064  0.5002822777495636
  0.4560993015533322  0.6601190338278372  0.4999169626773431
  0.4563247564131660  0.9103529139934279  0.5005972333352072
  0.6269830546222356  0.1620362566397938  0.5005915989899624
  0.6271294085717329  0.4090395475365834  0.5003621457733973
  0.6289733094569719  0.6595870755595082  0.5007258737680116
  0.6288695566004512  0.9113991263131861  0.5009710044956167
  0.3667865208173287  0.2227527762167067  0.5005486454405460
  0.3687324906591696  0.4745424050691668  0.5006265205380507
  0.3702542022058472  0.7230219057815095  0.4984200791904888
  0.3685748885606006  0.9721162971978777  0.5001297844962159
  0.5398454347195828  0.2235479862813001  0.5005090264499809
  0.5417133150209061  0.4722132713079617  0.5003925274045420
  0.5428008063039436  0.7225567380181500  0.5004860283560230
  0.5422539304313416  0.9735124949288575  0.5009613583318554
  0.7142747119615694  0.2273525007129897  0.5003186909154003
  0.7158095771919032  0.4613591012723694  0.5003947115845305
  0.7159641615407364  0.7141440768722546  0.5008177559524153
  0.7155282656070996  0.9660909571504404  0.5006677157640832
  0.3690875827885376  0.0975440963984453  0.5006180778643636
  0.3672698863885724  0.3489748706293622  0.4993386419872185
  0.3687794338524958  0.5979038610875715  0.5000393300580969
  0.3709768711374480  0.8473478465865776  0.4992321247496548
  0.5415397012771461  0.0989198017742596  0.5008111574770143
  0.5399709919447122  0.3476463343463723  0.5002850166765307
  0.5424042139148243  0.5974564577966416  0.5004820436033720
  0.5428215849155031  0.8483116323396123  0.5007697157012423
  0.7156165473130994  0.1096583127813061  0.5005159942114221
  0.7143725495610543  0.3436333950775462  0.5002585755426713
  0.7157011920644197  0.6049369289218982  0.5006262191283225
  0.7158658695981244  0.8568880206395906  0.5008067038906587
  0.2543603542648463  0.0948261008868776  0.5938133629679080
  0.2501158273951798  0.3552072893065254  0.5761066387304519
  0.2459594799415737  0.6007731162886194  0.5527655551774550
  0.2548975589930798  0.8427286641948085  0.5841539182262598
  0.4261510748650637  0.0975532236050611  0.5940694231728271
  0.4247042931344526  0.3484916323599591  0.5926019240602983
  0.4265762979307635  0.5982846669898926  0.5925673399599892
  0.4278622324775209  0.8477812672432690  0.5930609467921788
  0.5992610570944885  0.0989965715415319  0.5937677821069062
  0.5974647839234551  0.3476117017589522  0.5929236566718520
  0.6001328003493938  0.5968959375832058  0.5931967160833806
  0.6005549608147763  0.8480913533817113  0.5933807635289013
  0.4248792791406882  0.2231633399481062  0.5927916001056874
  0.4264517087405140  0.4735354609994915  0.5935414361481672
  0.4276075144566520  0.7227630512795897  0.5922295644887957
  0.4264318963485797  0.9725795224677523  0.5927384408927591
  0.5973976361178797  0.2236165154412004  0.5930425974645717
  0.5994135263217508  0.4721357458808975  0.5934262213756158
  0.6004958045273632  0.7227318343201867  0.5931800242838934
  0.6000338248006369  0.9740571960463733  0.5935683401643970
  0.3375349171215309  0.0342704827832298  0.5918066428800036
  0.3371185021350162  0.2858044490940398  0.5924904985247978
  0.3391860688332044  0.5359268267982011  0.5978614342876984
  0.3422688798823009  0.7843574477088217  0.5937024156211330
  0.5130324029901253  0.0359266504203123  0.5932275538513937
  0.5107899855919527  0.2857393422513459  0.5932168424257274
  0.5132349944463348  0.5351493416105199  0.5927982171464417
  0.5141150905532599  0.7853231158744549  0.5928890062388235
  0.6887141629767166  0.0378165458723861  0.5882423949411444
  0.6849082249092113  0.2855586769560948  0.5962003052783227
  0.6888374406625369  0.5331895296951795  0.5880280718646780
  0.6894221396226778  0.7854786558006465  0.5887541159977987
  0.3406886702607178  0.1601279826815777  0.5956886628127677
  0.3396174503055120  0.4121412070998381  0.5951528864540911
  0.3386230885366745  0.6622300270645698  0.5942267653832692
  0.3389991438166798  0.9091643438589608  0.5912731962980001
  0.5118095501158539  0.1607659253316892  0.5934175138086704
  0.5119085346478074  0.4104693695272719  0.5929402688193749
  0.5137791088535925  0.6601258258744380  0.5928901406093519
  0.5139315662250966  0.9106793123997465  0.5935280058648890
  0.6849764585285600  0.1643991590394604  0.5962220111626683
  0.6851030365403213  0.4066648488869958  0.5960567938953468
  0.6854547311627210  0.6594740472043541  0.5988073626516430
  0.6853972814906478  0.9115064153002324  0.5989219778642736
  0.2520583326545692  0.0957903863650140  0.4139130377495150
  0.2580677091923651  0.8440262846985032  0.4048641375164072
  0.4261755138531567  0.0979777015883419  0.4074653008646969
  0.4249978714722511  0.3486338462735875  0.4072891697960423
  0.4266713744832258  0.5979330849112058  0.4075341485372614
  0.4285493629448989  0.8481147077639214  0.4069021819665495
  0.5992251655976594  0.0988128696125205  0.4078199371804972
  0.5974834978782637  0.3476064145991582  0.4077344496276055
  0.6002330569643015  0.5969896503397996  0.4081241187511803
  0.6006490714277316  0.8481499399912141  0.4084352555039991
  0.2339519175185218  0.2234026179079081  0.5364740323473861
  0.2273940193629984  0.4797380347101761  0.5114643806915014
  0.2297922601348617  0.7254548437759039  0.4806254963388548
  0.2308471935822535  0.9703117286479095  0.5030420116890612
  0.4247228412145392  0.2226076742380222  0.4083419979665613
  0.4261905950801808  0.4736102433790029  0.4075329787100539
  0.4282549809742586  0.7227218571413366  0.4067701619855582
  0.4270026831270428  0.9727133355178526  0.4083293900776759
  0.5973604064894338  0.2234611063615733  0.4079444689937340
  0.5994634315173761  0.4722531627614621  0.4074740420535602
  0.6006954360544303  0.7228575023984363  0.4082404875246366
  0.6000341586490402  0.9740532455548898  0.4085028758555949
  0.3413754788388418  0.0345284364638121  0.4065284655669184
  0.3385097121575533  0.2851342391196324  0.4079336391901657
  0.3382020762337226  0.5364603415870679  0.4038407788608613
  0.3424618966580589  0.7852297711896489  0.4035269341116731
  0.5130675999423545  0.0358759253229607  0.4085320328583719
  0.5108579685651486  0.2855915472497698  0.4074158144592640
  0.5132497130699825  0.5351752441736269  0.4080491746604594
  0.5145139877643379  0.7854941036998890  0.4079717836227799
  0.6885291627928402  0.0377548159736394  0.4131792338586124
  0.6848108814566989  0.2855111938337695  0.4044572512193769
  0.6888274469070739  0.5333043551387178  0.4130146537769682
  0.6894396125608427  0.7854849728079567  0.4130383184835062
  0.3358361051214050  0.1596796977201485  0.4105028652157086
  0.3386600493771946  0.4133763077411047  0.4059750720762026
  0.3389879661946384  0.6599281472989410  0.4039996634356394
  0.3408842011075205  0.9099869075441988  0.4062211418553202
  0.5118033984852841  0.1605788081933327  0.4079946736302753
  0.5119470065971448  0.4105558881057108  0.4076542356285022
  0.5141125786096896  0.6601111674840133  0.4076733082337208
  0.5141307804584846  0.9108072050633318  0.4080663472180117
  0.6848742041533749  0.1642597963579664  0.4047447044761662
  0.7765028324394789  0.9125351163943285  0.4996373260324057
  0.7688449223636094  0.7855446276730385  0.5013531164321585
  0.7766469602988073  0.6584735171868374  0.5001839410423248
  0.7683250963882639  0.5320038295089476  0.5005955099211993
  0.7746039743488294  0.4052451994240454  0.5001975480150098
  0.7739897571048125  0.2853777895967646  0.5000508489027077
  0.7744623339872341  0.1656358265279391  0.5001882221698716
  0.7681092620570845  0.0389584827768712  0.5003577429251757
  0.6850778097248024  0.4067423111283026  0.4046293591707469
  0.6854474733290463  0.6595862070729934  0.4026312352774606
  0.6852384878632947  0.9114718489967881  0.4027160182550132
  0.2380616395442128  0.4027871806359848  0.3619094754423782
  0.2601521241325350  0.3300933106115811  0.4146868874347636
  0.2554769233742052  0.3809839525939808  0.4118071634795230
 
  0.00000000E+00  0.00000000E+00  0.00000000E+00
  0.00000000E+00  0.00000000E+00  0.00000000E+00
  0.00000000E+00  0.00000000E+00  0.00000000E+00
  0.00000000E+00  0.00000000E+00  0.00000000E+00
  0.00000000E+00  0.00000000E+00  0.00000000E+00
  0.00000000E+00  0.00000000E+00  0.00000000E+00
  0.00000000E+00  0.00000000E+00  0.00000000E+00
  0.00000000E+00  0.00000000E+00  0.00000000E+00
  0.00000000E+00  0.00000000E+00  0.00000000E+00
  0.00000000E+00  0.00000000E+00  0.00000000E+00
  0.00000000E+00  0.00000000E+00  0.00000000E+00
  0.00000000E+00  0.00000000E+00  0.00000000E+00
  0.00000000E+00  0.00000000E+00  0.00000000E+00
  0.00000000E+00  0.00000000E+00  0.00000000E+00
  0.00000000E+00  0.00000000E+00  0.00000000E+00
  0.00000000E+00  0.00000000E+00  0.00000000E+00
  0.00000000E+00  0.00000000E+00  0.00000000E+00
  0.00000000E+00  0.00000000E+00  0.00000000E+00
  0.00000000E+00  0.00000000E+00  0.00000000E+00
  0.00000000E+00  0.00000000E+00  0.00000000E+00
  0.00000000E+00  0.00000000E+00  0.00000000E+00
  0.00000000E+00  0.00000000E+00  0.00000000E+00
  0.00000000E+00  0.00000000E+00  0.00000000E+00
  0.00000000E+00  0.00000000E+00  0.00000000E+00
  0.00000000E+00  0.00000000E+00  0.00000000E+00
  0.00000000E+00  0.00000000E+00  0.00000000E+00
  0.00000000E+00  0.00000000E+00  0.00000000E+00
  0.00000000E+00  0.00000000E+00  0.00000000E+00
  0.00000000E+00  0.00000000E+00  0.00000000E+00
  0.00000000E+00  0.00000000E+00  0.00000000E+00
  0.00000000E+00  0.00000000E+00  0.00000000E+00
  0.00000000E+00  0.00000000E+00  0.00000000E+00
  0.00000000E+00  0.00000000E+00  0.00000000E+00
  0.00000000E+00  0.00000000E+00  0.00000000E+00
  0.00000000E+00  0.00000000E+00  0.00000000E+00
  0.00000000E+00  0.00000000E+00  0.00000000E+00
  0.00000000E+00  0.00000000E+00  0.00000000E+00
  0.00000000E+00  0.00000000E+00  0.00000000E+00
  0.00000000E+00  0.00000000E+00  0.00000000E+00
  0.00000000E+00  0.00000000E+00  0.00000000E+00
  0.00000000E+00  0.00000000E+00  0.00000000E+00
  0.00000000E+00  0.00000000E+00  0.00000000E+00
  0.00000000E+00  0.00000000E+00  0.00000000E+00
  0.00000000E+00  0.00000000E+00  0.00000000E+00
  0.00000000E+00  0.00000000E+00  0.00000000E+00
  0.00000000E+00  0.00000000E+00  0.00000000E+00
  0.00000000E+00  0.00000000E+00  0.00000000E+00
  0.00000000E+00  0.00000000E+00  0.00000000E+00
  0.00000000E+00  0.00000000E+00  0.00000000E+00
  0.00000000E+00  0.00000000E+00  0.00000000E+00
  0.00000000E+00  0.00000000E+00  0.00000000E+00
  0.00000000E+00  0.00000000E+00  0.00000000E+00
  0.00000000E+00  0.00000000E+00  0.00000000E+00
  0.00000000E+00  0.00000000E+00  0.00000000E+00
  0.00000000E+00  0.00000000E+00  0.00000000E+00
  0.00000000E+00  0.00000000E+00  0.00000000E+00
  0.00000000E+00  0.00000000E+00  0.00000000E+00
  0.00000000E+00  0.00000000E+00  0.00000000E+00
  0.00000000E+00  0.00000000E+00  0.00000000E+00
  0.00000000E+00  0.00000000E+00  0.00000000E+00
  0.00000000E+00  0.00000000E+00  0.00000000E+00
  0.00000000E+00  0.00000000E+00  0.00000000E+00
  0.00000000E+00  0.00000000E+00  0.00000000E+00
  0.00000000E+00  0.00000000E+00  0.00000000E+00
  0.00000000E+00  0.00000000E+00  0.00000000E+00
  0.00000000E+00  0.00000000E+00  0.00000000E+00
  0.00000000E+00  0.00000000E+00  0.00000000E+00
  0.00000000E+00  0.00000000E+00  0.00000000E+00
  0.00000000E+00  0.00000000E+00  0.00000000E+00
  0.00000000E+00  0.00000000E+00  0.00000000E+00
  0.00000000E+00  0.00000000E+00  0.00000000E+00
  0.00000000E+00  0.00000000E+00  0.00000000E+00
  0.00000000E+00  0.00000000E+00  0.00000000E+00
  0.00000000E+00  0.00000000E+00  0.00000000E+00
  0.00000000E+00  0.00000000E+00  0.00000000E+00
  0.00000000E+00  0.00000000E+00  0.00000000E+00
  0.00000000E+00  0.00000000E+00  0.00000000E+00
  0.00000000E+00  0.00000000E+00  0.00000000E+00
  0.00000000E+00  0.00000000E+00  0.00000000E+00
  0.00000000E+00  0.00000000E+00  0.00000000E+00
  0.00000000E+00  0.00000000E+00  0.00000000E+00
  0.00000000E+00  0.00000000E+00  0.00000000E+00
  0.00000000E+00  0.00000000E+00  0.00000000E+00
  0.00000000E+00  0.00000000E+00  0.00000000E+00
  0.00000000E+00  0.00000000E+00  0.00000000E+00
  0.00000000E+00  0.00000000E+00  0.00000000E+00
  0.00000000E+00  0.00000000E+00  0.00000000E+00
  0.00000000E+00  0.00000000E+00  0.00000000E+00
  0.00000000E+00  0.00000000E+00  0.00000000E+00
  0.00000000E+00  0.00000000E+00  0.00000000E+00
  0.00000000E+00  0.00000000E+00  0.00000000E+00
  0.00000000E+00  0.00000000E+00  0.00000000E+00
  0.00000000E+00  0.00000000E+00  0.00000000E+00
  0.00000000E+00  0.00000000E+00  0.00000000E+00
  0.00000000E+00  0.00000000E+00  0.00000000E+00
  0.00000000E+00  0.00000000E+00  0.00000000E+00
  0.00000000E+00  0.00000000E+00  0.00000000E+00
  0.00000000E+00  0.00000000E+00  0.00000000E+00
  0.00000000E+00  0.00000000E+00  0.00000000E+00
  0.00000000E+00  0.00000000E+00  0.00000000E+00
  0.00000000E+00  0.00000000E+00  0.00000000E+00
  0.00000000E+00  0.00000000E+00  0.00000000E+00
  0.00000000E+00  0.00000000E+00  0.00000000E+00
  0.00000000E+00  0.00000000E+00  0.00000000E+00
  0.00000000E+00  0.00000000E+00  0.00000000E+00
  0.00000000E+00  0.00000000E+00  0.00000000E+00
  0.00000000E+00  0.00000000E+00  0.00000000E+00
  0.00000000E+00  0.00000000E+00  0.00000000E+00
  0.00000000E+00  0.00000000E+00  0.00000000E+00
  0.00000000E+00  0.00000000E+00  0.00000000E+00
  0.00000000E+00  0.00000000E+00  0.00000000E+00
  0.00000000E+00  0.00000000E+00  0.00000000E+00
  0.00000000E+00  0.00000000E+00  0.00000000E+00
  0.00000000E+00  0.00000000E+00  0.00000000E+00
  0.00000000E+00  0.00000000E+00  0.00000000E+00
  0.00000000E+00  0.00000000E+00  0.00000000E+00
  0.00000000E+00  0.00000000E+00  0.00000000E+00
  0.00000000E+00  0.00000000E+00  0.00000000E+00
  0.00000000E+00  0.00000000E+00  0.00000000E+00
  0.00000000E+00  0.00000000E+00  0.00000000E+00
  0.00000000E+00  0.00000000E+00  0.00000000E+00
  0.00000000E+00  0.00000000E+00  0.00000000E+00
  0.00000000E+00  0.00000000E+00  0.00000000E+00
  0.00000000E+00  0.00000000E+00  0.00000000E+00
  0.00000000E+00  0.00000000E+00  0.00000000E+00
  0.00000000E+00  0.00000000E+00  0.00000000E+00
  0.00000000E+00  0.00000000E+00  0.00000000E+00
  0.00000000E+00  0.00000000E+00  0.00000000E+00
  0.00000000E+00  0.00000000E+00  0.00000000E+00
  0.00000000E+00  0.00000000E+00  0.00000000E+00
  0.00000000E+00  0.00000000E+00  0.00000000E+00
  0.00000000E+00  0.00000000E+00  0.00000000E+00
  0.00000000E+00  0.00000000E+00  0.00000000E+00
  0.00000000E+00  0.00000000E+00  0.00000000E+00
  0.00000000E+00  0.00000000E+00  0.00000000E+00
  0.00000000E+00  0.00000000E+00  0.00000000E+00
  0.00000000E+00  0.00000000E+00  0.00000000E+00
  0.00000000E+00  0.00000000E+00  0.00000000E+00
  0.00000000E+00  0.00000000E+00  0.00000000E+00
  0.00000000E+00  0.00000000E+00  0.00000000E+00
  0.00000000E+00  0.00000000E+00  0.00000000E+00
  0.00000000E+00  0.00000000E+00  0.00000000E+00
  0.00000000E+00  0.00000000E+00  0.00000000E+00
  0.00000000E+00  0.00000000E+00  0.00000000E+00
  0.00000000E+00  0.00000000E+00  0.00000000E+00
  0.00000000E+00  0.00000000E+00  0.00000000E+00
  0.00000000E+00  0.00000000E+00  0.00000000E+00
  0.00000000E+00  0.00000000E+00  0.00000000E+00
  0.00000000E+00  0.00000000E+00  0.00000000E+00
