Mo48 Se98
1.0
  33.0000000000         0.0000000000         0.0000000000
   0.0000000000        26.3120002747         0.0000000000
   0.0000000000         0.0000000000        18.0970001221
Mo Se O C
48 98 2 1
Cartesian
     9.291721560         1.016940655         8.988517373
     9.448571880         7.406636789         9.137833007
     9.529717890        13.831713091         9.174808073
     9.453518250        20.531681647         9.113762006
    14.977152630         0.948489197         9.081474605
    14.968349550         7.524142762         9.063959966
    15.005898270        14.077180636         9.079110956
    15.013194240        20.664066004         9.065203592
    20.678322060         0.967957973         9.048396184
    20.671108590         7.509599067         9.039447399
    20.697765000        14.053136730         9.038301678
    20.697164730        20.668772958         9.045092215
     9.417694110         4.352418470         9.117171843
     9.517312860        11.070063955         9.174250143
     9.482209110        17.487051421         9.137970725
     9.307521960        23.862802195         8.987885969
    14.978159790         4.228808640         9.065239062
    14.986774770        10.801251877         9.077793856
    15.017564100        17.361074300         9.063691045
    14.994550890        23.956474758         9.079781450
    20.670708630         4.256668838         9.043300612
    20.685097620        10.762637964         9.038910461
    20.715945360        17.357735044         9.039882451
    20.700460770        23.978177422         9.049088214
    12.131686380         5.900849691         9.066000403
    12.169220580        12.442896779         9.113957634
    12.172059900        18.988853041         9.066299546
    12.092205840        25.602695053         9.096344548
    17.808375090         5.880328962         9.051327536
    17.863409520        12.422345528         9.054280424
    17.867555640        19.012135741         9.052527548
    17.843881440        25.614744897         9.065579648
    23.556862890         5.976450645         9.032377263
    23.602251750        12.144406607         9.028151070
    23.582357040        18.795869254         9.029958418
    23.567227200        25.413519402         9.035287441
    12.149170110         2.603593740         9.082874046
    12.108609150         9.177028677         9.116142666
    12.141850050        15.709346113         9.115666715
    12.175723560        22.289586123         9.081497407
    17.843113200         2.599560373         9.059768520
    17.818098540         9.146203379         9.052099011
    17.868465450        15.720017208         9.052446112
    17.857307490        22.322411922         9.060574380
    23.586757920         2.875765071         9.033633375
    23.562836550         9.039930788         9.030848247
    23.583133530        15.924078348         9.027790035
    23.573732820        22.544107101         9.034608080
     8.351967030         2.725036514        10.637557828
     8.142088020         9.188087347        10.116150499
     8.169183660        15.715576269        10.127137550
     8.377881270        22.156974431        10.634750984
    14.040311340         2.588359092        10.761812736
    14.038206930         9.160156896        10.759201882
    14.074814490        15.729644769        10.757530805
    14.069954910        22.306033228        10.757956989
    19.754721360         2.599840596        10.733085015
    19.720532040         9.143781622        10.719931392
    19.781931510        15.706711493        10.717698584
    19.771536840        22.313829473        10.725243042
    14.040221580         5.877976142        10.741149581
    14.089271460        12.443812173        10.777505007
    14.085808440        19.007722429        10.738972331
    14.017938660        25.602435880        10.751644032
    19.710288180         5.879760885        10.719752050
    19.775636100        12.423038586        10.726373924
    19.781066250        19.016905843        10.719207874
    19.759643970        25.627559104        10.728413275
    11.078946120         0.970064774        10.739450816
    11.170625070         7.488377912        10.845140735
    11.215879950        14.058846434        10.892789051
    11.289234000        20.601418710        10.798411204
    16.897054680         0.948618389        10.741787501
    16.868365470         7.515792912        10.737882349
    16.931918190        14.077587419        10.733251327
    16.926434910        20.662384141        10.731329787
    22.693095480         0.988839965        10.622680104
    22.596596880         7.510206085        10.770298962
    22.710544890        14.034556511        10.614836140
    22.707060420        20.667052416        10.627852226
    11.254634160         4.289153107        10.799957050
    11.199038070        10.835349861        10.893832162
    11.208675720        17.400368115        10.843779479
    11.096486610        23.919395098        10.738460186
    16.883186760         4.231316963        10.736963021
    16.904038140        10.796190501        10.738260757
    16.932656400        17.367617832        10.732143428
    16.911625170        23.963150638        10.744897289
    22.588849800         4.319129317        10.769553547
    22.602516750        10.702583718        10.765043232
    22.586706120        17.355461424        10.808117530
    22.572537570        23.980194500        10.814757501
     8.362565310         2.618887853         7.442136494
     8.390866110        22.255577336         7.436921663
    14.034290490         2.582273652         7.392401957
    13.994485560         9.172986101         7.409790097
    14.033753580        15.715960424         7.411399102
    14.063683920        22.311449816         7.393370508
    19.739630790         2.594037221         7.367615582
    19.705666860         9.143484560         7.366898397
    19.764761280        15.707512693         7.368173693
    19.755256620        22.317301342         7.377910241
     7.646622390         5.901137807         8.498247200
     7.524401280        12.457980659         8.994401432
     7.667562870        18.989787117         8.525082517
     7.608497160        25.590471288         9.225798362
    14.023780320         5.878507382         7.386594087
    14.041175610        12.444637581         7.406665107
    14.070056220        19.007851621         7.387791384
    14.015650770        25.604315873         7.423083611
    19.696919880         5.875926701         7.368534366
    19.757614470        12.423163568         7.360422024
    19.767231660        19.021532546         7.371491054
    19.742204130        25.626415322         7.380030305
    11.198799480         0.934679870         7.397162916
    11.097522480         7.575806374         7.376695389
    11.143832040        14.075480617         7.391900308
    11.196951480        20.640042884         7.377680228
    16.878552240         0.943325993         7.398962119
    16.851866130         7.517216128         7.372916736
    16.901560170        14.075514823         7.391224566
    16.915202700        20.669550214         7.388060305
    22.678831890         0.986193767         7.454105126
    22.586560590         7.507664345         7.297908109
    22.699323240        14.035505322         7.445829006
    22.692250350        20.670573751         7.445828101
    11.157876510         4.245192859         7.378715196
    11.126652900        10.818388356         7.390678579
    11.136843300        17.314616780         7.378512328
    11.214035580        23.951696499         7.394942595
    16.871816940         4.224937618         7.379486128
    16.875915210        10.798473593         7.383048703
    16.915646880        17.367445225         7.378820882
    16.893576480        23.967223736         7.392486470
    22.575469620         4.317656371         7.303987434
    25.576602480        24.004634927         9.025695307
    25.325898180        20.672021174         9.019092979
    25.589115750        17.337256414         9.012190421
    25.325767500        14.008707076         9.026690823
    25.544215950        10.667434832         9.032972473
    25.528305330         7.503854105         9.029302039
    25.534007730         4.344063358         9.024999659
    25.310921790         1.013483522         9.029460931
    22.590726180        10.700796607         7.298933666
    22.571813880        17.359422959         7.257950113
    22.555263060        23.979280158         7.265180408
     9.517000000        11.070000000         7.390000000
     9.517000000         8.750000000         7.390000000
     9.517000000         9.910000000         7.390000000
