W36 Se72                                
   1.00000000000000     
    19.6919994353999996    0.0000000000000000    0.0000000000000000
    -9.8459997176999998   17.0537717624000003    0.0000000000000000
     0.0000000000000000    0.0000000000000000   25.9200000762999991
   W    Se   O    C 
    36    70     1     1
Direct
  0.1215874121274894  0.0470685564717428  0.4998629089561604
  0.1238273250543713  0.2148772246033985  0.4999036747832548
  0.1220873023760731  0.3794156091504703  0.5002370025294951
  0.1206109254906735  0.5454513191788095  0.5010069253318647
  0.1202538127307093  0.7123508009323842  0.5013945811772516
  0.1203068756542862  0.8795317624472858  0.5009366353387179
  0.2875838732417435  0.0466853931509377  0.4987128011431352
  0.2906863406364835  0.2176593408323768  0.4936810832436223
  0.2941998168182707  0.3823421656333821  0.4943696858981212
  0.2879957550264010  0.5444801686109102  0.4984307208649525
  0.2871881555937463  0.7120487834036524  0.5008437513573938
  0.2868200979395468  0.8792231096426377  0.5008776065566209
  0.4533969190563241  0.0464796881879579  0.5005133934440948
  0.4509074815949887  0.2133562745895148  0.4976020691510925
  0.4437092473751250  0.3773292830618189  0.4965868783803629
  0.4493129755404297  0.5386787786929830  0.4962357038399503
  0.4535407573913233  0.7111911493882133  0.5006678299591556
  0.4534559779962990  0.8787522387116695  0.5015789146074354
  0.6201313174601211  0.0460978191766301  0.5021832622311138
  0.6188208253346090  0.2128375424185052  0.5015737492961989
  0.6190252808897156  0.3791721657668532  0.5005753663086381
  0.6175064033003181  0.5450162901446589  0.4993282137016806
  0.6187974305234007  0.7110192338186252  0.5012158359261960
  0.6201543779538667  0.8789625046780998  0.5021427896932593
  0.7872207605268216  0.0460963800522620  0.5026428757340540
  0.7868657368855239  0.2127643524820328  0.5026039056518599
  0.7862232870526711  0.3792892679663922  0.5021591162141448
  0.7858524658988841  0.5453935586907050  0.5015815153561149
  0.7860961308983008  0.7120905454926003  0.5017367852353516
  0.7867467790033231  0.8789527217693447  0.5023766894332553
  0.9547432169525862  0.0467682690967024  0.5019307673956703
  0.9545153137507114  0.2129285988759406  0.5020984030439308
  0.9541736583525662  0.3792756564323625  0.5021010346943982
  0.9534090849037469  0.5457116892402354  0.5019625783546218
  0.9532621191220798  0.7124569032815344  0.5018289494139125
  0.9539839238830936  0.8795612281154703  0.5018613486263916
  0.0686630301909616  0.1042141819254638  0.5657267465145779
  0.0683182028922857  0.2692507822777586  0.5660318550400376
  0.0671112484782199  0.4346628316098631  0.5663845928999791
  0.0654210917081315  0.6012196151245206  0.5666729876119732
  0.0651740600970641  0.7686826621531964  0.5665937297463870
  0.0667039041499891  0.9369583387120599  0.5662157229758762
  0.2367570864833084  0.1088392920010364  0.5622156527565778
  0.2433893438503389  0.2755070320434712  0.5620514114696036
  0.2383733259353491  0.4337623356464633  0.5628482876394258
  0.2330188208578861  0.5997592204497124  0.5651303433537862
  0.2318514714079001  0.7680342719621507  0.5662407864993284
  0.2323019416527501  0.9369737168074863  0.5653667513676979
  0.3974403957876333  0.1045000641266114  0.5643955064035779
  0.3975533684428640  0.5949439763832984  0.5635996410049202
  0.3978213100532457  0.7664201621792301  0.5663095999160390
  0.3977389830299884  0.9354207301988637  0.5661840702274930
  0.5632677250921247  0.1017176237426867  0.5667264486524886
  0.5592736062895227  0.2682561958110838  0.5653335758855675
  0.5573109114906387  0.4326824823286231  0.5624769091066710
  0.5572209531451406  0.5946706207337868  0.5642271486672001
  0.5635362511739928  0.7663614910053056  0.5666883882950060
  0.5640784537106782  0.9344007953652280  0.5672267927000760
  0.7311001442707763  0.1015391929104226  0.5677704795178542
  0.7297040387220690  0.2680525625055452  0.5673089489133929
  0.7290841034472280  0.4344035115748710  0.5668714769365977
  0.7279762669450989  0.5997245114155945  0.5660287780670004
  0.7295687728574975  0.7664172816491970  0.5670329430996190
  0.7311738666081951  0.9344363065270329  0.5676818289955676
  0.8993450067685842  0.1020325797724055  0.5675352274323728
  0.8988920576400972  0.2684403715701009  0.5675330177775706
  0.8979784782108098  0.4346527912646252  0.5672682945260732
  0.8971874008211174  0.6011377406389471  0.5669748363215348
  0.8976296722049426  0.7680332911167156  0.5670198039973542
  0.8988963801116299  0.9353626260330543  0.5672450831122688
  0.0646699927427719  0.1020783354249701  0.4356541871548743
  0.0642879969803332  0.2677996710988708  0.4358629352992267
  0.0642897432552729  0.4342743305980719  0.4359762124863806
  0.0641196213872561  0.6009936433309377  0.4363199164794196
  0.0640718870403987  0.7675631499157376  0.4362646533612207
  0.0640535053993929  0.9344031262164378  0.4357473491406765
  0.2304910554998827  0.1000465486491890  0.4325919171631440
  0.2301886418853911  0.2700485994472714  0.4307156293080894
  0.2309505555137079  0.4341886126006713  0.4325285901195457
  0.2309996144608135  0.6015184953794162  0.4350755293287776
  0.2311455545591699  0.7677113472802048  0.4359024145796297
  0.2306398717244491  0.9335293521013455  0.4350366177458795
  0.3976178946608044  0.0997865815696528  0.4331888181086470
  0.3999127290307172  0.2699742675982222  0.4279316022391768
  0.3995311344120509  0.4348117894987311  0.4264790478716094
  0.3994953314965102  0.6019424505109328  0.4334016965528633
  0.3985628077515670  0.7681181030088311  0.4358775210149801
  0.3983072766744726  0.9342769018869674  0.4359615984038498
  0.5653973284185128  0.1017497593749326  0.4363031106535331
  0.5655230294673856  0.2688448985924978  0.4350506329387898
  0.5618709086529066  0.4332396298104442  0.4352018931328416
  0.5632504786189827  0.6015907430947536  0.4340243846212886
  0.5653227359689197  0.7685928261523074  0.4362553152862318
  0.5651951104382604  0.9350238511416080  0.4368542586836313
  0.7317434622982262  0.1016965859162511  0.4373560946047164
  0.7312900460278016  0.2680388935493667  0.4371467274684662
  0.7315532915636069  0.4348363866162188  0.4361411202602099
  0.7312675051194333  0.6015468952233007  0.4359029280595479
  0.7311825174009670  0.7682970861823577  0.4367087928205819
  0.7317115444109064  0.9351175588022755  0.4372690516129865
  0.8980641644515046  0.1015809570538835  0.4371298091525873
  0.8979009032104983  0.2679442848143978  0.4371860217385404
  0.8977397869073727  0.4343607271975287  0.4370210700813857
  0.8977109635331857  0.6012040846920641  0.4367055242536040
  0.8977182033449864  0.7681318683171980  0.4367272628006660
  0.8979466942155128  0.9350215426144715  0.4370406496352217
  0.4141453442574914  0.3146507015539868  0.5763983084652153
  0.3983107910118520  0.2665761774892061  0.5388609327419616
 
  0.00000000E+00  0.00000000E+00  0.00000000E+00
  0.00000000E+00  0.00000000E+00  0.00000000E+00
  0.00000000E+00  0.00000000E+00  0.00000000E+00
  0.00000000E+00  0.00000000E+00  0.00000000E+00
  0.00000000E+00  0.00000000E+00  0.00000000E+00
  0.00000000E+00  0.00000000E+00  0.00000000E+00
  0.00000000E+00  0.00000000E+00  0.00000000E+00
  0.00000000E+00  0.00000000E+00  0.00000000E+00
  0.00000000E+00  0.00000000E+00  0.00000000E+00
  0.00000000E+00  0.00000000E+00  0.00000000E+00
  0.00000000E+00  0.00000000E+00  0.00000000E+00
  0.00000000E+00  0.00000000E+00  0.00000000E+00
  0.00000000E+00  0.00000000E+00  0.00000000E+00
  0.00000000E+00  0.00000000E+00  0.00000000E+00
  0.00000000E+00  0.00000000E+00  0.00000000E+00
  0.00000000E+00  0.00000000E+00  0.00000000E+00
  0.00000000E+00  0.00000000E+00  0.00000000E+00
  0.00000000E+00  0.00000000E+00  0.00000000E+00
  0.00000000E+00  0.00000000E+00  0.00000000E+00
  0.00000000E+00  0.00000000E+00  0.00000000E+00
  0.00000000E+00  0.00000000E+00  0.00000000E+00
  0.00000000E+00  0.00000000E+00  0.00000000E+00
  0.00000000E+00  0.00000000E+00  0.00000000E+00
  0.00000000E+00  0.00000000E+00  0.00000000E+00
  0.00000000E+00  0.00000000E+00  0.00000000E+00
  0.00000000E+00  0.00000000E+00  0.00000000E+00
  0.00000000E+00  0.00000000E+00  0.00000000E+00
  0.00000000E+00  0.00000000E+00  0.00000000E+00
  0.00000000E+00  0.00000000E+00  0.00000000E+00
  0.00000000E+00  0.00000000E+00  0.00000000E+00
  0.00000000E+00  0.00000000E+00  0.00000000E+00
  0.00000000E+00  0.00000000E+00  0.00000000E+00
  0.00000000E+00  0.00000000E+00  0.00000000E+00
  0.00000000E+00  0.00000000E+00  0.00000000E+00
  0.00000000E+00  0.00000000E+00  0.00000000E+00
  0.00000000E+00  0.00000000E+00  0.00000000E+00
  0.00000000E+00  0.00000000E+00  0.00000000E+00
  0.00000000E+00  0.00000000E+00  0.00000000E+00
  0.00000000E+00  0.00000000E+00  0.00000000E+00
  0.00000000E+00  0.00000000E+00  0.00000000E+00
  0.00000000E+00  0.00000000E+00  0.00000000E+00
  0.00000000E+00  0.00000000E+00  0.00000000E+00
  0.00000000E+00  0.00000000E+00  0.00000000E+00
  0.00000000E+00  0.00000000E+00  0.00000000E+00
  0.00000000E+00  0.00000000E+00  0.00000000E+00
  0.00000000E+00  0.00000000E+00  0.00000000E+00
  0.00000000E+00  0.00000000E+00  0.00000000E+00
  0.00000000E+00  0.00000000E+00  0.00000000E+00
  0.00000000E+00  0.00000000E+00  0.00000000E+00
  0.00000000E+00  0.00000000E+00  0.00000000E+00
  0.00000000E+00  0.00000000E+00  0.00000000E+00
  0.00000000E+00  0.00000000E+00  0.00000000E+00
  0.00000000E+00  0.00000000E+00  0.00000000E+00
  0.00000000E+00  0.00000000E+00  0.00000000E+00
  0.00000000E+00  0.00000000E+00  0.00000000E+00
  0.00000000E+00  0.00000000E+00  0.00000000E+00
  0.00000000E+00  0.00000000E+00  0.00000000E+00
  0.00000000E+00  0.00000000E+00  0.00000000E+00
  0.00000000E+00  0.00000000E+00  0.00000000E+00
  0.00000000E+00  0.00000000E+00  0.00000000E+00
  0.00000000E+00  0.00000000E+00  0.00000000E+00
  0.00000000E+00  0.00000000E+00  0.00000000E+00
  0.00000000E+00  0.00000000E+00  0.00000000E+00
  0.00000000E+00  0.00000000E+00  0.00000000E+00
  0.00000000E+00  0.00000000E+00  0.00000000E+00
  0.00000000E+00  0.00000000E+00  0.00000000E+00
  0.00000000E+00  0.00000000E+00  0.00000000E+00
  0.00000000E+00  0.00000000E+00  0.00000000E+00
  0.00000000E+00  0.00000000E+00  0.00000000E+00
  0.00000000E+00  0.00000000E+00  0.00000000E+00
  0.00000000E+00  0.00000000E+00  0.00000000E+00
  0.00000000E+00  0.00000000E+00  0.00000000E+00
  0.00000000E+00  0.00000000E+00  0.00000000E+00
  0.00000000E+00  0.00000000E+00  0.00000000E+00
  0.00000000E+00  0.00000000E+00  0.00000000E+00
  0.00000000E+00  0.00000000E+00  0.00000000E+00
  0.00000000E+00  0.00000000E+00  0.00000000E+00
  0.00000000E+00  0.00000000E+00  0.00000000E+00
  0.00000000E+00  0.00000000E+00  0.00000000E+00
  0.00000000E+00  0.00000000E+00  0.00000000E+00
  0.00000000E+00  0.00000000E+00  0.00000000E+00
  0.00000000E+00  0.00000000E+00  0.00000000E+00
  0.00000000E+00  0.00000000E+00  0.00000000E+00
  0.00000000E+00  0.00000000E+00  0.00000000E+00
  0.00000000E+00  0.00000000E+00  0.00000000E+00
  0.00000000E+00  0.00000000E+00  0.00000000E+00
  0.00000000E+00  0.00000000E+00  0.00000000E+00
  0.00000000E+00  0.00000000E+00  0.00000000E+00
  0.00000000E+00  0.00000000E+00  0.00000000E+00
  0.00000000E+00  0.00000000E+00  0.00000000E+00
  0.00000000E+00  0.00000000E+00  0.00000000E+00
  0.00000000E+00  0.00000000E+00  0.00000000E+00
  0.00000000E+00  0.00000000E+00  0.00000000E+00
  0.00000000E+00  0.00000000E+00  0.00000000E+00
  0.00000000E+00  0.00000000E+00  0.00000000E+00
  0.00000000E+00  0.00000000E+00  0.00000000E+00
  0.00000000E+00  0.00000000E+00  0.00000000E+00
  0.00000000E+00  0.00000000E+00  0.00000000E+00
  0.00000000E+00  0.00000000E+00  0.00000000E+00
  0.00000000E+00  0.00000000E+00  0.00000000E+00
  0.00000000E+00  0.00000000E+00  0.00000000E+00
  0.00000000E+00  0.00000000E+00  0.00000000E+00
  0.00000000E+00  0.00000000E+00  0.00000000E+00
  0.00000000E+00  0.00000000E+00  0.00000000E+00
  0.00000000E+00  0.00000000E+00  0.00000000E+00
  0.00000000E+00  0.00000000E+00  0.00000000E+00
  0.00000000E+00  0.00000000E+00  0.00000000E+00
  0.00000000E+00  0.00000000E+00  0.00000000E+00
