H4 W48 C1 S97 O1                        
   1.00000000000000     
    33.0000000000000000    0.0000000000000000    0.0000000000000000
     0.0000000000000000   25.2255992900000017    0.0000000000000000
     0.0000000000000000    0.0000000000000000   17.4929999999999986
   W    S    O    C    H 
    48    97     1     1     4
Direct
  0.2887889957627301  0.0427219485643647  0.5093978850603156
  0.2952249047363592  0.2931297384161495  0.5127180003256170
  0.2926341763067146  0.5160943765606468  0.5097240170216655
  0.2927089649315973  0.7807046305832296  0.5060810687590468
  0.4556854460688559  0.0355149086562605  0.5053633409354582
  0.4577148826395860  0.2854257376799892  0.5057424007019709
  0.4571113706361414  0.5351110538779945  0.5039862513108078
  0.4562203269478057  0.7848546114494785  0.5024877678627141
  0.6225539128759434  0.0353849187760687  0.4995967561644761
  0.6235959868083608  0.2849515433596598  0.4997521078016710
  0.6234311560989440  0.5349099052598734  0.4986238555680726
  0.6227005396632102  0.7851864974323124  0.4982641444216092
  0.2919879560005871  0.1657491283647865  0.5048110492310842
  0.3007693730725826  0.4093324819137300  0.5150269394550520
  0.2931287259729968  0.6645251612691739  0.5083862766391526
  0.2884630506861573  0.9041878296041270  0.5077093744166183
  0.4564539108896394  0.1605129638159329  0.5054820344855432
  0.4578939265071530  0.4100367587733441  0.5054706876585361
  0.4559726262286967  0.6592452553003451  0.5023403067708515
  0.4556641332079395  0.9100634136473726  0.5043054564456576
  0.6230205420900684  0.1597259520876357  0.4998492793058341
  0.6236582285905856  0.4103150273587531  0.4993070863666937
  0.6231165820075777  0.6600691681827658  0.4981113496911593
  0.6225646629019038  0.9103512869504630  0.4989566310294549
  0.3732223731196115  0.2250811561366745  0.5076909718984579
  0.3761278440154886  0.4721040431591593  0.5080517338368057
  0.3732104337748092  0.7212757364991159  0.5035819134973789
  0.3712657329808586  0.9732526318840393  0.5078177992626345
  0.5405456739024977  0.2223976355251908  0.5027036660352814
  0.5404074579894903  0.4727562072218949  0.5017380958369347
  0.5396167541945087  0.7224541704758786  0.5002105647428954
  0.5394415608260563  0.9727980012300922  0.5020885849571481
  0.7082837756817818  0.2154908182968508  0.4969189093509641
  0.7080033319404211  0.4722364066958407  0.4962754739397085
  0.7074899475443990  0.7290025804776903  0.4957863553367017
  0.7078419384096065  0.9790780855278012  0.4965189077402419
  0.3731851130847464  0.0989432925727368  0.5078204831996441
  0.3759251697253992  0.3475710991644277  0.5100783202325361
  0.3719145755007174  0.5955747066944820  0.5067741485275101
  0.3731187355160787  0.8469121221828849  0.5062786278103771
  0.5392199583824926  0.0976325279439965  0.5026603740259401
  0.5411249530981391  0.3475862392761883  0.5025092517525771
  0.5403705074326379  0.5975632693371353  0.5006582742582858
  0.5394088155785590  0.8476660276262432  0.5009747259601098
  0.7073310586145954  0.0978671152381719  0.4968266310709517
  0.7085995342041302  0.3543532770251698  0.4967037998903994
  0.7085121424312157  0.5913155572544109  0.4958355400956224
  0.7072702596532724  0.8415824168586864  0.4960697913546664
  0.2632539790198777  0.1052187412889378  0.5962465486620471
  0.2429322958470740  0.3586842312687082  0.5303098772520753
  0.2557720971267444  0.5941849805322929  0.5559775685669837
  0.2645205193458630  0.8413043345115077  0.5970325689444815
  0.4289563944558077  0.0981250398686444  0.5968216014096152
  0.4319508711746562  0.3475195055650121  0.5981702597823023
  0.4284782389655021  0.5973194073728771  0.5943592292907538
  0.4289892780531612  0.8468771678352854  0.5947733847473132
  0.5955424386140526  0.0975069055662873  0.5907862245143551
  0.5974429784533528  0.3476257115121270  0.5909183023309377
  0.5967026367257032  0.5978678530809149  0.5894172794017144
  0.5957195393709946  0.8476619521019590  0.5894815682005862
  0.4296530419153701  0.2232160311804006  0.5963476172511465
  0.4318372302544066  0.4733090932943507  0.5970283192907705
  0.4291132033487978  0.7219180062166395  0.5928372263821343
  0.4280772676016198  0.9724833839916803  0.5954942729556782
  0.5969550798746629  0.2225680961720835  0.5911029150428634
  0.5965360943941693  0.4728912037444954  0.5900360302966318
  0.5958670552081529  0.7223296876721931  0.5889080227446460
  0.5959546292414678  0.9724480995773065  0.5904858027284314
  0.3437486370121189  0.0363946031678850  0.5981678049290908
  0.3451573926324216  0.2864103615714153  0.6038759905595547
  0.3432297543704757  0.5317951236989019  0.5991353332312417
  0.3466466154110886  0.7819507051358880  0.5968551686840281
  0.5121491923389238  0.0348871921785603  0.5935648982607596
  0.5141169821895851  0.2850760895285748  0.5937948800147114
  0.5134764178610913  0.5357718588753536  0.5923405995160330
  0.5123517313613487  0.7847513363095687  0.5913534479922082
  0.6795005273047865  0.0362547497018478  0.5900762331859393
  0.6819695153957095  0.2850164237718972  0.5845733411839360
  0.6802279947971627  0.5340450515711501  0.5893316579065959
  0.6786007571861706  0.7851057392420523  0.5906723216182159
  0.3455432483518109  0.1630061248974608  0.5975110568575781
  0.3503381962697751  0.4112230269306981  0.6058067896287866
  0.3448113223161586  0.6604003617496693  0.5985526870720757
  0.3435810355150085  0.9093081253836182  0.5969700142675415
  0.5127853337672184  0.1602823599919267  0.5938931704624761
  0.5142552039012448  0.4102590172180117  0.5934943232792883
  0.5123621436130178  0.6599084305569584  0.5909300522149367
  0.5121583904771996  0.9098964307783831  0.5924361935514590
  0.6798483091520516  0.1588205092155723  0.5906755115747386
  0.6803841903085674  0.4113656579664179  0.5902249282645822
  0.6813391347398861  0.6598706799037434  0.5835499904601340
  0.6808916975226980  0.9104362319724056  0.5841809262900516
  0.2632212327238782  0.1027213407448211  0.4184576270046715
  0.2620173309259789  0.8465244933702205  0.4192603801620050
  0.4275997484450765  0.0982249754364257  0.4157728818815302
  0.4294585496065687  0.3475130668152769  0.4159825869331899
  0.4266159407900392  0.5961600243094464  0.4142778623176183
  0.4274548897655990  0.8479553637034244  0.4139146700169800
  0.5937880150642660  0.0976929554625287  0.4106802618747714
  0.5956273056147057  0.3473373633549681  0.4101155487296442
  0.5952620979373714  0.5975006147599022  0.4087797032053598
  0.5942737706206831  0.8481373667226636  0.4092809487499310
  0.2490851870698582  0.2315783907758139  0.4608205072222100
  0.2443215819958525  0.7208216842342754  0.4617407987641148
  0.2422988442129942  0.9741449018710225  0.5110368260579397
  0.4282656432105892  0.2235506649531793  0.4162681884075858
  0.4297015705143071  0.4722206757929232  0.4146196322234958
  0.4280871648935731  0.7219104800212502  0.4122494581118317
  0.4264444175154140  0.9731614936436342  0.4163261313436347
  0.5951812208043611  0.2225271921548976  0.4104332278262663
  0.5948471944167412  0.4724108607923487  0.4097387861363976
  0.5945786104126332  0.7224079423568072  0.4087300076421367
  0.5942642240970366  0.9728835184932376  0.4099568655957123
  0.3427293284134464  0.0362538424901095  0.4187125740271682
  0.3432615758633736  0.2887477096305879  0.4176860515899720
  0.3412480708835052  0.5305489333157739  0.4174235535187021
  0.3448373807127525  0.7846382312095159  0.4142709174626956
  0.5104027212432960  0.0352570306989510  0.4132828364081624
  0.5122414175557602  0.2850012418383708  0.4135252085942114
  0.5117501596547057  0.5350167982061984  0.4118449807339009
  0.5111259645407950  0.7852426957361988  0.4109956008279005
  0.6777120900645585  0.0364937956269602  0.4052868165921737
  0.6803069205326556  0.2848967987575826  0.4110029277271960
  0.6786238536248104  0.5337138083490980  0.4045000871864848
  0.6771329807042903  0.7853332759521811  0.4027675385885957
  0.3458183642584418  0.1626450761655358  0.4167611381212298
  0.3469057433805919  0.4094962829545802  0.4169109891753488
  0.3419343261256170  0.6570609064940919  0.4148950420191186
  0.3429165666946818  0.9108482635248163  0.4183683620480240
  0.5110982798891959  0.1603817091668068  0.4133911112627943
  0.5122594086999857  0.4097289068731197  0.4129930380966164
  0.5111326934155432  0.6595857984426642  0.4110895924870610
  0.5105199585856598  0.9106313667278563  0.4125116655611308
  0.6780238760893481  0.1589003877938795  0.4051600537571500
  0.6786626333884831  0.4110329437500380  0.4046995409327458
  0.6799875821532846  0.6597943325475599  0.4094789783910359
  0.6793695752547602  0.9107495631301901  0.4101162907782219
  0.7584540895359526  0.9110896577473671  0.4947661293836539
  0.7640915593187708  0.7854177278707977  0.4944080490621810
  0.7588875426804871  0.6595414492484569  0.4943211140147982
  0.7637711638476071  0.5335021769385343  0.4942634731731646
  0.7641022895234891  0.4109614716377704  0.4946804869678255
  0.7589366767468100  0.2848248713137059  0.4951613901981796
  0.7636559304095049  0.1588481350453163  0.4948341365066184
  0.7631246627324976  0.0367229384436443  0.4946889649469145
  0.2287657649778524  0.4930807893984377  0.4764796551164416
  0.1887635640844045  0.5159613287843214  0.4918196333462159
  0.1664601159580590  0.4934618987859137  0.4585911816461574
  0.1820315066117655  0.5140917689720662  0.5531625876639118
  0.2270388328888409  0.4542416074542086  0.4777575851761531
  0.1897424008417553  0.5571974410186369  0.4728198313944334
 
  0.00000000E+00  0.00000000E+00  0.00000000E+00
  0.00000000E+00  0.00000000E+00  0.00000000E+00
  0.00000000E+00  0.00000000E+00  0.00000000E+00
  0.00000000E+00  0.00000000E+00  0.00000000E+00
  0.00000000E+00  0.00000000E+00  0.00000000E+00
  0.00000000E+00  0.00000000E+00  0.00000000E+00
  0.00000000E+00  0.00000000E+00  0.00000000E+00
  0.00000000E+00  0.00000000E+00  0.00000000E+00
  0.00000000E+00  0.00000000E+00  0.00000000E+00
  0.00000000E+00  0.00000000E+00  0.00000000E+00
  0.00000000E+00  0.00000000E+00  0.00000000E+00
  0.00000000E+00  0.00000000E+00  0.00000000E+00
  0.00000000E+00  0.00000000E+00  0.00000000E+00
  0.00000000E+00  0.00000000E+00  0.00000000E+00
  0.00000000E+00  0.00000000E+00  0.00000000E+00
  0.00000000E+00  0.00000000E+00  0.00000000E+00
  0.00000000E+00  0.00000000E+00  0.00000000E+00
  0.00000000E+00  0.00000000E+00  0.00000000E+00
  0.00000000E+00  0.00000000E+00  0.00000000E+00
  0.00000000E+00  0.00000000E+00  0.00000000E+00
  0.00000000E+00  0.00000000E+00  0.00000000E+00
  0.00000000E+00  0.00000000E+00  0.00000000E+00
  0.00000000E+00  0.00000000E+00  0.00000000E+00
  0.00000000E+00  0.00000000E+00  0.00000000E+00
  0.00000000E+00  0.00000000E+00  0.00000000E+00
  0.00000000E+00  0.00000000E+00  0.00000000E+00
  0.00000000E+00  0.00000000E+00  0.00000000E+00
  0.00000000E+00  0.00000000E+00  0.00000000E+00
  0.00000000E+00  0.00000000E+00  0.00000000E+00
  0.00000000E+00  0.00000000E+00  0.00000000E+00
  0.00000000E+00  0.00000000E+00  0.00000000E+00
  0.00000000E+00  0.00000000E+00  0.00000000E+00
  0.00000000E+00  0.00000000E+00  0.00000000E+00
  0.00000000E+00  0.00000000E+00  0.00000000E+00
  0.00000000E+00  0.00000000E+00  0.00000000E+00
  0.00000000E+00  0.00000000E+00  0.00000000E+00
  0.00000000E+00  0.00000000E+00  0.00000000E+00
  0.00000000E+00  0.00000000E+00  0.00000000E+00
  0.00000000E+00  0.00000000E+00  0.00000000E+00
  0.00000000E+00  0.00000000E+00  0.00000000E+00
  0.00000000E+00  0.00000000E+00  0.00000000E+00
  0.00000000E+00  0.00000000E+00  0.00000000E+00
  0.00000000E+00  0.00000000E+00  0.00000000E+00
  0.00000000E+00  0.00000000E+00  0.00000000E+00
  0.00000000E+00  0.00000000E+00  0.00000000E+00
  0.00000000E+00  0.00000000E+00  0.00000000E+00
  0.00000000E+00  0.00000000E+00  0.00000000E+00
  0.00000000E+00  0.00000000E+00  0.00000000E+00
  0.00000000E+00  0.00000000E+00  0.00000000E+00
  0.00000000E+00  0.00000000E+00  0.00000000E+00
  0.00000000E+00  0.00000000E+00  0.00000000E+00
  0.00000000E+00  0.00000000E+00  0.00000000E+00
  0.00000000E+00  0.00000000E+00  0.00000000E+00
  0.00000000E+00  0.00000000E+00  0.00000000E+00
  0.00000000E+00  0.00000000E+00  0.00000000E+00
  0.00000000E+00  0.00000000E+00  0.00000000E+00
  0.00000000E+00  0.00000000E+00  0.00000000E+00
  0.00000000E+00  0.00000000E+00  0.00000000E+00
  0.00000000E+00  0.00000000E+00  0.00000000E+00
  0.00000000E+00  0.00000000E+00  0.00000000E+00
  0.00000000E+00  0.00000000E+00  0.00000000E+00
  0.00000000E+00  0.00000000E+00  0.00000000E+00
  0.00000000E+00  0.00000000E+00  0.00000000E+00
  0.00000000E+00  0.00000000E+00  0.00000000E+00
  0.00000000E+00  0.00000000E+00  0.00000000E+00
  0.00000000E+00  0.00000000E+00  0.00000000E+00
  0.00000000E+00  0.00000000E+00  0.00000000E+00
  0.00000000E+00  0.00000000E+00  0.00000000E+00
  0.00000000E+00  0.00000000E+00  0.00000000E+00
  0.00000000E+00  0.00000000E+00  0.00000000E+00
  0.00000000E+00  0.00000000E+00  0.00000000E+00
  0.00000000E+00  0.00000000E+00  0.00000000E+00
  0.00000000E+00  0.00000000E+00  0.00000000E+00
  0.00000000E+00  0.00000000E+00  0.00000000E+00
  0.00000000E+00  0.00000000E+00  0.00000000E+00
  0.00000000E+00  0.00000000E+00  0.00000000E+00
  0.00000000E+00  0.00000000E+00  0.00000000E+00
  0.00000000E+00  0.00000000E+00  0.00000000E+00
  0.00000000E+00  0.00000000E+00  0.00000000E+00
  0.00000000E+00  0.00000000E+00  0.00000000E+00
  0.00000000E+00  0.00000000E+00  0.00000000E+00
  0.00000000E+00  0.00000000E+00  0.00000000E+00
  0.00000000E+00  0.00000000E+00  0.00000000E+00
  0.00000000E+00  0.00000000E+00  0.00000000E+00
  0.00000000E+00  0.00000000E+00  0.00000000E+00
  0.00000000E+00  0.00000000E+00  0.00000000E+00
  0.00000000E+00  0.00000000E+00  0.00000000E+00
  0.00000000E+00  0.00000000E+00  0.00000000E+00
  0.00000000E+00  0.00000000E+00  0.00000000E+00
  0.00000000E+00  0.00000000E+00  0.00000000E+00
  0.00000000E+00  0.00000000E+00  0.00000000E+00
  0.00000000E+00  0.00000000E+00  0.00000000E+00
  0.00000000E+00  0.00000000E+00  0.00000000E+00
  0.00000000E+00  0.00000000E+00  0.00000000E+00
  0.00000000E+00  0.00000000E+00  0.00000000E+00
  0.00000000E+00  0.00000000E+00  0.00000000E+00
  0.00000000E+00  0.00000000E+00  0.00000000E+00
  0.00000000E+00  0.00000000E+00  0.00000000E+00
  0.00000000E+00  0.00000000E+00  0.00000000E+00
  0.00000000E+00  0.00000000E+00  0.00000000E+00
  0.00000000E+00  0.00000000E+00  0.00000000E+00
  0.00000000E+00  0.00000000E+00  0.00000000E+00
  0.00000000E+00  0.00000000E+00  0.00000000E+00
  0.00000000E+00  0.00000000E+00  0.00000000E+00
  0.00000000E+00  0.00000000E+00  0.00000000E+00
  0.00000000E+00  0.00000000E+00  0.00000000E+00
  0.00000000E+00  0.00000000E+00  0.00000000E+00
  0.00000000E+00  0.00000000E+00  0.00000000E+00
  0.00000000E+00  0.00000000E+00  0.00000000E+00
  0.00000000E+00  0.00000000E+00  0.00000000E+00
  0.00000000E+00  0.00000000E+00  0.00000000E+00
  0.00000000E+00  0.00000000E+00  0.00000000E+00
  0.00000000E+00  0.00000000E+00  0.00000000E+00
  0.00000000E+00  0.00000000E+00  0.00000000E+00
  0.00000000E+00  0.00000000E+00  0.00000000E+00
  0.00000000E+00  0.00000000E+00  0.00000000E+00
  0.00000000E+00  0.00000000E+00  0.00000000E+00
  0.00000000E+00  0.00000000E+00  0.00000000E+00
  0.00000000E+00  0.00000000E+00  0.00000000E+00
  0.00000000E+00  0.00000000E+00  0.00000000E+00
  0.00000000E+00  0.00000000E+00  0.00000000E+00
  0.00000000E+00  0.00000000E+00  0.00000000E+00
  0.00000000E+00  0.00000000E+00  0.00000000E+00
  0.00000000E+00  0.00000000E+00  0.00000000E+00
  0.00000000E+00  0.00000000E+00  0.00000000E+00
  0.00000000E+00  0.00000000E+00  0.00000000E+00
  0.00000000E+00  0.00000000E+00  0.00000000E+00
  0.00000000E+00  0.00000000E+00  0.00000000E+00
  0.00000000E+00  0.00000000E+00  0.00000000E+00
  0.00000000E+00  0.00000000E+00  0.00000000E+00
  0.00000000E+00  0.00000000E+00  0.00000000E+00
  0.00000000E+00  0.00000000E+00  0.00000000E+00
  0.00000000E+00  0.00000000E+00  0.00000000E+00
  0.00000000E+00  0.00000000E+00  0.00000000E+00
  0.00000000E+00  0.00000000E+00  0.00000000E+00
  0.00000000E+00  0.00000000E+00  0.00000000E+00
  0.00000000E+00  0.00000000E+00  0.00000000E+00
  0.00000000E+00  0.00000000E+00  0.00000000E+00
  0.00000000E+00  0.00000000E+00  0.00000000E+00
  0.00000000E+00  0.00000000E+00  0.00000000E+00
  0.00000000E+00  0.00000000E+00  0.00000000E+00
  0.00000000E+00  0.00000000E+00  0.00000000E+00
  0.00000000E+00  0.00000000E+00  0.00000000E+00
  0.00000000E+00  0.00000000E+00  0.00000000E+00
  0.00000000E+00  0.00000000E+00  0.00000000E+00
  0.00000000E+00  0.00000000E+00  0.00000000E+00
  0.00000000E+00  0.00000000E+00  0.00000000E+00
  0.00000000E+00  0.00000000E+00  0.00000000E+00
  0.00000000E+00  0.00000000E+00  0.00000000E+00
  0.00000000E+00  0.00000000E+00  0.00000000E+00
  0.00000000E+00  0.00000000E+00  0.00000000E+00
