H4 W48 C1 S97 O1
1.0
  33.0000000000000000    0.0000000000000000    0.0000000000000000
   0.0000000000000000   25.2255992900000017    0.0000000000000000
   0.0000000000000000    0.0000000000000000   17.4929999999999986
W S O C H
48 97 1 1 4
direct
   0.2876814400000000    0.0418482600000000    0.5028959500000000 W
   0.2927109400000000    0.2835880200000000    0.5046964900000001 W
   0.2972854600000000    0.5250591400000000    0.5119247300000001 W
   0.2921776200000000    0.7802508700000000    0.5018079200000000 W
   0.4550027000000000    0.0356923000000000    0.5024864800000000 W
   0.4561625600000000    0.2860237300000000    0.5017038800000000 W
   0.4572128300000000    0.5354551700000000    0.5027989400000000 W
   0.4559775900000000    0.7852063500000001    0.5015086600000001 W
   0.6219421600000000    0.0358298200000000    0.4996034800000000 W
   0.6228369200000000    0.2852426400000000    0.4991831600000000 W
   0.6232348599999999    0.5351037100000000    0.4992149800000000 W
   0.6225890700000000    0.7856359200000000    0.4993733600000000 W
   0.2919502300000000    0.1657026800000000    0.5018043000000000 W
   0.2972117000000000    0.4210763500000000    0.5119260900000000 W
   0.2929395200000000    0.6624462200000000    0.5046930600000000 W
   0.2878032600000000    0.9040396900000000    0.5029432700000001 W
   0.4556141800000000    0.1608328900000000    0.5014641300000000 W
   0.4571555700000000    0.4104200600000000    0.5027978300000000 W
   0.4563487500000000    0.6598843599999999    0.5017350900000001 W
   0.4551628300000000    0.9102895200000000    0.5025152800000000 W
   0.6221921000000000    0.1601690400000000    0.4993459800000000 W
   0.6231601800000000    0.4104988000000000    0.4991952200000000 W
   0.6230857600000000    0.6604036900000000    0.4992084600000000 W
   0.6221947100000000    0.9108137600000000    0.4996274000000000 W
   0.3724948000000000    0.2248731000000000    0.5018033100000000 W
   0.3767349400000000    0.4729958400000000    0.5060600100000000 W
   0.3727395100000000    0.7211300300000000    0.5018303100000000 W
   0.3706581900000000    0.9729726500000000    0.5046023600000000 W
   0.5394957300000000    0.2229213200000000    0.5002623899999999 W
   0.5400258200000000    0.4728832600000000    0.5007191300000000 W
   0.5396422200000000    0.7229268100000000    0.5003006800000001 W
   0.5388819600000000    0.9731481500000000    0.5009793500000000 W
   0.7075578700000000    0.2158425500000000    0.4983175000000000 W
   0.7076677200000000    0.4724918300000000    0.4981197200000000 W
   0.7074880500000000    0.7287645900000000    0.4982972500000000 W
   0.7073301600000000    0.9797241300000000    0.4985150400000000 W
   0.3724268800000000    0.0991270700000000    0.5035898599999999 W
   0.3727744100000000    0.3491760100000000    0.5058268200000000 W
   0.3729073800000000    0.5967999700000000    0.5058264200000000 W
   0.3726510700000000    0.8468162200000000    0.5036359800000000 W
   0.5384817400000000    0.0980290800000000    0.5006398100000000 W
   0.5402789000000000    0.3478716200000000    0.5004913200000000 W
   0.5404001600000000    0.5979239200000001    0.5005185300000000 W
   0.5391214800000000    0.8480465300000000    0.5006745800000000 W
   0.7066238700000000    0.0982220000000000    0.4984628300000000 W
   0.7080640700000000    0.3544991500000000    0.4981348700000000 W
   0.7083622200000000    0.5913884100000000    0.4981951800000000 W
   0.7071283400000000    0.8427541100000000    0.4984196900000000 W
   0.2631716700000000    0.1051613500000000    0.5916895200000000 S
   0.2497861700000000    0.3548940800000000    0.5413510600000000 S
   0.2498982800000000    0.5912560700000000    0.5414170100000000 S
   0.2633693900000000    0.8407308000000000    0.5917623100000000 S
   0.4279309100000000    0.0986410100000000    0.5930025900000000 S
   0.4291720200000000    0.3479424800000000    0.5936691400000000 S
   0.4293006200000000    0.5979704600000000    0.5936706200000000 S
   0.4281989900000000    0.8473141300000000    0.5930188600000000 S
   0.5942771700000000    0.0981024500000000    0.5899271900000000 S
   0.5961991600000000    0.3477217000000000    0.5899503300000000 S
   0.5963451500000000    0.5979794700000000    0.5899310200000000 S
   0.5950828000000000    0.8482296499999999    0.5900038000000000 S
   0.4282771600000000    0.2236124400000000    0.5916441700000000 S
   0.4319618300000000    0.4729575800000000    0.5955645899999999 S
   0.4285673700000000    0.7224020600000000    0.5916276400000000 S
   0.4271358800000000    0.9729589199999999    0.5929252300000000 S
   0.5954170700000000    0.2230239400000000    0.5898745600000000 S
   0.5957606600000001    0.4728472400000000    0.5898215100000000 S
   0.5955449600000000    0.7227295600000000    0.5897184700000000 S
   0.5949604100000000    0.9730829600000001    0.5903255200000000 S
   0.3422599300000000    0.0366646900000000    0.5934611900000000 S
   0.3433255600000000    0.2855054200000000    0.5966024500000000 S
   0.3472587800000000    0.5331914000000000    0.6008783200000000 S
   0.3456925100000000    0.7821547700000000    0.5937708900000001 S
   0.5110814900000000    0.0355204800000000    0.5915101200000000 S
   0.5122652500000000    0.2855008800000000    0.5907696300000000 S
   0.5132626200000000    0.5357673700000000    0.5915730200000000 S
   0.5118559000000000    0.7852543600000000    0.5909759100000000 S
   0.6783231700000000    0.0368755300000000    0.5913338400000000 S
   0.6806966300000000    0.2852697600000000    0.5853045800000000 S
   0.6795418900000000    0.5340442600000000    0.5909791599999999 S
   0.6781741999999999    0.7856005700000001    0.5922113900000000 S
   0.3454642100000000    0.1638258100000000    0.5937326500000000 S
   0.3471768200000000    0.4128503000000000    0.6008675600000000 S
   0.3435471900000000    0.6605086000000000    0.5966169900000000 S
   0.3423986600000000    0.9092377400000000    0.5934751200000000 S
   0.5114143700000000    0.1608466300000000    0.5909849600000000 S
   0.5132049400000001    0.4100483800000000    0.5915789100000000 S
   0.5124312600000001    0.6603322800000000    0.5908220800000000 S
   0.5113469600000000    0.9104726700000000    0.5913633500000000 S
   0.6784268500000000    0.1593164900000000    0.5914372600000000 S
   0.6793998000000000    0.4114036700000000    0.5911913600000001 S
   0.6808711500000000    0.6599506800000000    0.5856959500000000 S
   0.6800606700000000    0.9112071500000000    0.5860581000000000 S
   0.2620454700000000    0.1002439100000000    0.4140418000000000 S
   0.2622108200000000    0.8456648000000000    0.4140551700000000 S
   0.4271577600000000    0.0980802200000000    0.4120449100000000 S
   0.4273381400000000    0.3488382400000000    0.4131529100000000 S
   0.4274721600000000    0.5971082000000000    0.4131775500000000 S
   0.4274110300000000    0.8478678800000000    0.4121006800000000 S
   0.5935747600000000    0.0979192800000000    0.4098110600000000 S
   0.5953980000000000    0.3477602100000000    0.4092287300000000 S
   0.5955524100000000    0.5979516600000000    0.4092839000000000 S
   0.5943790100000000    0.8484041000000000    0.4097899400000000 S
   0.2456972800000000    0.2269497200000000    0.4528013000000000 S
   0.2458844200000000    0.7190524600000000    0.4528568000000000 S
   0.2410212200000000    0.9728946200000000    0.5050200200000000 S
   0.4278819100000000    0.2239103400000000    0.4112922500000000 S
   0.4298989300000000    0.4729563800000000    0.4121511300000000 S
   0.4281768700000000    0.7221271900000000    0.4113790000000000 S
   0.4261389500000000    0.9729326900000000    0.4136620100000000 S
   0.5947810000000000    0.2229310200000000    0.4092739900000000 S
   0.5948564000000000    0.4728536300000000    0.4095418100000000 S
   0.5949030199999999    0.7228246200000000    0.4094871600000000 S
   0.5941614100000000    0.9730658200000000    0.4098551500000000 S
   0.3426780900000000    0.0355619400000000    0.4148192900000000 S
   0.3421506600000000    0.2888869300000000    0.4124975700000000 S
   0.3438421100000000    0.5327738800000000    0.4152415800000000 S
   0.3450158000000000    0.7842112200000000    0.4115443500000000 S
   0.5101317800000000    0.0352911700000000    0.4112698200000000 S
   0.5114141600000000    0.2857135600000000    0.4107547400000000 S
   0.5119606799999999    0.5356042800000000    0.4110283100000000 S
   0.5112084400000000    0.7854920600000000    0.4106058800000000 S
   0.6776434200000000    0.0368194200000000    0.4064381000000000 S
   0.6801448100000000    0.2852007100000000    0.4117593700000000 S
   0.6788856000000000    0.5340868400000000    0.4060556900000000 S
   0.6775352300000000    0.7856960900000000    0.4052244500000000 S
   0.3447656500000000    0.1617697300000000    0.4115120500000000 S
   0.3437668200000000    0.4132707600000000    0.4152603900000000 S
   0.3423813200000000    0.6571568000000000    0.4124821600000000 S
   0.3427992500000000    0.9103050499999999    0.4148781200000000 S
   0.5107698400000000    0.1606275300000000    0.4105146500000000 S
   0.5118970700000000    0.4102445700000000    0.4110034100000000 S
   0.5115722600000000    0.6601346400000000    0.4107731800000000 S
   0.5103949300000000    0.9106781700000000    0.4114682100000000 S
   0.6778312600000000    0.1592101000000000    0.4060112300000000 S
   0.6787161400000000    0.4113958900000000    0.4057621600000000 S
   0.6803019200000000    0.6600089900000000    0.4113994400000000 S
   0.6793960100000001    0.9112641200000000    0.4116776600000000 S
   0.7582485900000000    0.9116858200000000    0.4977903300000000 S
   0.7636999700000000    0.7859625300000000    0.4976322000000000 S
   0.7588999600000000    0.6598682400000000    0.4976842200000000 S
   0.7635846800000000    0.5337055400000000    0.4976334100000000 S
   0.7636432700000000    0.4110662100000000    0.4972967700000000 S
   0.7583260900000000    0.2849809400000000    0.4977234100000000 S
   0.7629325900000000    0.1591735900000000    0.4977596300000000 S
   0.7625880400000000    0.0371839600000000    0.4978462600000000 S
   0.2406573193939394    0.4909065789410631    0.5128764827010804 O
   0.1994542572727273    0.5096638066509146    0.5213688653684331 C
   0.1790352272727273    0.4756457522080940    0.5140454634362316 H
   0.1955136945454545    0.5269662031165965    0.5785013400726005 H
   0.2438289290909091    0.4483951908994274    0.5143314829869090 H
   0.1934869869696969    0.5395279958556739    0.4771950129703310 H
