Mo1 S2                                  
   1.00000000000000     
    19.1418952942000011    0.0000000000000000    0.0000000000000000
    -9.5709489007999995   16.5773646751000001    0.0000000000000000
     0.0000000000000000    0.0000000000000000   23.1298294067000008
   Mo   S 
    36    70
Direct
  0.1111453777624613  0.0554286433867836  0.4975957641687821
  0.1111307015709915  0.2220576683891498  0.4979822391822503
  0.1111030519211912  0.3888728123399179  0.4989035084929950
  0.1107384193270267  0.5554273339761052  0.4999250857871816
  0.1105912014756917  0.7220697766837474  0.4996845234454015
  0.1107838394596994  0.8885904013303058  0.4982607867180596
  0.2787880487993821  0.0571297875776628  0.4985351662228736
  0.2788962132648595  0.2234555785798529  0.4990793944296379
  0.2784932488599423  0.3888849505610623  0.4998644509572520
  0.2780221729006017  0.5554272618987742  0.4999251137490496
  0.2779398839264709  0.7225464653522649  0.4993926856925163
  0.2782258430688497  0.8898181301303003  0.4987418992906656
  0.4457230202448855  0.0581127491582090  0.4991094135938360
  0.4473288469337288  0.2271403900531828  0.5012998692817583
  0.4476054589685586  0.3911345020066948  0.5042384640024237
  0.4453783918069678  0.5542469376558246  0.5024884298688429
  0.4448120038269545  0.7220698800555440  0.4996846134123208
  0.4449254581632588  0.8898180667925252  0.4987420030442093
  0.6116749666396660  0.0571297240112259  0.4985351875257463
  0.6131446930972949  0.2271403319618301  0.5012998960022182
  0.6136358695550126  0.3939384816629717  0.5074256350378535
  0.6092367709911559  0.5498865829821452  0.5064749500603325
  0.6109893055751984  0.7202149328202456  0.4999986955040018
  0.6111398689589229  0.8885904511668288  0.4982608851804176
  0.7776164642888973  0.0554285965382200  0.4975957895820322
  0.7778924862853793  0.2234554971703084  0.4990794530355983
  0.7768622800591499  0.3911344436368668  0.5042384086579805
  0.7739831695819197  0.5498865637857511  0.5064749169636185
  0.7756109951114767  0.7178886294163032  0.4995370976075461
  0.7772022215918900  0.8872371068649364  0.4976146520824548
  0.9440535993763344  0.0547739536894411  0.4972064443876688
  0.9442601446209026  0.2220575492451275  0.4979822585386678
  0.9437248384064000  0.3888848204758155  0.4998643550693992
  0.9422018275293539  0.5542468642370653  0.5024883873141498
  0.9425589686828929  0.7202149215620887  0.4999986868985506
  0.9433682488902979  0.8872371595892484  0.4976145818978592
  0.0558022067894779  0.1110966733188839  0.4302488761385141
  0.0558597678121509  0.2783862943400250  0.4309413174382296
  0.0548108486550042  0.4448988527906496  0.4322771444599308
  0.0527245016093598  0.6096874063292967  0.4337212017198178
  0.0536445552299386  0.7756188123663997  0.4320974519333952
  0.0551508566815790  0.9434218773742288  0.4305334008291655
  0.2238364899589421  0.1127315989139545  0.4310757734911491
  0.2236728028098917  0.2789330377583918  0.4315902341370774
  0.2234213200181357  0.4448984823315298  0.4322770687212057
  0.2221285479636966  0.6109236857147081  0.4325874815932626
  0.2218180957348227  0.7776145583927871  0.4321350192074555
  0.2228820119771732  0.9453122901986569  0.4313352224349127
  0.3920520211724167  0.1161759851795571  0.4326277105651204
  0.3950017837641838  0.2843105554573674  0.4341951098950227
  0.3939407154218753  0.4451451871963563  0.4348949332350781
  0.3902962832700405  0.6096875443816987  0.4337213234542754
  0.3891298433888907  0.7776145895897235  0.4321350693920989
  0.3898838129838124  0.9464343347388897  0.4317634096478437
  0.5574572863106343  0.1161759979232515  0.4326277344429835
  0.5626792412702567  0.2920252806309596  0.4362121755904599
  0.5558918798197868  0.6038280392502627  0.4360114467359953
  0.5553077291891287  0.7756190197312023  0.4320975107707981
  0.5557633460755752  0.9453120909224936  0.4313353050641908
  0.7222284922280239  0.1127317814404516  0.4310757772949108
  0.7226418451040871  0.2843103946702832  0.4341950902452694
  0.7137950983848563  0.5942568417601299  0.4364024414145101
  0.7205481530211164  0.7734330141203176  0.4316552331310596
  0.7216043043790796  0.9434217925042861  0.4305335093112532
  0.8886275824843801  0.1110965750930056  0.4302489371968291
  0.8885932327721622  0.2789326676698415  0.4315902486244002
  0.8845377012478511  0.4451450635056910  0.4348949311248196
  0.8812695390648542  0.6038280228298125  0.4360114185888358
  0.8862181970708918  0.7734330540961972  0.4316552088007636
  0.8880425620969955  0.9427518904337855  0.4300974797104065
  0.0549148714897105  0.1102916160219911  0.5647180741400408
  0.0551354543513036  0.2769376470492564  0.5654141569444038
  0.0554911028854375  0.4438266500303403  0.5667179488515529
  0.0561879401924857  0.6115918591719935  0.5677282512454142
  0.0552192783557417  0.7782749805990733  0.5663710533449559
  0.0547780404329195  0.9440981981450266  0.5648623011575958
  0.2217831192672310  0.1112165908941224  0.5654810714215919
  0.2213130416375152  0.2768898589921583  0.5660439167486608
  0.2216687417198578  0.4438268115373978  0.5667179975753153
  0.2224082410802146  0.6114834211517354  0.5668859430556829
  0.2226845022274638  0.7788381994305988  0.5663747481439040
  0.2222815800795535  0.9453402870009372  0.5655481269567898
  0.3894905857571693  0.1127905130637934  0.5664761701478757
  0.3880762436101157  0.2784940228083759  0.5687735921765925
  0.3874921970619440  0.4426221502940784  0.5696826308001655
  0.3887374084817884  0.6115919750143221  0.5677283589370578
  0.3894869451769075  0.7788381057197038  0.5663747936494723
  0.3896223503628528  0.9459115731468852  0.5658996442776041
  0.5566330355582441  0.1127904737607139  0.5664762090038191
  0.5572388368681122  0.2811444054792339  0.5707910617571882
  0.5540097460604998  0.4422497082692349  0.5739088852639035
  0.5564412323717546  0.6115157904264777  0.5703076375185473
  0.5563891410277252  0.7782750483714154  0.5663711164086374
  0.5563917725899993  0.9453400487546390  0.5655483035060918
  0.7227665565890263  0.1112163840763830  0.5654810665788231
  0.7237510360340049  0.2784938743393425  0.5687734545240162
  0.7215732617055689  0.4422496644960211  0.5739088038912117
  0.7221442109194767  0.6109549516831260  0.5714286103162246
  0.7228142534283576  0.7771179103806408  0.5658259827849581
  0.7226535061623257  0.9440981839328526  0.5648624190092486
  0.8887099519798388  0.1102915728525509  0.5647180975390208
  0.8889096286592951  0.2768894546698299  0.5660438444976215
  0.8884630909202578  0.4426221500885921  0.5696826758124346
  0.8884079307411374  0.6115157810625657  0.5703076010045451
  0.8876370810683267  0.7771178817623849  0.5658259397410931
  0.8884636813394179  0.9435939610688359  0.5645629040618728
 
  0.00000000E+00  0.00000000E+00  0.00000000E+00
  0.00000000E+00  0.00000000E+00  0.00000000E+00
  0.00000000E+00  0.00000000E+00  0.00000000E+00
  0.00000000E+00  0.00000000E+00  0.00000000E+00
  0.00000000E+00  0.00000000E+00  0.00000000E+00
  0.00000000E+00  0.00000000E+00  0.00000000E+00
  0.00000000E+00  0.00000000E+00  0.00000000E+00
  0.00000000E+00  0.00000000E+00  0.00000000E+00
  0.00000000E+00  0.00000000E+00  0.00000000E+00
  0.00000000E+00  0.00000000E+00  0.00000000E+00
  0.00000000E+00  0.00000000E+00  0.00000000E+00
  0.00000000E+00  0.00000000E+00  0.00000000E+00
  0.00000000E+00  0.00000000E+00  0.00000000E+00
  0.00000000E+00  0.00000000E+00  0.00000000E+00
  0.00000000E+00  0.00000000E+00  0.00000000E+00
  0.00000000E+00  0.00000000E+00  0.00000000E+00
  0.00000000E+00  0.00000000E+00  0.00000000E+00
  0.00000000E+00  0.00000000E+00  0.00000000E+00
  0.00000000E+00  0.00000000E+00  0.00000000E+00
  0.00000000E+00  0.00000000E+00  0.00000000E+00
  0.00000000E+00  0.00000000E+00  0.00000000E+00
  0.00000000E+00  0.00000000E+00  0.00000000E+00
  0.00000000E+00  0.00000000E+00  0.00000000E+00
  0.00000000E+00  0.00000000E+00  0.00000000E+00
  0.00000000E+00  0.00000000E+00  0.00000000E+00
  0.00000000E+00  0.00000000E+00  0.00000000E+00
  0.00000000E+00  0.00000000E+00  0.00000000E+00
  0.00000000E+00  0.00000000E+00  0.00000000E+00
  0.00000000E+00  0.00000000E+00  0.00000000E+00
  0.00000000E+00  0.00000000E+00  0.00000000E+00
  0.00000000E+00  0.00000000E+00  0.00000000E+00
  0.00000000E+00  0.00000000E+00  0.00000000E+00
  0.00000000E+00  0.00000000E+00  0.00000000E+00
  0.00000000E+00  0.00000000E+00  0.00000000E+00
  0.00000000E+00  0.00000000E+00  0.00000000E+00
  0.00000000E+00  0.00000000E+00  0.00000000E+00
  0.00000000E+00  0.00000000E+00  0.00000000E+00
  0.00000000E+00  0.00000000E+00  0.00000000E+00
  0.00000000E+00  0.00000000E+00  0.00000000E+00
  0.00000000E+00  0.00000000E+00  0.00000000E+00
  0.00000000E+00  0.00000000E+00  0.00000000E+00
  0.00000000E+00  0.00000000E+00  0.00000000E+00
  0.00000000E+00  0.00000000E+00  0.00000000E+00
  0.00000000E+00  0.00000000E+00  0.00000000E+00
  0.00000000E+00  0.00000000E+00  0.00000000E+00
  0.00000000E+00  0.00000000E+00  0.00000000E+00
  0.00000000E+00  0.00000000E+00  0.00000000E+00
  0.00000000E+00  0.00000000E+00  0.00000000E+00
  0.00000000E+00  0.00000000E+00  0.00000000E+00
  0.00000000E+00  0.00000000E+00  0.00000000E+00
  0.00000000E+00  0.00000000E+00  0.00000000E+00
  0.00000000E+00  0.00000000E+00  0.00000000E+00
  0.00000000E+00  0.00000000E+00  0.00000000E+00
  0.00000000E+00  0.00000000E+00  0.00000000E+00
  0.00000000E+00  0.00000000E+00  0.00000000E+00
  0.00000000E+00  0.00000000E+00  0.00000000E+00
  0.00000000E+00  0.00000000E+00  0.00000000E+00
  0.00000000E+00  0.00000000E+00  0.00000000E+00
  0.00000000E+00  0.00000000E+00  0.00000000E+00
  0.00000000E+00  0.00000000E+00  0.00000000E+00
  0.00000000E+00  0.00000000E+00  0.00000000E+00
  0.00000000E+00  0.00000000E+00  0.00000000E+00
  0.00000000E+00  0.00000000E+00  0.00000000E+00
  0.00000000E+00  0.00000000E+00  0.00000000E+00
  0.00000000E+00  0.00000000E+00  0.00000000E+00
  0.00000000E+00  0.00000000E+00  0.00000000E+00
  0.00000000E+00  0.00000000E+00  0.00000000E+00
  0.00000000E+00  0.00000000E+00  0.00000000E+00
  0.00000000E+00  0.00000000E+00  0.00000000E+00
  0.00000000E+00  0.00000000E+00  0.00000000E+00
  0.00000000E+00  0.00000000E+00  0.00000000E+00
  0.00000000E+00  0.00000000E+00  0.00000000E+00
  0.00000000E+00  0.00000000E+00  0.00000000E+00
  0.00000000E+00  0.00000000E+00  0.00000000E+00
  0.00000000E+00  0.00000000E+00  0.00000000E+00
  0.00000000E+00  0.00000000E+00  0.00000000E+00
  0.00000000E+00  0.00000000E+00  0.00000000E+00
  0.00000000E+00  0.00000000E+00  0.00000000E+00
  0.00000000E+00  0.00000000E+00  0.00000000E+00
  0.00000000E+00  0.00000000E+00  0.00000000E+00
  0.00000000E+00  0.00000000E+00  0.00000000E+00
  0.00000000E+00  0.00000000E+00  0.00000000E+00
  0.00000000E+00  0.00000000E+00  0.00000000E+00
  0.00000000E+00  0.00000000E+00  0.00000000E+00
  0.00000000E+00  0.00000000E+00  0.00000000E+00
  0.00000000E+00  0.00000000E+00  0.00000000E+00
  0.00000000E+00  0.00000000E+00  0.00000000E+00
  0.00000000E+00  0.00000000E+00  0.00000000E+00
  0.00000000E+00  0.00000000E+00  0.00000000E+00
  0.00000000E+00  0.00000000E+00  0.00000000E+00
  0.00000000E+00  0.00000000E+00  0.00000000E+00
  0.00000000E+00  0.00000000E+00  0.00000000E+00
  0.00000000E+00  0.00000000E+00  0.00000000E+00
  0.00000000E+00  0.00000000E+00  0.00000000E+00
  0.00000000E+00  0.00000000E+00  0.00000000E+00
  0.00000000E+00  0.00000000E+00  0.00000000E+00
  0.00000000E+00  0.00000000E+00  0.00000000E+00
  0.00000000E+00  0.00000000E+00  0.00000000E+00
  0.00000000E+00  0.00000000E+00  0.00000000E+00
  0.00000000E+00  0.00000000E+00  0.00000000E+00
  0.00000000E+00  0.00000000E+00  0.00000000E+00
  0.00000000E+00  0.00000000E+00  0.00000000E+00
  0.00000000E+00  0.00000000E+00  0.00000000E+00
  0.00000000E+00  0.00000000E+00  0.00000000E+00
  0.00000000E+00  0.00000000E+00  0.00000000E+00
  0.00000000E+00  0.00000000E+00  0.00000000E+00
