Mo48 Se97                               
   1.00000000000000     
    33.0000000000000000    0.0000000000000000    0.0000000000000000
     0.0000000000000000   26.3120002747000008    0.0000000000000000
     0.0000000000000000    0.0000000000000000   18.0970001220999990
   Mo   Se   O    C 
    48    97     1     1
Direct
  0.2868409693323541  0.0263391931886666  0.5048467842565250
  0.2871715561069015  0.3083175664144751  0.5078990060415184
  0.2928170527566872  0.5265644510577836  0.5022328588635153
  0.2842362220192559  0.7850410762888800  0.5048479703139034
  0.4536916793302190  0.0361744282774234  0.5020034373954892
  0.4531852472309141  0.2862012277231524  0.5022057780548084
  0.4568413723543201  0.5348573446398603  0.5016034125049275
  0.4538175440426635  0.7848353086037768  0.5019050943138040
  0.6261574708523298  0.0368694695274236  0.4998186201147525
  0.6266850860841383  0.2851252567188415  0.5001362236084294
  0.6281014764733767  0.5343854770681947  0.5000826688000848
  0.6269987550571043  0.7857135149714909  0.4999625643684764
  0.2830967966609755  0.1602241718919003  0.5056821520441320
  0.2923393696201197  0.4198975979843880  0.5023063486312402
  0.2882471382491697  0.6378623740027625  0.5073287259973310
  0.2872670938739222  0.9186476981174805  0.5046313633170949
  0.4526326446011047  0.1611542660669486  0.5022169173233786
  0.4562428888245263  0.4105932042054477  0.5016975226053221
  0.4547715910622607  0.6595050137222869  0.5019056551655611
  0.4542271134761880  0.9103178046062822  0.5017739752926814
  0.6261804602005365  0.1617107140974819  0.5000040196830886
  0.6276976951680397  0.4088936443136229  0.5000805265192760
  0.6281422493989512  0.6601233089138814  0.5000251227046120
  0.6268137902549292  0.9113521006555453  0.4998096755781800
  0.3643172228378204  0.2249938648177699  0.5040388263378617
  0.3730147905421366  0.4729276240730531  0.5019584887421178
  0.3656838545963901  0.7207372952041878  0.5034524523470462
  0.3682951233807905  0.9729140383835942  0.5032350601059900
  0.5393352063113078  0.2233398593614899  0.5010644750311902
  0.5428443631581312  0.4721038034383890  0.5008226527045955
  0.5411806715625891  0.7227110896419887  0.5008828845313834
  0.5404071357365058  0.9735503476234673  0.5006921574940506
  0.7139600667991859  0.2268591603088030  0.4993936726440024
  0.7159846564763843  0.4616986457856616  0.4994261293579209
  0.7148122650901150  0.7148334052222837  0.4990592012053262
  0.7137272830648336  0.9659676130160021  0.4990237828873593
  0.3669163815668158  0.0985726602160163  0.5036365326299345
  0.3685679783453716  0.3507613306733278  0.5032112798552557
  0.3695766846855411  0.5950741003728371  0.5029379550980771
  0.3678615551352282  0.8472646185226355  0.5032454066195224
  0.5401643835421843  0.0991035490164207  0.5008742351177978
  0.5406864316816159  0.3472168640584005  0.5009334349038234
  0.5422994990861614  0.5977992929184177  0.5008749091771161
  0.5405903856974920  0.8480893277886877  0.5007330221569496
  0.7144872323801909  0.1091888135921265  0.4991465380256417
  0.7145788995522655  0.3433077227115451  0.4994669547307433
  0.7151308124832759  0.6056610875833537  0.4991939630564185
  0.7140633002017291  0.8570621306677869  0.4990199948454596
  0.2499204770488949  0.0938159524749438  0.5842885870689541
  0.2308929492055312  0.3660950488698241  0.5160303003328600
  0.2316541010493000  0.5805686251434325  0.5162161204769092
  0.2505391523614866  0.8508018276256595  0.5836846027970950
  0.4249071819820696  0.0985024879960099  0.5953970359614538
  0.4264499775603856  0.3491284947157450  0.5952951121850217
  0.4276370606585845  0.5968260235408467  0.5949915663191357
  0.4258950715528047  0.8474503837816145  0.5949405456964881
  0.5982577386064637  0.0987692743193852  0.5931532120084916
  0.5982762127422402  0.3473156870183539  0.5930132763599464
  0.6002603759999589  0.5973533494898976  0.5929214980659103
  0.5987043959453326  0.8481258078130604  0.5925948616548066
  0.4234196616098941  0.2238319545805718  0.5945172035689138
  0.4297988936138015  0.4729644645963783  0.5957855821984478
  0.4248871687956410  0.7219302790469216  0.5940089611137929
  0.4263361708909992  0.9729870091945665  0.5950967760568340
  0.5972360485325975  0.2232480922830527  0.5929246486934074
  0.6005630366144669  0.4722117496452974  0.5934435540569980
  0.5993823736544698  0.7230697492393339  0.5927134155071304
  0.5984185903123299  0.9740121914638212  0.5926509427551763
  0.3394392680670814  0.0345747681337176  0.5994176294954729
  0.3371308495715980  0.2897980857813174  0.6009521820472649
  0.3417962340416529  0.5320431704124960  0.6005858250116070
  0.3383618023387009  0.7840751869125560  0.5980037595981607
  0.5119123511304268  0.0361736397931693  0.5935539815315171
  0.5111540557965667  0.2854656573892799  0.5942213646208379
  0.5146768209329990  0.5351141759125367  0.5936783166756111
  0.5121794840040710  0.7851702409781840  0.5934982350558432
  0.6872472028506270  0.0375790859670442  0.5868479115881644
  0.6851454386624053  0.2851698286312088  0.5955610847697093
  0.6890764714516153  0.5337214139833915  0.5871220362312968
  0.6880070808775196  0.7858542747706624  0.5872683832791278
  0.3372053929336269  0.1615117624809401  0.5987186441717770
  0.3412850043848033  0.4143026176901694  0.6006749921210507
  0.3382283765456571  0.6562250353406209  0.6003836380150765
  0.3399391268565403  0.9106823835350375  0.5992098012740557
  0.5108688106809623  0.1608850955782798  0.5939501575617142
  0.5138827938232117  0.4101818150736903  0.5940810065194370
  0.5131248076139002  0.6602353984129529  0.5936614739189908
  0.5123285219396537  0.9106301078893294  0.5935760485451860
  0.6844008557976291  0.1639461207711649  0.5952644258268033
  0.6858104880660965  0.4066374415817726  0.5953842854459503
  0.6849280897021215  0.6601411533950711  0.5975696296826309
  0.6835784937086792  0.9115142538033121  0.5973487393643313
  0.2490270217133649  0.0942372253055120  0.4276677293133939
  0.2500009816704464  0.8507340334259773  0.4267154900133387
  0.4239270992854428  0.0986419893410366  0.4098126148540721
  0.4257006426103588  0.3486469370367404  0.4094485250422110
  0.4269155068062562  0.5971631498681892  0.4093579690118834
  0.4249869592169930  0.8473557363848948  0.4095832206867688
  0.5976292603928860  0.0988882962912759  0.4072448045280826
  0.5977949642788291  0.3472670195202547  0.4076927622759230
  0.5997305994880351  0.5973409890277571  0.4077890907582897
  0.5981623622758870  0.8480274836453616  0.4077012385163206
  0.2401362478597677  0.2325185351468857  0.5070801173594373
  0.2408490598935923  0.7131348003269720  0.5052050155734878
  0.2275386734677782  0.9721290595669244  0.5056566468187754
  0.4222574350669727  0.2238773942630030  0.4111595273398042
  0.4294520990330069  0.4728833598520131  0.4077092034365499
  0.4238596565193459  0.7218597679209280  0.4107994885819827
  0.4254718401286380  0.9731205683632762  0.4094609757031267
  0.5965969050936584  0.2233135648851302  0.4078794138478162
  0.6000722035352998  0.4722129050684454  0.4071829378440193
  0.5988022948728315  0.7230333398294123  0.4078579613041699
  0.5978717387438036  0.9740176760632565  0.4075117383756220
  0.3384114623884493  0.0348510857141958  0.4084118951012309
  0.3345543982115481  0.2895966839534937  0.4094485084627235
  0.3419709942046283  0.5331214293345241  0.4042339221020534
  0.3373451499337450  0.7838848232699536  0.4096597401404556
  0.5111325034642896  0.0362751342764560  0.4088510135199647
  0.5104284568300520  0.2853973035398744  0.4086000497104991
  0.5141757326177923  0.5351672101584677  0.4084817475868239
  0.5114723502491813  0.7850974043736136  0.4088950457373864
  0.6868014574469482  0.0375937836268945  0.4117304797115376
  0.6846658877779686  0.2852312647501450  0.4037737455697692
  0.6886437307254950  0.5336429289366038  0.4119879536897317
  0.6874245985995183  0.7858105591986633  0.4114551156680322
  0.3359571135118981  0.1618384376278661  0.4102325537819543
  0.3414493551144719  0.4129861314674733  0.4043625468044107
  0.3358537903350685  0.6562441465448191  0.4089317728777698
  0.3389698474813047  0.9106931117297817  0.4082207660342246
  0.5100645483873593  0.1610253949713232  0.4087802060125476
  0.5133401853206089  0.4101299595982013  0.4081926221632310
  0.5124821108649167  0.6602532444263814  0.4087135735535108
  0.5116152683802467  0.9106060874574652  0.4084122504005748
  0.6839133564922673  0.1641150927001986  0.4037406022536875
  0.7746847474604444  0.9127046698299958  0.4983828808137954
  0.7674343076312790  0.7862893148719001  0.4983156812687637
  0.7757655283441447  0.6595000575668416  0.4978222548964708
  0.7680421862745127  0.5327288755713107  0.4993038095983750
  0.7746735822563287  0.4052704397653835  0.4991794546862028
  0.7738965673678471  0.2847905692549976  0.4992079027389029
  0.7736788270616514  0.1647860022045727  0.4990699454590307
  0.7667032100942756  0.0385338858256561  0.4987830800039112
  0.6854046167528816  0.4066144462580251  0.4039039162505537
  0.6843138321132320  0.6601066288819871  0.4012886269687269
  0.6830411815497618  0.9114689731108139  0.4012300827740151
  0.2121323941372942  0.4736410907159257  0.4471608118615467
  0.2439692542351664  0.4733165336943527  0.4777825982795389
 
  0.00000000E+00  0.00000000E+00  0.00000000E+00
  0.00000000E+00  0.00000000E+00  0.00000000E+00
  0.00000000E+00  0.00000000E+00  0.00000000E+00
  0.00000000E+00  0.00000000E+00  0.00000000E+00
  0.00000000E+00  0.00000000E+00  0.00000000E+00
  0.00000000E+00  0.00000000E+00  0.00000000E+00
  0.00000000E+00  0.00000000E+00  0.00000000E+00
  0.00000000E+00  0.00000000E+00  0.00000000E+00
  0.00000000E+00  0.00000000E+00  0.00000000E+00
  0.00000000E+00  0.00000000E+00  0.00000000E+00
  0.00000000E+00  0.00000000E+00  0.00000000E+00
  0.00000000E+00  0.00000000E+00  0.00000000E+00
  0.00000000E+00  0.00000000E+00  0.00000000E+00
  0.00000000E+00  0.00000000E+00  0.00000000E+00
  0.00000000E+00  0.00000000E+00  0.00000000E+00
  0.00000000E+00  0.00000000E+00  0.00000000E+00
  0.00000000E+00  0.00000000E+00  0.00000000E+00
  0.00000000E+00  0.00000000E+00  0.00000000E+00
  0.00000000E+00  0.00000000E+00  0.00000000E+00
  0.00000000E+00  0.00000000E+00  0.00000000E+00
  0.00000000E+00  0.00000000E+00  0.00000000E+00
  0.00000000E+00  0.00000000E+00  0.00000000E+00
  0.00000000E+00  0.00000000E+00  0.00000000E+00
  0.00000000E+00  0.00000000E+00  0.00000000E+00
  0.00000000E+00  0.00000000E+00  0.00000000E+00
  0.00000000E+00  0.00000000E+00  0.00000000E+00
  0.00000000E+00  0.00000000E+00  0.00000000E+00
  0.00000000E+00  0.00000000E+00  0.00000000E+00
  0.00000000E+00  0.00000000E+00  0.00000000E+00
  0.00000000E+00  0.00000000E+00  0.00000000E+00
  0.00000000E+00  0.00000000E+00  0.00000000E+00
  0.00000000E+00  0.00000000E+00  0.00000000E+00
  0.00000000E+00  0.00000000E+00  0.00000000E+00
  0.00000000E+00  0.00000000E+00  0.00000000E+00
  0.00000000E+00  0.00000000E+00  0.00000000E+00
  0.00000000E+00  0.00000000E+00  0.00000000E+00
  0.00000000E+00  0.00000000E+00  0.00000000E+00
  0.00000000E+00  0.00000000E+00  0.00000000E+00
  0.00000000E+00  0.00000000E+00  0.00000000E+00
  0.00000000E+00  0.00000000E+00  0.00000000E+00
  0.00000000E+00  0.00000000E+00  0.00000000E+00
  0.00000000E+00  0.00000000E+00  0.00000000E+00
  0.00000000E+00  0.00000000E+00  0.00000000E+00
  0.00000000E+00  0.00000000E+00  0.00000000E+00
  0.00000000E+00  0.00000000E+00  0.00000000E+00
  0.00000000E+00  0.00000000E+00  0.00000000E+00
  0.00000000E+00  0.00000000E+00  0.00000000E+00
  0.00000000E+00  0.00000000E+00  0.00000000E+00
  0.00000000E+00  0.00000000E+00  0.00000000E+00
  0.00000000E+00  0.00000000E+00  0.00000000E+00
  0.00000000E+00  0.00000000E+00  0.00000000E+00
  0.00000000E+00  0.00000000E+00  0.00000000E+00
  0.00000000E+00  0.00000000E+00  0.00000000E+00
  0.00000000E+00  0.00000000E+00  0.00000000E+00
  0.00000000E+00  0.00000000E+00  0.00000000E+00
  0.00000000E+00  0.00000000E+00  0.00000000E+00
  0.00000000E+00  0.00000000E+00  0.00000000E+00
  0.00000000E+00  0.00000000E+00  0.00000000E+00
  0.00000000E+00  0.00000000E+00  0.00000000E+00
  0.00000000E+00  0.00000000E+00  0.00000000E+00
  0.00000000E+00  0.00000000E+00  0.00000000E+00
  0.00000000E+00  0.00000000E+00  0.00000000E+00
  0.00000000E+00  0.00000000E+00  0.00000000E+00
  0.00000000E+00  0.00000000E+00  0.00000000E+00
  0.00000000E+00  0.00000000E+00  0.00000000E+00
  0.00000000E+00  0.00000000E+00  0.00000000E+00
  0.00000000E+00  0.00000000E+00  0.00000000E+00
  0.00000000E+00  0.00000000E+00  0.00000000E+00
  0.00000000E+00  0.00000000E+00  0.00000000E+00
  0.00000000E+00  0.00000000E+00  0.00000000E+00
  0.00000000E+00  0.00000000E+00  0.00000000E+00
  0.00000000E+00  0.00000000E+00  0.00000000E+00
  0.00000000E+00  0.00000000E+00  0.00000000E+00
  0.00000000E+00  0.00000000E+00  0.00000000E+00
  0.00000000E+00  0.00000000E+00  0.00000000E+00
  0.00000000E+00  0.00000000E+00  0.00000000E+00
  0.00000000E+00  0.00000000E+00  0.00000000E+00
  0.00000000E+00  0.00000000E+00  0.00000000E+00
  0.00000000E+00  0.00000000E+00  0.00000000E+00
  0.00000000E+00  0.00000000E+00  0.00000000E+00
  0.00000000E+00  0.00000000E+00  0.00000000E+00
  0.00000000E+00  0.00000000E+00  0.00000000E+00
  0.00000000E+00  0.00000000E+00  0.00000000E+00
  0.00000000E+00  0.00000000E+00  0.00000000E+00
  0.00000000E+00  0.00000000E+00  0.00000000E+00
  0.00000000E+00  0.00000000E+00  0.00000000E+00
  0.00000000E+00  0.00000000E+00  0.00000000E+00
  0.00000000E+00  0.00000000E+00  0.00000000E+00
  0.00000000E+00  0.00000000E+00  0.00000000E+00
  0.00000000E+00  0.00000000E+00  0.00000000E+00
  0.00000000E+00  0.00000000E+00  0.00000000E+00
  0.00000000E+00  0.00000000E+00  0.00000000E+00
  0.00000000E+00  0.00000000E+00  0.00000000E+00
  0.00000000E+00  0.00000000E+00  0.00000000E+00
  0.00000000E+00  0.00000000E+00  0.00000000E+00
  0.00000000E+00  0.00000000E+00  0.00000000E+00
  0.00000000E+00  0.00000000E+00  0.00000000E+00
  0.00000000E+00  0.00000000E+00  0.00000000E+00
  0.00000000E+00  0.00000000E+00  0.00000000E+00
  0.00000000E+00  0.00000000E+00  0.00000000E+00
  0.00000000E+00  0.00000000E+00  0.00000000E+00
  0.00000000E+00  0.00000000E+00  0.00000000E+00
  0.00000000E+00  0.00000000E+00  0.00000000E+00
  0.00000000E+00  0.00000000E+00  0.00000000E+00
  0.00000000E+00  0.00000000E+00  0.00000000E+00
  0.00000000E+00  0.00000000E+00  0.00000000E+00
  0.00000000E+00  0.00000000E+00  0.00000000E+00
  0.00000000E+00  0.00000000E+00  0.00000000E+00
  0.00000000E+00  0.00000000E+00  0.00000000E+00
  0.00000000E+00  0.00000000E+00  0.00000000E+00
  0.00000000E+00  0.00000000E+00  0.00000000E+00
  0.00000000E+00  0.00000000E+00  0.00000000E+00
  0.00000000E+00  0.00000000E+00  0.00000000E+00
  0.00000000E+00  0.00000000E+00  0.00000000E+00
  0.00000000E+00  0.00000000E+00  0.00000000E+00
  0.00000000E+00  0.00000000E+00  0.00000000E+00
  0.00000000E+00  0.00000000E+00  0.00000000E+00
  0.00000000E+00  0.00000000E+00  0.00000000E+00
  0.00000000E+00  0.00000000E+00  0.00000000E+00
  0.00000000E+00  0.00000000E+00  0.00000000E+00
  0.00000000E+00  0.00000000E+00  0.00000000E+00
  0.00000000E+00  0.00000000E+00  0.00000000E+00
  0.00000000E+00  0.00000000E+00  0.00000000E+00
  0.00000000E+00  0.00000000E+00  0.00000000E+00
  0.00000000E+00  0.00000000E+00  0.00000000E+00
  0.00000000E+00  0.00000000E+00  0.00000000E+00
  0.00000000E+00  0.00000000E+00  0.00000000E+00
  0.00000000E+00  0.00000000E+00  0.00000000E+00
  0.00000000E+00  0.00000000E+00  0.00000000E+00
  0.00000000E+00  0.00000000E+00  0.00000000E+00
  0.00000000E+00  0.00000000E+00  0.00000000E+00
  0.00000000E+00  0.00000000E+00  0.00000000E+00
  0.00000000E+00  0.00000000E+00  0.00000000E+00
  0.00000000E+00  0.00000000E+00  0.00000000E+00
  0.00000000E+00  0.00000000E+00  0.00000000E+00
  0.00000000E+00  0.00000000E+00  0.00000000E+00
  0.00000000E+00  0.00000000E+00  0.00000000E+00
  0.00000000E+00  0.00000000E+00  0.00000000E+00
  0.00000000E+00  0.00000000E+00  0.00000000E+00
  0.00000000E+00  0.00000000E+00  0.00000000E+00
  0.00000000E+00  0.00000000E+00  0.00000000E+00
  0.00000000E+00  0.00000000E+00  0.00000000E+00
  0.00000000E+00  0.00000000E+00  0.00000000E+00
  0.00000000E+00  0.00000000E+00  0.00000000E+00
  0.00000000E+00  0.00000000E+00  0.00000000E+00
  0.00000000E+00  0.00000000E+00  0.00000000E+00
  0.00000000E+00  0.00000000E+00  0.00000000E+00
