W48 S97                                 
   1.00000000000000     
    33.0000000000000000    0.0000000000000000    0.0000000000000000
     0.0000000000000000   25.2255992888999998    0.0000000000000000
     0.0000000000000000    0.0000000000000000   17.4930000304999993
   W    S    O    C 
    48    97     1     1
Direct
  0.2888425458264194  0.0407354110022524  0.5000177229770983
  0.2937246774199238  0.2837802468980755  0.5057737821356199
  0.2929757850202677  0.5310933819085335  0.5104920228437066
  0.2926617207171276  0.7821722014619965  0.5023177688459981
  0.4557253731421511  0.0354465588829811  0.5023540138238829
  0.4561117379962454  0.2856670844070379  0.5022536393608874
  0.4556523159851125  0.5351862523818909  0.5026796593729017
  0.4563732415757684  0.7852462837379903  0.5009823859094240
  0.6223477954187260  0.0356840523638695  0.4998583444036413
  0.6223746510980064  0.2853180212593003  0.4995236427559604
  0.6222595112826994  0.5348212751484027  0.4993999753565319
  0.6225310641636241  0.7852670197343699  0.4994679766380159
  0.2922819242775745  0.1634383018383758  0.5005423070122603
  0.2942768892559755  0.4103851945849257  0.5094667722459789
  0.2936722713881608  0.6647389460866293  0.5068917668636743
  0.2888272365584825  0.9050517567256904  0.5001886215380296
  0.4560807870441366  0.1604211199322165  0.5016766382890765
  0.4555799085116021  0.4103341785712615  0.5030808536935680
  0.4559623413109364  0.6598396206207440  0.5013194850525835
  0.4558524541319571  0.9102053937049988  0.5021336969955215
  0.6223123837452462  0.1601312367810905  0.4996628467366833
  0.6222335019783216  0.4104358960681083  0.4994979593976581
  0.6224771170467491  0.6599717124853157  0.4993116185624089
  0.6225235714019703  0.9105506042477955  0.4998010957517920
  0.3730650243085876  0.2237187947602237  0.5016169387464871
  0.3722391749953715  0.4732484128034713  0.5051313852047912
  0.3734128672922807  0.7219709029940802  0.5011443840755874
  0.3714697539115051  0.9728611715453113  0.5034881348493769
  0.5395178587760796  0.2227995091678352  0.5007756003331210
  0.5388063106164935  0.4727496664964264  0.5009511058723746
  0.5394795806290205  0.7225997025632580  0.5001879390780601
  0.5394637224850953  0.9729824274468939  0.5011162055796703
  0.7073986238441350  0.2159626533780923  0.4982913018575061
  0.7067812220761667  0.4722503678418590  0.4981772537310860
  0.7070455161958620  0.7291155781814922  0.4983090043151464
  0.7076875350655740  0.9793605674998460  0.4985997859095477
  0.3732044078415768  0.0983406031166396  0.5026756935734582
  0.3726852528799114  0.3477649064402257  0.5060306480959511
  0.3718774699696326  0.5966472331324937  0.5056566809776015
  0.3733837689737385  0.8472806179250298  0.5026798004017294
  0.5389270388831520  0.0978407049805554  0.5010010648476566
  0.5394442161496400  0.3479327923128679  0.5009887192791282
  0.5394628900531444  0.5974481382385761  0.5005175819529413
  0.5394723930747176  0.8478580289244206  0.5006361030772126
  0.7068653934566811  0.0983216632257609  0.4984941169628598
  0.7073664154155992  0.3546093060628479  0.4981708783270093
  0.7075920131206104  0.5911684272803726  0.4981733368717016
  0.7070799749096821  0.8414026941383170  0.4985030941131043
  0.2629056479655461  0.1034245581946962  0.5889344132850383
  0.2510845601421750  0.3454792511176947  0.5600140994909353
  0.2557164923572799  0.6018148331758368  0.5673356131822302
  0.2634882880681602  0.8423623890555447  0.5902698485390800
  0.4283882645737691  0.0980688376749654  0.5928929739758217
  0.4288718975581105  0.3475949569588508  0.5943513258836646
  0.4284744419855073  0.5979457710903304  0.5932820554878688
  0.4287191620595721  0.8474224438479609  0.5925181630198324
  0.5946908516243639  0.0979102091182682  0.5902926475888179
  0.5954347225443826  0.3477253383269243  0.5903474186382525
  0.5954331468053198  0.5976723830686339  0.5900635488714272
  0.5953211102970073  0.8479717902595354  0.5901142433620521
  0.4286071857221572  0.2228671255108452  0.5920862670187717
  0.4285238476305153  0.4730312245760189  0.5941055260920649
  0.4289642644861686  0.7227016147890382  0.5913349834522705
  0.4276773396537052  0.9727211711197015  0.5924609813101895
  0.5954241188268057  0.2229165521572369  0.5903098558868081
  0.5946736031933000  0.4727122029927742  0.5900469166965294
  0.5952721247631274  0.7224267986505097  0.5897847160096035
  0.5954690754998069  0.9728642528512665  0.5905822045614855
  0.3426748547838088  0.0360863183136146  0.5921877507390292
  0.3446218786840802  0.2835197125136091  0.5973220361472897
  0.3441760368075464  0.5345791126497588  0.6002319048704123
  0.3465336781661108  0.7832584874343311  0.5933194885765474
  0.5116149410647921  0.0352240531304631  0.5917501018830578
  0.5120705431407870  0.2853179617120674  0.5914186775273720
  0.5117698206983405  0.5354526127684665  0.5915992406864916
  0.5120436853976784  0.7851034410399933  0.5908271044855340
  0.6787837262164160  0.0367084813787955  0.5914279335315555
  0.6803534034603658  0.2853178450232150  0.5854333227676278
  0.6786675709272743  0.5338669150466728  0.5910347320457348
  0.6779709425377334  0.7851892343578299  0.5929107267128870
  0.3457101817586761  0.1622106869363904  0.5927494847039299
  0.3446868177219642  0.4114172751387670  0.6005042147879109
  0.3454469186046012  0.6622976225328401  0.5969870391942109
  0.3428123488185264  0.9095429960859747  0.5922150976691043
  0.5117297028566696  0.1605257972579821  0.5914532562659787
  0.5117798581729716  0.4102171082177648  0.5918187540581954
  0.5118923564430702  0.6600808965871892  0.5906748467601162
  0.5118298557822527  0.9102922914521372  0.5913650614821719
  0.6786230055855071  0.1592991752083677  0.5915932726253885
  0.6785841798020087  0.4113384916182738  0.5913896836058967
  0.6803405653316403  0.6597673276502576  0.5855791818258425
  0.6804372676042405  0.9106855041517576  0.5859674028895157
  0.2635510150826263  0.0992962137839442  0.4105859315713118
  0.2629951358689979  0.8466948975430526  0.4121052168157320
  0.4281112438752288  0.0977704184541324  0.4116616187280258
  0.4272320271306569  0.3482436958705648  0.4133113745669874
  0.4266277966001297  0.5969901842173542  0.4130497929280210
  0.4282059748869500  0.8479823290951245  0.4113478247524540
  0.5939511750176933  0.0977825769577976  0.4100882793826131
  0.5945500237982344  0.3477285319162888  0.4096325442128048
  0.5947071960341219  0.5975814498822700  0.4093892529773626
  0.5947031416438193  0.8481957771384288  0.4098374149811335
  0.2459709530325327  0.2258623356169096  0.4574042820034308
  0.2445360230299443  0.7211573915363445  0.4614461026542145
  0.2414131350802649  0.9730051844677874  0.5011315125876550
  0.4284354793354126  0.2234303607321451  0.4113774442212943
  0.4269917820025171  0.4728444754056582  0.4132382253670812
  0.4285795699061055  0.7222727164618234  0.4105414766776008
  0.4272031457703420  0.9728451977931556  0.4130463277295178
  0.5946918775505523  0.2228520302752202  0.4096353279933140
  0.5937647669685830  0.4726317787304524  0.4098296423359997
  0.5947351921475601  0.7225038730687956  0.4095006583440153
  0.5947132657103964  0.9729093455185449  0.4099674583725488
  0.3441772293842007  0.0351494312364977  0.4128300009396924
  0.3434825261000469  0.2875194210476124  0.4121655359972891
  0.3409973676088498  0.5348937767252551  0.4147301665620589
  0.3451925717242901  0.7848811450643041  0.4108991389656964
  0.5108928779689421  0.0351480541519322  0.4113121769674635
  0.5112388303947597  0.2855119513993145  0.4112414408766298
  0.5106209922417264  0.5351674614370552  0.4111034115736416
  0.5116236285598816  0.7853539296976422  0.4103085611300514
  0.6779954829134454  0.0366295013776110  0.4065795246404704
  0.6795923047688177  0.2852690137987963  0.4118347235490845
  0.6779122305970802  0.5338538104983357  0.4061642126024836
  0.6772977025039282  0.7853489404497225  0.4046528036888049
  0.3455295902264837  0.1609625266843508  0.4107199387761042
  0.3428703140818428  0.4100650809464241  0.4137025718337881
  0.3427414255517505  0.6579399191646118  0.4126433211750609
  0.3441466331446534  0.9105055606477421  0.4130705843015647
  0.5112150068536394  0.1604292608132525  0.4108478052169815
  0.5105538561825043  0.4102151756319543  0.4115356688228857
  0.5112418517520396  0.6598156838373797  0.4105790693746272
  0.5111213863710162  0.9105931390352282  0.4112909101603890
  0.6778497521197266  0.1591636414845752  0.4060597385476044
  0.6777599826903895  0.4113261867673614  0.4058704435563811
  0.6797003790556246  0.6598329058823751  0.4115815145159871
  0.6797264596442787  0.9107641181435966  0.4119931585537344
  0.7582186330868197  0.9112711277665113  0.4978328542019952
  0.7638593612082332  0.7851954664175054  0.4976030624282899
  0.7581426076774278  0.6591726899461108  0.4975055822964620
  0.7627239138018211  0.5332510736821590  0.4973488525792717
  0.7628970574779927  0.4110851562566182  0.4972894638347753
  0.7578983824016987  0.2853378562180211  0.4973927666312150
  0.7629599822603339  0.1595637793104103  0.4975984903204491
  0.7628181592397709  0.0372952348788331  0.4976963763874238
  0.2317450844924167  0.5057610355404947  0.4894893922580934
  0.2539550756713211  0.4651974700233623  0.4956838405942179
 
  0.00000000E+00  0.00000000E+00  0.00000000E+00
  0.00000000E+00  0.00000000E+00  0.00000000E+00
  0.00000000E+00  0.00000000E+00  0.00000000E+00
  0.00000000E+00  0.00000000E+00  0.00000000E+00
  0.00000000E+00  0.00000000E+00  0.00000000E+00
  0.00000000E+00  0.00000000E+00  0.00000000E+00
  0.00000000E+00  0.00000000E+00  0.00000000E+00
  0.00000000E+00  0.00000000E+00  0.00000000E+00
  0.00000000E+00  0.00000000E+00  0.00000000E+00
  0.00000000E+00  0.00000000E+00  0.00000000E+00
  0.00000000E+00  0.00000000E+00  0.00000000E+00
  0.00000000E+00  0.00000000E+00  0.00000000E+00
  0.00000000E+00  0.00000000E+00  0.00000000E+00
  0.00000000E+00  0.00000000E+00  0.00000000E+00
  0.00000000E+00  0.00000000E+00  0.00000000E+00
  0.00000000E+00  0.00000000E+00  0.00000000E+00
  0.00000000E+00  0.00000000E+00  0.00000000E+00
  0.00000000E+00  0.00000000E+00  0.00000000E+00
  0.00000000E+00  0.00000000E+00  0.00000000E+00
  0.00000000E+00  0.00000000E+00  0.00000000E+00
  0.00000000E+00  0.00000000E+00  0.00000000E+00
  0.00000000E+00  0.00000000E+00  0.00000000E+00
  0.00000000E+00  0.00000000E+00  0.00000000E+00
  0.00000000E+00  0.00000000E+00  0.00000000E+00
  0.00000000E+00  0.00000000E+00  0.00000000E+00
  0.00000000E+00  0.00000000E+00  0.00000000E+00
  0.00000000E+00  0.00000000E+00  0.00000000E+00
  0.00000000E+00  0.00000000E+00  0.00000000E+00
  0.00000000E+00  0.00000000E+00  0.00000000E+00
  0.00000000E+00  0.00000000E+00  0.00000000E+00
  0.00000000E+00  0.00000000E+00  0.00000000E+00
  0.00000000E+00  0.00000000E+00  0.00000000E+00
  0.00000000E+00  0.00000000E+00  0.00000000E+00
  0.00000000E+00  0.00000000E+00  0.00000000E+00
  0.00000000E+00  0.00000000E+00  0.00000000E+00
  0.00000000E+00  0.00000000E+00  0.00000000E+00
  0.00000000E+00  0.00000000E+00  0.00000000E+00
  0.00000000E+00  0.00000000E+00  0.00000000E+00
  0.00000000E+00  0.00000000E+00  0.00000000E+00
  0.00000000E+00  0.00000000E+00  0.00000000E+00
  0.00000000E+00  0.00000000E+00  0.00000000E+00
  0.00000000E+00  0.00000000E+00  0.00000000E+00
  0.00000000E+00  0.00000000E+00  0.00000000E+00
  0.00000000E+00  0.00000000E+00  0.00000000E+00
  0.00000000E+00  0.00000000E+00  0.00000000E+00
  0.00000000E+00  0.00000000E+00  0.00000000E+00
  0.00000000E+00  0.00000000E+00  0.00000000E+00
  0.00000000E+00  0.00000000E+00  0.00000000E+00
  0.00000000E+00  0.00000000E+00  0.00000000E+00
  0.00000000E+00  0.00000000E+00  0.00000000E+00
  0.00000000E+00  0.00000000E+00  0.00000000E+00
  0.00000000E+00  0.00000000E+00  0.00000000E+00
  0.00000000E+00  0.00000000E+00  0.00000000E+00
  0.00000000E+00  0.00000000E+00  0.00000000E+00
  0.00000000E+00  0.00000000E+00  0.00000000E+00
  0.00000000E+00  0.00000000E+00  0.00000000E+00
  0.00000000E+00  0.00000000E+00  0.00000000E+00
  0.00000000E+00  0.00000000E+00  0.00000000E+00
  0.00000000E+00  0.00000000E+00  0.00000000E+00
  0.00000000E+00  0.00000000E+00  0.00000000E+00
  0.00000000E+00  0.00000000E+00  0.00000000E+00
  0.00000000E+00  0.00000000E+00  0.00000000E+00
  0.00000000E+00  0.00000000E+00  0.00000000E+00
  0.00000000E+00  0.00000000E+00  0.00000000E+00
  0.00000000E+00  0.00000000E+00  0.00000000E+00
  0.00000000E+00  0.00000000E+00  0.00000000E+00
  0.00000000E+00  0.00000000E+00  0.00000000E+00
  0.00000000E+00  0.00000000E+00  0.00000000E+00
  0.00000000E+00  0.00000000E+00  0.00000000E+00
  0.00000000E+00  0.00000000E+00  0.00000000E+00
  0.00000000E+00  0.00000000E+00  0.00000000E+00
  0.00000000E+00  0.00000000E+00  0.00000000E+00
  0.00000000E+00  0.00000000E+00  0.00000000E+00
  0.00000000E+00  0.00000000E+00  0.00000000E+00
  0.00000000E+00  0.00000000E+00  0.00000000E+00
  0.00000000E+00  0.00000000E+00  0.00000000E+00
  0.00000000E+00  0.00000000E+00  0.00000000E+00
  0.00000000E+00  0.00000000E+00  0.00000000E+00
  0.00000000E+00  0.00000000E+00  0.00000000E+00
  0.00000000E+00  0.00000000E+00  0.00000000E+00
  0.00000000E+00  0.00000000E+00  0.00000000E+00
  0.00000000E+00  0.00000000E+00  0.00000000E+00
  0.00000000E+00  0.00000000E+00  0.00000000E+00
  0.00000000E+00  0.00000000E+00  0.00000000E+00
  0.00000000E+00  0.00000000E+00  0.00000000E+00
  0.00000000E+00  0.00000000E+00  0.00000000E+00
  0.00000000E+00  0.00000000E+00  0.00000000E+00
  0.00000000E+00  0.00000000E+00  0.00000000E+00
  0.00000000E+00  0.00000000E+00  0.00000000E+00
  0.00000000E+00  0.00000000E+00  0.00000000E+00
  0.00000000E+00  0.00000000E+00  0.00000000E+00
  0.00000000E+00  0.00000000E+00  0.00000000E+00
  0.00000000E+00  0.00000000E+00  0.00000000E+00
  0.00000000E+00  0.00000000E+00  0.00000000E+00
  0.00000000E+00  0.00000000E+00  0.00000000E+00
  0.00000000E+00  0.00000000E+00  0.00000000E+00
  0.00000000E+00  0.00000000E+00  0.00000000E+00
  0.00000000E+00  0.00000000E+00  0.00000000E+00
  0.00000000E+00  0.00000000E+00  0.00000000E+00
  0.00000000E+00  0.00000000E+00  0.00000000E+00
  0.00000000E+00  0.00000000E+00  0.00000000E+00
  0.00000000E+00  0.00000000E+00  0.00000000E+00
  0.00000000E+00  0.00000000E+00  0.00000000E+00
  0.00000000E+00  0.00000000E+00  0.00000000E+00
  0.00000000E+00  0.00000000E+00  0.00000000E+00
  0.00000000E+00  0.00000000E+00  0.00000000E+00
  0.00000000E+00  0.00000000E+00  0.00000000E+00
  0.00000000E+00  0.00000000E+00  0.00000000E+00
  0.00000000E+00  0.00000000E+00  0.00000000E+00
  0.00000000E+00  0.00000000E+00  0.00000000E+00
  0.00000000E+00  0.00000000E+00  0.00000000E+00
  0.00000000E+00  0.00000000E+00  0.00000000E+00
  0.00000000E+00  0.00000000E+00  0.00000000E+00
  0.00000000E+00  0.00000000E+00  0.00000000E+00
  0.00000000E+00  0.00000000E+00  0.00000000E+00
  0.00000000E+00  0.00000000E+00  0.00000000E+00
  0.00000000E+00  0.00000000E+00  0.00000000E+00
  0.00000000E+00  0.00000000E+00  0.00000000E+00
  0.00000000E+00  0.00000000E+00  0.00000000E+00
  0.00000000E+00  0.00000000E+00  0.00000000E+00
  0.00000000E+00  0.00000000E+00  0.00000000E+00
  0.00000000E+00  0.00000000E+00  0.00000000E+00
  0.00000000E+00  0.00000000E+00  0.00000000E+00
  0.00000000E+00  0.00000000E+00  0.00000000E+00
  0.00000000E+00  0.00000000E+00  0.00000000E+00
  0.00000000E+00  0.00000000E+00  0.00000000E+00
  0.00000000E+00  0.00000000E+00  0.00000000E+00
  0.00000000E+00  0.00000000E+00  0.00000000E+00
  0.00000000E+00  0.00000000E+00  0.00000000E+00
  0.00000000E+00  0.00000000E+00  0.00000000E+00
  0.00000000E+00  0.00000000E+00  0.00000000E+00
  0.00000000E+00  0.00000000E+00  0.00000000E+00
  0.00000000E+00  0.00000000E+00  0.00000000E+00
  0.00000000E+00  0.00000000E+00  0.00000000E+00
  0.00000000E+00  0.00000000E+00  0.00000000E+00
  0.00000000E+00  0.00000000E+00  0.00000000E+00
  0.00000000E+00  0.00000000E+00  0.00000000E+00
  0.00000000E+00  0.00000000E+00  0.00000000E+00
  0.00000000E+00  0.00000000E+00  0.00000000E+00
  0.00000000E+00  0.00000000E+00  0.00000000E+00
  0.00000000E+00  0.00000000E+00  0.00000000E+00
  0.00000000E+00  0.00000000E+00  0.00000000E+00
  0.00000000E+00  0.00000000E+00  0.00000000E+00
  0.00000000E+00  0.00000000E+00  0.00000000E+00
  0.00000000E+00  0.00000000E+00  0.00000000E+00
  0.00000000E+00  0.00000000E+00  0.00000000E+00
  0.00000000E+00  0.00000000E+00  0.00000000E+00
