H4 W48 C1 S99 O1                        
   1.00000000000000     
    33.0000000000000000    0.0000000000000000    0.0000000000000000
     0.0000000000000000   25.2255992900000017    0.0000000000000000
     0.0000000000000000    0.0000000000000000   17.4929999999999986
   W    S    O    C    H 
    48    99     1     1     4
Direct
  0.2880559235300026  0.0379225148147384  0.5000048061642204
  0.2900680366806512  0.2845813890497055  0.5000070189298853
  0.2887708657421797  0.5390888962260050  0.4999836348222146
  0.2911425753789203  0.7824998056262515  0.4999743718253740
  0.4552486851152366  0.0346605621589688  0.5000093584098551
  0.4554337513826567  0.2848780505835720  0.5000273331055212
  0.4563507016044639  0.5350695897016067  0.4999603643064603
  0.4563903458970984  0.7848739353552219  0.4999471856359392
  0.6219771805357155  0.0351594693733901  0.5000523126684868
  0.6217498377665578  0.2841484247413817  0.5000702433906810
  0.6251985252512782  0.5349948211604243  0.4999832817127583
  0.6227504350041571  0.7851485389744397  0.5000313711578244
  0.2898555983221556  0.1602484833933460  0.5000086789387339
  0.2885516095364906  0.4068288557752453  0.5000000549169172
  0.2913418819389761  0.6615309160006433  0.4999647296540672
  0.2882828411687086  0.9050482508062885  0.4999933065421232
  0.4553029943756073  0.1594347790076753  0.5000223585709875
  0.4559156134216948  0.4098739009624879  0.5000114858886420
  0.4567690646077196  0.6594065724054232  0.4999299113166202
  0.4556795429043845  0.9094732476759333  0.4999857931933036
  0.6218462826677680  0.1592724512683290  0.5000745668815298
  0.6218218546019401  0.4087585505390052  0.5001246706386837
  0.6237563535070336  0.6599239360984512  0.5001562697039645
  0.6222880366458412  0.9102511961806243  0.5001308483429128
  0.3716545225821406  0.2222740748754291  0.5000148119675387
  0.3718478624390471  0.4725453206268639  0.4999856147974313
  0.3729494279614300  0.7220918679899242  0.4999429141344578
  0.3712570818458758  0.9719295019818759  0.4999950925904457
  0.5388278880729018  0.2218920624512748  0.5000520779562265
  0.5399325663788446  0.4725475610975494  0.5000258666371806
  0.5397323065595074  0.7221647103478546  0.4999538598565820
  0.5390976642909138  0.9723486724281898  0.5000278894087558
  0.7073548722701375  0.2150566071661473  0.5000805836727409
  0.7018010427096968  0.4613476669623182  0.5001082509908272
  0.7072542704682760  0.7244102812551318  0.5006405495734185
  0.7071862277819676  0.9800678895742934  0.5001670133945169
  0.3726802996665697  0.0971944620322063  0.5000089156184941
  0.3731096026231313  0.3473914847244046  0.5000085449518679
  0.3738449342013084  0.5975557249728567  0.4999523896764870
  0.3734035157829112  0.8467694587976524  0.4999689843115576
  0.5383634849847354  0.0970864189012417  0.5000366594858576
  0.5386184595418158  0.3469642532085544  0.5000567130424827
  0.5406821840939386  0.5972508584513321  0.4999377481930907
  0.5395891162983446  0.8472946091830238  0.5000078436150801
  0.7065057361519820  0.0971106950969940  0.5000659081006091
  0.7057785286510736  0.3519197349966134  0.5000913885634901
  0.7107782531702469  0.6070863778227036  0.5003545602104893
  0.7074367934248045  0.8426889372104824  0.5000673642702367
  0.2616385258394516  0.0985621144317577  0.5888368875602623
  0.2619889175146071  0.3463071502958499  0.5888623706648417
  0.2625404081076326  0.5995257615511704  0.5886236590582428
  0.2622248875464877  0.8444894013091400  0.5886064152297834
  0.4276090225752043  0.0970242568794077  0.5907302021955658
  0.4280776964614503  0.3475419530283759  0.5907052186785933
  0.4288565246273919  0.5972851714364111  0.5907096772908318
  0.4283698642196612  0.8470615027125561  0.5907044964328563
  0.5937361391168778  0.0971795509856008  0.5901845692485139
  0.5937853269982796  0.3463647244637897  0.5903364251226506
  0.5967050053740905  0.5965385243989374  0.5900285973144719
  0.5950658747551003  0.8476495932709938  0.5904232586195519
  0.4273770511914847  0.2222042025994000  0.5899787839140203
  0.4277969206083014  0.4725607340091358  0.5897343428874393
  0.4287146773250541  0.7220686825312583  0.5899471289283440
  0.4271298158429175  0.9719595200062372  0.5897825566155319
  0.5943916610752922  0.2218999553198486  0.5904125075263948
  0.5957408550152863  0.4732674446160416  0.5898074677732552
  0.5951819174349353  0.7221809312753535  0.5898970069461242
  0.5946397547778162  0.9724480738591339  0.5904024044255891
  0.3429700968325164  0.0344824887784156  0.5895845949831369
  0.3440688755058900  0.2846962706020904  0.5906111914851166
  0.3437855081704768  0.5351398507646579  0.5895302910801448
  0.3448987564109487  0.7840017655108795  0.5909013485739862
  0.5107366004028790  0.0344613440952486  0.5902696279685387
  0.5108059637592461  0.2843895418101354  0.5902272839980967
  0.5121236574923245  0.5350147746140408  0.5899080547603859
  0.5118433439389278  0.7847154381133663  0.5901929631176159
  0.6778539483689840  0.0363846935498628  0.5928689273138303
  0.6793609630216153  0.2832975125630526  0.5868471263619455
  0.6853849951798310  0.5359359604490663  0.5855792259761046
  0.6784670552022050  0.7852075455365224  0.5928236527588098
  0.3438309293326611  0.1600068093818763  0.5906439255820999
  0.3434943333008746  0.4100901379915172  0.5896119034924183
  0.3451100413955004  0.6601454174509911  0.5909063251392368
  0.3432578118598641  0.9092207095384950  0.5895126624339539
  0.5107129983034611  0.1596506694410635  0.5903260604687190
  0.5115023686409046  0.4101479749595214  0.5901671964713273
  0.5123548854442959  0.6594461844917916  0.5901373617845991
  0.5112916207474711  0.9097420249372163  0.5900394714779083
  0.6778643739842707  0.1583755005226308  0.5925189028720226
  0.6754913295194953  0.4061692516589801  0.5966702156585839
  0.6793395545365399  0.6618965484212040  0.5922791579901201
  0.6797433160327699  0.9109717049485937  0.5872373034408938
  0.2616370828977566  0.0985684130416260  0.4111781231975513
  0.2619904343842947  0.3463000838728547  0.4111424625262643
  0.2625297619954381  0.5995100978376158  0.4113379954693173
  0.2622147435654867  0.8445035422386056  0.4113732197828242
  0.4276145516069576  0.0970318622494588  0.4092937628117994
  0.4280852457336550  0.3475311266933474  0.4093259838150161
  0.4288541937095403  0.5972652680712258  0.4091791188471987
  0.4283702669460112  0.8470861866580179  0.4092249275340194
  0.5937524498345681  0.0971870849498515  0.4099215143524759
  0.5938065809621449  0.3463845910035275  0.4098366203864501
  0.5968084531446607  0.5966100172467534  0.4099711690299586
  0.5951125394401231  0.8476743639955515  0.4096975409387227
  0.2384653695409611  0.2225390095399504  0.5000155894288483
  0.2399577005233482  0.4729025153314055  0.5000018454180974
  0.2386469267970952  0.7218935054557178  0.4999891217322627
  0.2396813219341283  0.9715383645315967  0.5000061353234670
  0.4273843911525006  0.2222055718541540  0.4100615098986822
  0.4277978334645525  0.4725309683486500  0.4102358226618819
  0.4287139331486216  0.7220785970188075  0.4099242230175619
  0.4271326952901333  0.9719750008934156  0.4102104428028284
  0.5944045407189336  0.2219005448639351  0.4097191073005746
  0.5957464071434941  0.4732312450725473  0.4102884976004049
  0.5952695949090838  0.7221640902463520  0.4101724653347461
  0.5946783107988978  0.9724191224518677  0.4097365771161492
  0.3429697561629865  0.0344929647293668  0.4104200444051997
  0.3440717883962634  0.2846906653230477  0.4094078351642807
  0.3437748718978781  0.5351164911418635  0.4104137122008424
  0.3448884474945686  0.7840164327112049  0.4090187215123393
  0.5107514824307628  0.0344671685219282  0.4097753052049171
  0.5108227991200991  0.2843912862400231  0.4098639548179150
  0.5121435121813178  0.5349711782570807  0.4100292206118610
  0.5118705265724159  0.7847450266485438  0.4097378513257510
  0.6778752504921073  0.0363532399335256  0.4072725887648616
  0.6793658745935005  0.2833121958798586  0.4132757360068950
  0.6854071234055610  0.5359028730678759  0.4145172659765848
  0.6784872554009809  0.7850684021864041  0.4075146978319708
  0.3438337393349116  0.1600098677013477  0.4093790041853538
  0.3434944958928483  0.4100765347647339  0.4103847589235698
  0.3451007305028710  0.6601386035473027  0.4089945365782341
  0.3432517574071241  0.9092382314567544  0.4104605224856783
  0.5107274806548148  0.1596595001649916  0.4097451255506144
  0.5115190729808887  0.4101279938776301  0.4098936842027712
  0.5123705640720715  0.6594538109213559  0.4097276331984787
  0.5113115268795241  0.9097549389931459  0.4099700813322542
  0.6778661734347935  0.1583843577037172  0.4076541980986832
  0.6754317544078532  0.4062501618415553  0.4036211819224960
  0.6798605306679661  0.6621187685146595  0.4085970023302465
  0.6797849168196919  0.9109421913438638  0.4131113123258601
  0.7580600458577536  0.9109731795610116  0.5007260388358858
  0.7629839548973010  0.7860964792684939  0.4978980202237011
  0.7645477916065317  0.6662951534660948  0.5061851583513715
  0.7621237029415511  0.4170326985686046  0.5000836607323507
  0.7578601666725646  0.2857447038299128  0.4999571120348918
  0.7627854417813538  0.1586748059610912  0.5001675095057507
  0.7628066438312473  0.0364054355312575  0.4998681413101380
  0.7659247677746350  0.5555819351042075  0.4958559782829397
  0.8095442724625528  0.5622256209410139  0.5071224382353989
  0.8232672481822121  0.5227238551477100  0.5035561730336511
  0.8151133848144312  0.5797813207833613  0.5634560649535771
  0.7594692398252434  0.5168355003995586  0.4937831088078894
  0.8214661406308892  0.5879184310251588  0.4619507061703771
 
  0.00000000E+00  0.00000000E+00  0.00000000E+00
  0.00000000E+00  0.00000000E+00  0.00000000E+00
  0.00000000E+00  0.00000000E+00  0.00000000E+00
  0.00000000E+00  0.00000000E+00  0.00000000E+00
  0.00000000E+00  0.00000000E+00  0.00000000E+00
  0.00000000E+00  0.00000000E+00  0.00000000E+00
  0.00000000E+00  0.00000000E+00  0.00000000E+00
  0.00000000E+00  0.00000000E+00  0.00000000E+00
  0.00000000E+00  0.00000000E+00  0.00000000E+00
  0.00000000E+00  0.00000000E+00  0.00000000E+00
  0.00000000E+00  0.00000000E+00  0.00000000E+00
  0.00000000E+00  0.00000000E+00  0.00000000E+00
  0.00000000E+00  0.00000000E+00  0.00000000E+00
  0.00000000E+00  0.00000000E+00  0.00000000E+00
  0.00000000E+00  0.00000000E+00  0.00000000E+00
  0.00000000E+00  0.00000000E+00  0.00000000E+00
  0.00000000E+00  0.00000000E+00  0.00000000E+00
  0.00000000E+00  0.00000000E+00  0.00000000E+00
  0.00000000E+00  0.00000000E+00  0.00000000E+00
  0.00000000E+00  0.00000000E+00  0.00000000E+00
  0.00000000E+00  0.00000000E+00  0.00000000E+00
  0.00000000E+00  0.00000000E+00  0.00000000E+00
  0.00000000E+00  0.00000000E+00  0.00000000E+00
  0.00000000E+00  0.00000000E+00  0.00000000E+00
  0.00000000E+00  0.00000000E+00  0.00000000E+00
  0.00000000E+00  0.00000000E+00  0.00000000E+00
  0.00000000E+00  0.00000000E+00  0.00000000E+00
  0.00000000E+00  0.00000000E+00  0.00000000E+00
  0.00000000E+00  0.00000000E+00  0.00000000E+00
  0.00000000E+00  0.00000000E+00  0.00000000E+00
  0.00000000E+00  0.00000000E+00  0.00000000E+00
  0.00000000E+00  0.00000000E+00  0.00000000E+00
  0.00000000E+00  0.00000000E+00  0.00000000E+00
  0.00000000E+00  0.00000000E+00  0.00000000E+00
  0.00000000E+00  0.00000000E+00  0.00000000E+00
  0.00000000E+00  0.00000000E+00  0.00000000E+00
  0.00000000E+00  0.00000000E+00  0.00000000E+00
  0.00000000E+00  0.00000000E+00  0.00000000E+00
  0.00000000E+00  0.00000000E+00  0.00000000E+00
  0.00000000E+00  0.00000000E+00  0.00000000E+00
  0.00000000E+00  0.00000000E+00  0.00000000E+00
  0.00000000E+00  0.00000000E+00  0.00000000E+00
  0.00000000E+00  0.00000000E+00  0.00000000E+00
  0.00000000E+00  0.00000000E+00  0.00000000E+00
  0.00000000E+00  0.00000000E+00  0.00000000E+00
  0.00000000E+00  0.00000000E+00  0.00000000E+00
  0.00000000E+00  0.00000000E+00  0.00000000E+00
  0.00000000E+00  0.00000000E+00  0.00000000E+00
  0.00000000E+00  0.00000000E+00  0.00000000E+00
  0.00000000E+00  0.00000000E+00  0.00000000E+00
  0.00000000E+00  0.00000000E+00  0.00000000E+00
  0.00000000E+00  0.00000000E+00  0.00000000E+00
  0.00000000E+00  0.00000000E+00  0.00000000E+00
  0.00000000E+00  0.00000000E+00  0.00000000E+00
  0.00000000E+00  0.00000000E+00  0.00000000E+00
  0.00000000E+00  0.00000000E+00  0.00000000E+00
  0.00000000E+00  0.00000000E+00  0.00000000E+00
  0.00000000E+00  0.00000000E+00  0.00000000E+00
  0.00000000E+00  0.00000000E+00  0.00000000E+00
  0.00000000E+00  0.00000000E+00  0.00000000E+00
  0.00000000E+00  0.00000000E+00  0.00000000E+00
  0.00000000E+00  0.00000000E+00  0.00000000E+00
  0.00000000E+00  0.00000000E+00  0.00000000E+00
  0.00000000E+00  0.00000000E+00  0.00000000E+00
  0.00000000E+00  0.00000000E+00  0.00000000E+00
  0.00000000E+00  0.00000000E+00  0.00000000E+00
  0.00000000E+00  0.00000000E+00  0.00000000E+00
  0.00000000E+00  0.00000000E+00  0.00000000E+00
  0.00000000E+00  0.00000000E+00  0.00000000E+00
  0.00000000E+00  0.00000000E+00  0.00000000E+00
  0.00000000E+00  0.00000000E+00  0.00000000E+00
  0.00000000E+00  0.00000000E+00  0.00000000E+00
  0.00000000E+00  0.00000000E+00  0.00000000E+00
  0.00000000E+00  0.00000000E+00  0.00000000E+00
  0.00000000E+00  0.00000000E+00  0.00000000E+00
  0.00000000E+00  0.00000000E+00  0.00000000E+00
  0.00000000E+00  0.00000000E+00  0.00000000E+00
  0.00000000E+00  0.00000000E+00  0.00000000E+00
  0.00000000E+00  0.00000000E+00  0.00000000E+00
  0.00000000E+00  0.00000000E+00  0.00000000E+00
  0.00000000E+00  0.00000000E+00  0.00000000E+00
  0.00000000E+00  0.00000000E+00  0.00000000E+00
  0.00000000E+00  0.00000000E+00  0.00000000E+00
  0.00000000E+00  0.00000000E+00  0.00000000E+00
  0.00000000E+00  0.00000000E+00  0.00000000E+00
  0.00000000E+00  0.00000000E+00  0.00000000E+00
  0.00000000E+00  0.00000000E+00  0.00000000E+00
  0.00000000E+00  0.00000000E+00  0.00000000E+00
  0.00000000E+00  0.00000000E+00  0.00000000E+00
  0.00000000E+00  0.00000000E+00  0.00000000E+00
  0.00000000E+00  0.00000000E+00  0.00000000E+00
  0.00000000E+00  0.00000000E+00  0.00000000E+00
  0.00000000E+00  0.00000000E+00  0.00000000E+00
  0.00000000E+00  0.00000000E+00  0.00000000E+00
  0.00000000E+00  0.00000000E+00  0.00000000E+00
  0.00000000E+00  0.00000000E+00  0.00000000E+00
  0.00000000E+00  0.00000000E+00  0.00000000E+00
  0.00000000E+00  0.00000000E+00  0.00000000E+00
  0.00000000E+00  0.00000000E+00  0.00000000E+00
  0.00000000E+00  0.00000000E+00  0.00000000E+00
  0.00000000E+00  0.00000000E+00  0.00000000E+00
  0.00000000E+00  0.00000000E+00  0.00000000E+00
  0.00000000E+00  0.00000000E+00  0.00000000E+00
  0.00000000E+00  0.00000000E+00  0.00000000E+00
  0.00000000E+00  0.00000000E+00  0.00000000E+00
  0.00000000E+00  0.00000000E+00  0.00000000E+00
  0.00000000E+00  0.00000000E+00  0.00000000E+00
  0.00000000E+00  0.00000000E+00  0.00000000E+00
  0.00000000E+00  0.00000000E+00  0.00000000E+00
  0.00000000E+00  0.00000000E+00  0.00000000E+00
  0.00000000E+00  0.00000000E+00  0.00000000E+00
  0.00000000E+00  0.00000000E+00  0.00000000E+00
  0.00000000E+00  0.00000000E+00  0.00000000E+00
  0.00000000E+00  0.00000000E+00  0.00000000E+00
  0.00000000E+00  0.00000000E+00  0.00000000E+00
  0.00000000E+00  0.00000000E+00  0.00000000E+00
  0.00000000E+00  0.00000000E+00  0.00000000E+00
  0.00000000E+00  0.00000000E+00  0.00000000E+00
  0.00000000E+00  0.00000000E+00  0.00000000E+00
  0.00000000E+00  0.00000000E+00  0.00000000E+00
  0.00000000E+00  0.00000000E+00  0.00000000E+00
  0.00000000E+00  0.00000000E+00  0.00000000E+00
  0.00000000E+00  0.00000000E+00  0.00000000E+00
  0.00000000E+00  0.00000000E+00  0.00000000E+00
  0.00000000E+00  0.00000000E+00  0.00000000E+00
  0.00000000E+00  0.00000000E+00  0.00000000E+00
  0.00000000E+00  0.00000000E+00  0.00000000E+00
  0.00000000E+00  0.00000000E+00  0.00000000E+00
  0.00000000E+00  0.00000000E+00  0.00000000E+00
  0.00000000E+00  0.00000000E+00  0.00000000E+00
  0.00000000E+00  0.00000000E+00  0.00000000E+00
  0.00000000E+00  0.00000000E+00  0.00000000E+00
  0.00000000E+00  0.00000000E+00  0.00000000E+00
  0.00000000E+00  0.00000000E+00  0.00000000E+00
  0.00000000E+00  0.00000000E+00  0.00000000E+00
  0.00000000E+00  0.00000000E+00  0.00000000E+00
  0.00000000E+00  0.00000000E+00  0.00000000E+00
  0.00000000E+00  0.00000000E+00  0.00000000E+00
  0.00000000E+00  0.00000000E+00  0.00000000E+00
  0.00000000E+00  0.00000000E+00  0.00000000E+00
  0.00000000E+00  0.00000000E+00  0.00000000E+00
  0.00000000E+00  0.00000000E+00  0.00000000E+00
  0.00000000E+00  0.00000000E+00  0.00000000E+00
  0.00000000E+00  0.00000000E+00  0.00000000E+00
  0.00000000E+00  0.00000000E+00  0.00000000E+00
  0.00000000E+00  0.00000000E+00  0.00000000E+00
  0.00000000E+00  0.00000000E+00  0.00000000E+00
  0.00000000E+00  0.00000000E+00  0.00000000E+00
  0.00000000E+00  0.00000000E+00  0.00000000E+00
  0.00000000E+00  0.00000000E+00  0.00000000E+00
  0.00000000E+00  0.00000000E+00  0.00000000E+00
  0.00000000E+00  0.00000000E+00  0.00000000E+00
  0.00000000E+00  0.00000000E+00  0.00000000E+00
