H4 W48 C1 S99 O1
1.0
  33.0000000000000000    0.0000000000000000    0.0000000000000000
   0.0000000000000000   25.2255992900000017    0.0000000000000000
   0.0000000000000000    0.0000000000000000   17.4929999999999986
W S O C H
48 99 1 1 4
direct
   0.2889986000000000    0.0387513100000000    0.4999993400000000 W
   0.2906517800000000    0.2850109500000000    0.4999991500000000 W
   0.2889260300000000    0.5388507400000000    0.4999971100000000 W
   0.2906696000000000    0.7848948300000000    0.4999986500000000 W
   0.4561614000000000    0.0355491600000000    0.5000008600000000 W
   0.4562470200000000    0.2856368700000000    0.5000001900000000 W
   0.4558798500000000    0.5356833300000000    0.5000000999999999 W
   0.4561605200000000    0.7858429000000000    0.4999997100000000 W
   0.6230509400000001    0.0356224000000000    0.5000009300000000 W
   0.6228942500000000    0.2855929600000000    0.5000011000000000 W
   0.6237004400000000    0.5359296200000000    0.5000009300000000 W
   0.6226899700000000    0.7851008700000000    0.5000004400000000 W
   0.2906637200000000    0.1609422200000000    0.4999991000000000 W
   0.2889827000000000    0.4071893600000000    0.4999990800000000 W
   0.2906412400000000    0.6611181300000000    0.4999959500000000 W
   0.2889535800000000    0.9071474000000000    0.4999992300000000 W
   0.4563209800000000    0.1602934700000000    0.5000006900000000 W
   0.4560980000000000    0.4104314800000000    0.5000001200000000 W
   0.4560879000000000    0.6602486200000000    0.4999994700000000 W
   0.4561360200000000    0.9104043000000001    0.5000004000000000 W
   0.6229867700000000    0.1602427300000000    0.5000010400000000 W
   0.6224792600000000    0.4106606400000000    0.5000008200000000 W
   0.6219015100000000    0.6604824200000000    0.5000006500000000 W
   0.6230707700000000    0.9103324500000000    0.5000005199999999 W
   0.3724915600000000    0.2229722200000000    0.4999996300000000 W
   0.3718196000000000    0.4729993100000000    0.4999993200000000 W
   0.3724349900000000    0.7230324100000000    0.4999980400000000 W
   0.3719220300000000    0.9729948700000000    0.5000000900000000 W
   0.5399172700000000    0.2228917100000000    0.5000007900000000 W
   0.5395416000000000    0.4732156400000000    0.5000008900000000 W
   0.5389907800000000    0.7230770000000000    0.5000002099999999 W
   0.5399455399999999    0.9730167900000000    0.5000008700000000 W
   0.7084144600000000    0.2164737900000000    0.5000008300000000 W
   0.7041644000000000    0.4662643000000000    0.5000009399999999 W
   0.7065860800000000    0.7241554500000000    0.5000002500000000 W
   0.7083438600000000    0.9797465900000000    0.5000001800000000 W
   0.3736127100000000    0.0980799300000000    0.5000001200000000 W
   0.3735689200000000    0.3478962000000000    0.4999998900000000 W
   0.3734367600000000    0.5981327700000000    0.4999988000000000 W
   0.3735400800000000    0.8479309500000000    0.4999992700000000 W
   0.5394448900000000    0.0978959600000000    0.5000017600000000 W
   0.5394347000000000    0.3480446100000000    0.5000006800000000 W
   0.5396063600000000    0.5979576300000000    0.5000004900000000 W
   0.5397563800000000    0.8479678899999999    0.5000007200000000 W
   0.7076259900000000    0.0978005200000000    0.5000003100000000 W
   0.7073617800000001    0.3547006100000000    0.5000009600000000 W
   0.7049294699999999    0.6051545600000000    0.5000007400000001 W
   0.7081812900000000    0.8407299400000000    0.5000000700000000 W
   0.2624818100000000    0.0993654500000000    0.5888391800000000 S
   0.2624621900000000    0.3465734200000000    0.5888438400000000 S
   0.2624241200000000    0.5994810300000000    0.5887964200000000 S
   0.2624358600000000    0.8465315800000000    0.5887924900000000 S
   0.4285995100000000    0.0979286700000000    0.5907000000000000 S
   0.4285600700000000    0.3480317900000000    0.5906967700000000 S
   0.4283542700000000    0.5979782800000000    0.5907782800000000 S
   0.4284870200000000    0.8481545400000000    0.5907509100000000 S
   0.5949228200000000    0.0979172900000000    0.5899904400000000 S
   0.5948898000000000    0.3478215200000000    0.5900852599999999 S
   0.5951340700000000    0.5973821200000000    0.5904784000000000 S
   0.5954066000000000    0.8480200900000000    0.5902020400000000 S
   0.4282963200000000    0.2229574700000000    0.5899530400000000 S
   0.4277082400000000    0.4729975200000000    0.5897859200000000 S
   0.4282037400000000    0.7230628300000000    0.5899385500000000 S
   0.4278360300000000    0.9729876500000000    0.5897831500000000 S
   0.5955932100000000    0.2230696500000000    0.5902096300000000 S
   0.5951940600000000    0.4739842400000000    0.5899459100000000 S
   0.5942515000000000    0.7229543600000000    0.5900859800000000 S
   0.5956510900000000    0.9728209700000000    0.5902022099999999 S
   0.3438361300000000    0.0355236300000000    0.5897154300000000 S
   0.3446776300000000    0.2851877800000000    0.5906203200000000 S
   0.3437255600000000    0.5355337000000000    0.5897372100000000 S
   0.3446499300000000    0.7852218000000000    0.5906674500000000 S
   0.5117333900000000    0.0352657500000000    0.5901868400000000 S
   0.5117675900000000    0.2853412900000000    0.5900970400000000 S
   0.5114572500000000    0.5355385400000000    0.5900542800000000 S
   0.5115590400000000    0.7857484300000001    0.5903148900000000 S
   0.6790272800000000    0.0365443300000000    0.5925210600000000 S
   0.6806277600000000    0.2854557600000000    0.5865365400000000 S
   0.6828801500000000    0.5359367500000000    0.5876366500000000 S
   0.6784170700000000    0.7844172400000000    0.5925699700000000 S
   0.3446882300000000    0.1607662300000000    0.5906229900000000 S
   0.3437947700000000    0.4104498300000000    0.5897376700000000 S
   0.3446010300000000    0.6608584400000000    0.5906783600000000 S
   0.3437830000000000    0.9104896600000000    0.5897201300000000 S
   0.5118328300000000    0.1605523400000000    0.5902096100000001 S
   0.5116594500000000    0.4106920500000000    0.5902069000000000 S
   0.5115011699999999    0.6603594200000000    0.5902517300000000 S
   0.5118216700000000    0.9106007000000000    0.5900098000000000 S
   0.6790290600000000    0.1593728500000000    0.5922949500000000 S
   0.6768365300000000    0.4095687000000000    0.5946393300000000 S
   0.6774879600000000    0.6629780800000000    0.5922975600000000 S
   0.6808337100000000    0.9101903300000000    0.5864687800000000 S
   0.2624819900000000    0.0993651100000000    0.4111590800000000 S
   0.2624624400000000    0.3465735100000000    0.4111544300000000 S
   0.2624244500000000    0.5994795900000000    0.4111969100000000 S
   0.2624357400000000    0.8465321300000000    0.4112053100000000 S
   0.4286001800000000    0.0979283700000000    0.4093013100000000 S
   0.4285604900000000    0.3480317200000000    0.4093033900000000 S
   0.4283550900000000    0.5979779100000000    0.4092206400000000 S
   0.4284876800000000    0.8481550700000000    0.4092487400000000 S
   0.5949222900000000    0.0979175300000000    0.4100120500000000 S
   0.5948897000000000    0.3478214100000000    0.4099161800000000 S
   0.5951341900000000    0.5973819600000000    0.4095231000000000 S
   0.5954064900000000    0.8480201100000000    0.4097990600000000 S
   0.2391220800000000    0.2229693500000000    0.4999972600000000 S
   0.2400506500000000    0.4729687900000000    0.4999992500000000 S
   0.2390100000000000    0.7230257500000000    0.4999982200000000 S
   0.2400559700000000    0.9729782000000000    0.4999996200000000 S
   0.4282968900000000    0.2229572600000000    0.4100474200000000 S
   0.4277089500000000    0.4729977400000000    0.4102139200000000 S
   0.4282046600000000    0.7230630300000001    0.4100590900000000 S
   0.4278366500000000    0.9729879400000000    0.4102180400000000 S
   0.5955930699999999    0.2230696100000000    0.4097917100000000 S
   0.5951939600000000    0.4739842500000000    0.4100559100000000 S
   0.5942516300000000    0.7229542400000000    0.4099149800000000 S
   0.5956508300000000    0.9728209300000000    0.4097987900000000 S
   0.3438366400000000    0.0355235600000000    0.4102837600000000 S
   0.3446780500000000    0.2851878600000000    0.4093785000000000 S
   0.3437269100000000    0.5355331500000000    0.4102593900000000 S
   0.3446500900000000    0.7852227100000000    0.4093288200000000 S
   0.5117334800000000    0.0352661000000000    0.4098157800000000 S
   0.5117677700000000    0.2853413400000000    0.4099045300000000 S
   0.5114576800000000    0.5355382400000001    0.4099470800000000 S
   0.5115595700000000    0.7857486600000000    0.4096857300000000 S
   0.6790268600000000    0.0365445200000000    0.4074792100000000 S
   0.6806275800000000    0.2854555800000000    0.4134653600000000 S
   0.6828800400000000    0.5359361499999999    0.4123659400000000 S
   0.6784168100000000    0.7844172400000000    0.4074303900000000 S
   0.3446890800000000    0.1607662400000000    0.4093757300000000 S
   0.3437952800000000    0.4104498600000000    0.4102614900000000 S
   0.3446019500000000    0.6608569200000000    0.4093154500000000 S
   0.3437836100000000    0.9104901600000000    0.4102784100000000 S
   0.5118331200000000    0.1605520700000000    0.4097926200000000 S
   0.5116602800000000    0.4106919900000000    0.4097948000000000 S
   0.5115016800000000    0.6603593200000000    0.4097487800000000 S
   0.5118217900000001    0.9106008900000000    0.4099918300000000 S
   0.6790287300000000    0.1593730200000000    0.4077059200000000 S
   0.6768366099999999    0.4095688900000000    0.4053625800000000 S
   0.6774877500000001    0.6629775700000000    0.4077036900000000 S
   0.6808335100000000    0.9101902600000000    0.4135316600000000 S
   0.7588140600000000    0.9093071200000000    0.4999998700000000 S
   0.7636290800000000    0.7809872900000000    0.4999998500000000 S
   0.7630232800000000    0.6512327100000000    0.5000006000000000 S
   0.7632256700000000    0.4194787300000000    0.5000006400000000 S
   0.7588131500000000    0.2872695500000000    0.5000011100000000 S
   0.7637314300000000    0.1595483400000000    0.5000000999999999 S
   0.7638136900000000    0.0363599700000000    0.4999998700000000 S
   0.7607925406060606    0.5311117389410631    0.4990491872989196 O
   0.8019956027272729    0.5498689666509147    0.5075415699662722 C
   0.8224146327272728    0.5158509122080940    0.5002181680340707 H
   0.8059361654545455    0.5671713631165965    0.5646740446704396 H
   0.7576209309090909    0.4886003508994275    0.5005041875847481 H
   0.8079628730303031    0.5797331558556740    0.4633677175681701 H
