H4 W36 Se70 C1 O1                       
   1.00000000000000     
    19.6919994353999996    0.0000000000000000    0.0000000000000000
    -9.8459997176999998   17.0537717624000003    0.0000000000000000
     0.0000000000000000    0.0000000000000000   25.9200000762999991
   W    Se   O    C    H 
    36    70     1     1     4
Direct
  0.1246431879715590  0.0499473912924890  0.4984833325218010
  0.1280614915565091  0.2172584926473190  0.4986917085109350
  0.1245563016116992  0.3809965382952425  0.4984342370358127
  0.1223641997954746  0.5470801239401549  0.4990213652727654
  0.1218070047854505  0.7140892201012333  0.4994473049989797
  0.1223538932867104  0.8816468625451279  0.4990762868935844
  0.2898253492926774  0.0501924605038088  0.4959906262984195
  0.2989515923549690  0.2205447656186427  0.4911813933370479
  0.2992456759365773  0.3847473616531635  0.4909740992858330
  0.2898657500470871  0.5461556257315950  0.4958296892763008
  0.2887995525394835  0.7136800491106048  0.4987577630331481
  0.2888159564426102  0.8815136431712411  0.4988161082355270
  0.4552644023463565  0.0486996817233874  0.4984011630856439
  0.4509852715831205  0.2175771915860405  0.4926668353771534
  0.4484605390513955  0.3776379105812310  0.4869176103107606
  0.4508126843692223  0.5393808478958074  0.4924662094421613
  0.4552700634456878  0.7129254443906535  0.4983273910487130
  0.4551540440194388  0.8807406162229783  0.4997161978689003
  0.6219973958329259  0.0477455955151295  0.5005875705516815
  0.6204151258597509  0.2141762573647968  0.4989546020944387
  0.6160155067339523  0.3790436616248987  0.4963001763394028
  0.6160093003542237  0.5433524754140193  0.4962550465916405
  0.6202981532147653  0.7123739450456666  0.4990242297065161
  0.6219942528610775  0.8805556107410727  0.5005763660147657
  0.7894703138499652  0.0478873862110279  0.5015922201899916
  0.7886454187609150  0.2143868282533524  0.5011022486212888
  0.7868228016243104  0.3802824824029677  0.5000303098391000
  0.7858975226109028  0.5461328641289959  0.4993944373556509
  0.7868132585145874  0.7128539113594640  0.5000646820029818
  0.7886060027887242  0.8805208430368155  0.5011450029613880
  0.9573693341782106  0.0488147540892220  0.5010817124568860
  0.9573630512246538  0.2148563664664350  0.5010590466588997
  0.9558837365390668  0.3808759944579493  0.5005035406475122
  0.9544708955599821  0.5470603020970970  0.5000792779196197
  0.9544776338103809  0.7137362045199475  0.5000990714404323
  0.9558586615468695  0.8813199287081498  0.5005458017867066
  0.0722369092455990  0.1069137671728175  0.5646611186232056
  0.0721952374625235  0.2717190823968436  0.5646543106893720
  0.0692990814917374  0.4364599804231750  0.5644886430536394
  0.0668558287500648  0.6027253772926927  0.5646166875824689
  0.0668555591498767  0.7704495190563038  0.5646357409744889
  0.0692796884831344  0.9391977795691507  0.5645290651574463
  0.2417194359317201  0.1130056177684083  0.5601876107877237
  0.2534431215281668  0.2800492876933923  0.5591871005607405
  0.2419792343250988  0.4351583990395305  0.5599242966449399
  0.2349523163656370  0.6011032599717159  0.5629497415453425
  0.2336735130687988  0.7699888282713492  0.5641072900366666
  0.2349334207305862  0.9402088218318535  0.5630279080317294
  0.3996497523902759  0.1096632696483769  0.5608173105279858
  0.3997014466941163  0.5961344416499178  0.5606150202160242
  0.3994827730198463  0.7678684028077484  0.5641414639238284
  0.3995131210535674  0.9378942861408447  0.5641889219564203
  0.5649205024510787  0.1038893290303512  0.5646767306466686
  0.5581937336202982  0.2694338623626618  0.5610680387987254
  0.5469188896812873  0.4268536741765899  0.5587099382561589
  0.5575248064562021  0.5944692979759801  0.5611080941583746
  0.5648505418274778  0.7672817466420837  0.5646452248751882
  0.5656224893053693  0.9359477735920156  0.5655501463508473
  0.7328616954199888  0.1033252415733425  0.5663966796206048
  0.7305743880187975  0.2696842657705876  0.5653195010601368
  0.7262672605957922  0.4338947436306600  0.5635161878088094
  0.7262123807016694  0.5986995437831921  0.5635005835890327
  0.7304804969836526  0.7671087861917903  0.5653773538694089
  0.7328089396381173  0.9358475040523397  0.5663962330272533
  0.9018487395506696  0.1040982225117615  0.5665653148757852
  0.9008633331735530  0.2702895964982603  0.5660720891173719
  0.8986523733539592  0.4360104770123830  0.5652819825409144
  0.8973501313551453  0.6018223830426110  0.5649253619985848
  0.8986431383699393  0.7689318279765210  0.5653247414573609
  0.9008472719547174  0.9368773967243351  0.5661045615838866
  0.0672233818686088  0.1045446330766014  0.4347458685828236
  0.0671701869790096  0.2689973888527426  0.4347159895098809
  0.0659816342800898  0.4355379988536378  0.4343076589572022
  0.0654349012943930  0.6025126070217358  0.4345012063371492
  0.0654510610480490  0.7693321906782028  0.4345217789493233
  0.0659678001784840  0.9368022401304715  0.4343636833570360
  0.2328441097955225  0.1039726572560771  0.4303453101887310
  0.2342590210520981  0.2702541230316701  0.4289583059657385
  0.2328242754531485  0.4352019185729958  0.4303105984204427
  0.2324434462402524  0.6032257703250196  0.4328447834737367
  0.2327466901270563  0.7696096395026584  0.4339802356158196
  0.2324929813291301  0.9357248894656536  0.4329540724016330
  0.4011754321623216  0.1033875244963243  0.4307843517898065
  0.4017834155672665  0.2700136317488200  0.4214997184636975
  0.4017565735747798  0.4379761239130088  0.4211043011624686
  0.4012319770588786  0.6041651064796154  0.4306824326950037
  0.4002321709044931  0.7702445642594210  0.4338547433374957
  0.4002264346003527  0.9363860246639354  0.4339099969720462
  0.5673396876329474  0.1029214539334806  0.4342606718617050
  0.5657984735880620  0.2682814770467889  0.4312714377179734
  0.5650743867471480  0.4356737525635956  0.4278211544130126
  0.5657133764021979  0.6037846471746297  0.4312025786300648
  0.5674087274360086  0.7707297528412760  0.4342708654592367
  0.5672264488680815  0.9367746345699971  0.4352629212052086
  0.7340298299483501  0.1031900804347764  0.4360668515416888
  0.7333123418572360  0.2692912056372581  0.4350166615154988
  0.7318778258063610  0.4355467670442515  0.4339317289496512
  0.7318924355584910  0.6027083600518677  0.4339059436191102
  0.7332274516639375  0.7702542410831972  0.4350755417118931
  0.7340444456698549  0.9371072475652621  0.4360778924686444
  0.9006186043323314  0.1034335464290308  0.4362684260882757
  0.9001557334740748  0.2691981285945499  0.4359750349301868
  0.8990475833230501  0.4355720282971862  0.4353039898922020
  0.8985614174637797  0.6024499362374972  0.4349205207815389
  0.8990467516025702  0.7697941938128368  0.4353448005242628
  0.9001199998059821  0.9372240368317635  0.4360094547636814
  0.3851358151516288  0.2722830991608255  0.6306392714699195
  0.4397614651659819  0.2723027788827040  0.6668181453796329
  0.4988941557243902  0.3239738526795726  0.6622691152126429
  0.4029407394575235  0.2710007986899949  0.5955458674382271
  0.4444621820241216  0.2188386252079777  0.6639436567189481
  0.4177857626910119  0.2743007666138059  0.7053818399927398
 
  0.00000000E+00  0.00000000E+00  0.00000000E+00
  0.00000000E+00  0.00000000E+00  0.00000000E+00
  0.00000000E+00  0.00000000E+00  0.00000000E+00
  0.00000000E+00  0.00000000E+00  0.00000000E+00
  0.00000000E+00  0.00000000E+00  0.00000000E+00
  0.00000000E+00  0.00000000E+00  0.00000000E+00
  0.00000000E+00  0.00000000E+00  0.00000000E+00
  0.00000000E+00  0.00000000E+00  0.00000000E+00
  0.00000000E+00  0.00000000E+00  0.00000000E+00
  0.00000000E+00  0.00000000E+00  0.00000000E+00
  0.00000000E+00  0.00000000E+00  0.00000000E+00
  0.00000000E+00  0.00000000E+00  0.00000000E+00
  0.00000000E+00  0.00000000E+00  0.00000000E+00
  0.00000000E+00  0.00000000E+00  0.00000000E+00
  0.00000000E+00  0.00000000E+00  0.00000000E+00
  0.00000000E+00  0.00000000E+00  0.00000000E+00
  0.00000000E+00  0.00000000E+00  0.00000000E+00
  0.00000000E+00  0.00000000E+00  0.00000000E+00
  0.00000000E+00  0.00000000E+00  0.00000000E+00
  0.00000000E+00  0.00000000E+00  0.00000000E+00
  0.00000000E+00  0.00000000E+00  0.00000000E+00
  0.00000000E+00  0.00000000E+00  0.00000000E+00
  0.00000000E+00  0.00000000E+00  0.00000000E+00
  0.00000000E+00  0.00000000E+00  0.00000000E+00
  0.00000000E+00  0.00000000E+00  0.00000000E+00
  0.00000000E+00  0.00000000E+00  0.00000000E+00
  0.00000000E+00  0.00000000E+00  0.00000000E+00
  0.00000000E+00  0.00000000E+00  0.00000000E+00
  0.00000000E+00  0.00000000E+00  0.00000000E+00
  0.00000000E+00  0.00000000E+00  0.00000000E+00
  0.00000000E+00  0.00000000E+00  0.00000000E+00
  0.00000000E+00  0.00000000E+00  0.00000000E+00
  0.00000000E+00  0.00000000E+00  0.00000000E+00
  0.00000000E+00  0.00000000E+00  0.00000000E+00
  0.00000000E+00  0.00000000E+00  0.00000000E+00
  0.00000000E+00  0.00000000E+00  0.00000000E+00
  0.00000000E+00  0.00000000E+00  0.00000000E+00
  0.00000000E+00  0.00000000E+00  0.00000000E+00
  0.00000000E+00  0.00000000E+00  0.00000000E+00
  0.00000000E+00  0.00000000E+00  0.00000000E+00
  0.00000000E+00  0.00000000E+00  0.00000000E+00
  0.00000000E+00  0.00000000E+00  0.00000000E+00
  0.00000000E+00  0.00000000E+00  0.00000000E+00
  0.00000000E+00  0.00000000E+00  0.00000000E+00
  0.00000000E+00  0.00000000E+00  0.00000000E+00
  0.00000000E+00  0.00000000E+00  0.00000000E+00
  0.00000000E+00  0.00000000E+00  0.00000000E+00
  0.00000000E+00  0.00000000E+00  0.00000000E+00
  0.00000000E+00  0.00000000E+00  0.00000000E+00
  0.00000000E+00  0.00000000E+00  0.00000000E+00
  0.00000000E+00  0.00000000E+00  0.00000000E+00
  0.00000000E+00  0.00000000E+00  0.00000000E+00
  0.00000000E+00  0.00000000E+00  0.00000000E+00
  0.00000000E+00  0.00000000E+00  0.00000000E+00
  0.00000000E+00  0.00000000E+00  0.00000000E+00
  0.00000000E+00  0.00000000E+00  0.00000000E+00
  0.00000000E+00  0.00000000E+00  0.00000000E+00
  0.00000000E+00  0.00000000E+00  0.00000000E+00
  0.00000000E+00  0.00000000E+00  0.00000000E+00
  0.00000000E+00  0.00000000E+00  0.00000000E+00
  0.00000000E+00  0.00000000E+00  0.00000000E+00
  0.00000000E+00  0.00000000E+00  0.00000000E+00
  0.00000000E+00  0.00000000E+00  0.00000000E+00
  0.00000000E+00  0.00000000E+00  0.00000000E+00
  0.00000000E+00  0.00000000E+00  0.00000000E+00
  0.00000000E+00  0.00000000E+00  0.00000000E+00
  0.00000000E+00  0.00000000E+00  0.00000000E+00
  0.00000000E+00  0.00000000E+00  0.00000000E+00
  0.00000000E+00  0.00000000E+00  0.00000000E+00
  0.00000000E+00  0.00000000E+00  0.00000000E+00
  0.00000000E+00  0.00000000E+00  0.00000000E+00
  0.00000000E+00  0.00000000E+00  0.00000000E+00
  0.00000000E+00  0.00000000E+00  0.00000000E+00
  0.00000000E+00  0.00000000E+00  0.00000000E+00
  0.00000000E+00  0.00000000E+00  0.00000000E+00
  0.00000000E+00  0.00000000E+00  0.00000000E+00
  0.00000000E+00  0.00000000E+00  0.00000000E+00
  0.00000000E+00  0.00000000E+00  0.00000000E+00
  0.00000000E+00  0.00000000E+00  0.00000000E+00
  0.00000000E+00  0.00000000E+00  0.00000000E+00
  0.00000000E+00  0.00000000E+00  0.00000000E+00
  0.00000000E+00  0.00000000E+00  0.00000000E+00
  0.00000000E+00  0.00000000E+00  0.00000000E+00
  0.00000000E+00  0.00000000E+00  0.00000000E+00
  0.00000000E+00  0.00000000E+00  0.00000000E+00
  0.00000000E+00  0.00000000E+00  0.00000000E+00
  0.00000000E+00  0.00000000E+00  0.00000000E+00
  0.00000000E+00  0.00000000E+00  0.00000000E+00
  0.00000000E+00  0.00000000E+00  0.00000000E+00
  0.00000000E+00  0.00000000E+00  0.00000000E+00
  0.00000000E+00  0.00000000E+00  0.00000000E+00
  0.00000000E+00  0.00000000E+00  0.00000000E+00
  0.00000000E+00  0.00000000E+00  0.00000000E+00
  0.00000000E+00  0.00000000E+00  0.00000000E+00
  0.00000000E+00  0.00000000E+00  0.00000000E+00
  0.00000000E+00  0.00000000E+00  0.00000000E+00
  0.00000000E+00  0.00000000E+00  0.00000000E+00
  0.00000000E+00  0.00000000E+00  0.00000000E+00
  0.00000000E+00  0.00000000E+00  0.00000000E+00
  0.00000000E+00  0.00000000E+00  0.00000000E+00
  0.00000000E+00  0.00000000E+00  0.00000000E+00
  0.00000000E+00  0.00000000E+00  0.00000000E+00
  0.00000000E+00  0.00000000E+00  0.00000000E+00
  0.00000000E+00  0.00000000E+00  0.00000000E+00
  0.00000000E+00  0.00000000E+00  0.00000000E+00
  0.00000000E+00  0.00000000E+00  0.00000000E+00
  0.00000000E+00  0.00000000E+00  0.00000000E+00
  0.00000000E+00  0.00000000E+00  0.00000000E+00
  0.00000000E+00  0.00000000E+00  0.00000000E+00
  0.00000000E+00  0.00000000E+00  0.00000000E+00
  0.00000000E+00  0.00000000E+00  0.00000000E+00
  0.00000000E+00  0.00000000E+00  0.00000000E+00
