H4 W36 Se70 C1 O1
1.0
  19.6919994353999996    0.0000000000000000    0.0000000000000000
  -9.8459997176999998   17.0537717624000003    0.0000000000000000
   0.0000000000000000    0.0000000000000000   25.9200000762999991
W Se O C H
36 70 1 1 4
direct
   0.1229815569626497    0.0487321249268932    0.5003850594066598 W
   0.1266719766483771    0.2160778245622195    0.5007405995676502 W
   0.1230097089975487    0.3797856896548799    0.5002767019609911 W
   0.1206605855529759    0.5458909638116244    0.5007113163501439 W
   0.1199839218848616    0.7127927764813299    0.5010985202070287 W
   0.1206202577456789    0.8803329692203644    0.5007690599070727 W
   0.2882458986688178    0.0487566994319258    0.4976086135429191 W
   0.2978887308759813    0.2195792358530433    0.4928497789118659 W
   0.2978584624875920    0.3837782207470409    0.4928131882483933 W
   0.2882615337302384    0.5450149187813431    0.4975709206032153 W
   0.2871668848786459    0.7125188186105966    0.5003613810116677 W
   0.2871362647982687    0.8801963467164128    0.5003784091366176 W
   0.4536225842983827    0.0473641850761069    0.5000601686282952 W
   0.4491136351547046    0.2164106823064820    0.4942914006283012 W
   0.4466221161351854    0.3760541228855681    0.4884798231376925 W
   0.4491198321432547    0.5382442355208472    0.4943171690310031 W
   0.4536442094622134    0.7118164203278653    0.5000904006498110 W
   0.4535383076527731    0.8795295846558889    0.5013625680071774 W
   0.6203632816589902    0.0465358841467404    0.5023001652652198 W
   0.6185945446350710    0.2129484169013485    0.5007930761492858 W
   0.6141113652637258    0.3776453231419142    0.4980568790508588 W
   0.6141077873438443    0.5420224815826400    0.4980919124998298 W
   0.6186036620570066    0.7112294504106257    0.5008479525765934 W
   0.6204123298568078    0.8794270783584930    0.5023082720167392 W
   0.7879074301313773    0.0467430585506919    0.5033518209334205 W
   0.7870283211133486    0.2132391001630378    0.5028393028793735 W
   0.7850531521218814    0.3790115193315084    0.5017459652668512 W
   0.7840414863187807    0.5448256575994199    0.5010721440882792 W
   0.7850146893635949    0.7115915361172970    0.5017948504904728 W
   0.7870445961186954    0.8793910300280376    0.5028998070844424 W
   0.9558139421709666    0.0476657164365382    0.5029501298080596 W
   0.9558133507603660    0.2137089508278431    0.5028822553098026 W
   0.9542431379573010    0.3797193267402257    0.5022188325879902 W
   0.9526225730015419    0.5457862784654809    0.5017471038085145 W
   0.9525944613346293    0.7124160377698289    0.5017860178516098 W
   0.9541928407590573    0.8800733487644510    0.5023158747944946 W
   0.0705719168572010    0.1056426326152765    0.5666556942810251 Se
   0.0705528952786975    0.2705103908550712    0.5665675153846798 Se
   0.0676683305419429    0.4353590239415248    0.5662140239119549 Se
   0.0650203070771941    0.6014981719537452    0.5662870213268635 Se
   0.0649722446077959    0.7690872156456133    0.5663176021523907 Se
   0.0675941454833473    0.9377968640498147    0.5663183437033145 Se
   0.2404881784258782    0.1118570673735546    0.5618173740792182 Se
   0.2529556464172257    0.2792380556833386    0.5611421035565146 Se
   0.2404481586073141    0.4341185098608424    0.5617453905146153 Se
   0.2333489562131481    0.6000760837296334    0.5645448858381645 Se
   0.2319423896434944    0.7687610506729904    0.5656841625709220 Se
   0.2333374109676808    0.9388308505042878    0.5645987065941790 Se
   0.3980497058531949    0.1084833681238173    0.5624258551731059 Se
   0.3980157089828265    0.5951085515508119    0.5624332639308003 Se
   0.3977485649762028    0.7668018255546112    0.5658315589825252 Se
   0.3977636589649075    0.9365468586376980    0.5658178650010840 Se
   0.5631484832789474    0.1025759184168780    0.5664121213264952 Se
   0.5558224235813759    0.2681009466821055    0.5629510781653870 Se
   0.5446381037666365    0.4250819113214052    0.5604412200323432 Se
   0.5558046010697371    0.5933032156152225    0.5629890832192875 Se
   0.5632161994829173    0.7662731663157279    0.5664417624915314 Se
   0.5639677111701458    0.9347744067472228    0.5672556708996294 Se
   0.7311864228815697    0.1021466061742841    0.5680921599017966 Se
   0.7288390750106046    0.2684560943927928    0.5670823127211273 Se
   0.7244227328619983    0.4326105516590856    0.5651729938224267 Se
   0.7244213607933365    0.5973696950407827    0.5652236932435738 Se
   0.7288502818802138    0.7659760445370037    0.5671283893799424 Se
   0.7312388620552147    0.9346868349173187    0.5681450980575050 Se
   0.9001858568622236    0.1029015508973269    0.5683798817373694 Se
   0.8992715880924542    0.2691884124497013    0.5678161876418065 Se
   0.8968820580642362    0.4347770572576570    0.5669795307769855 Se
   0.8954661922732368    0.6005014182597924    0.5666119872981291 Se
   0.8967975133959891    0.7675995053986674    0.5670425084774173 Se
   0.8992499674977178    0.9356518229111350    0.5679136229424456 Se
   0.0657583668039399    0.1035095301845166    0.4367013600956669 Se
   0.0658002996985536    0.2676981422998430    0.4366273514153292 Se
   0.0644088293240480    0.4342493792679797    0.4360707125666591 Se
   0.0635676498278710    0.6011792970986244    0.4361740370648118 Se
   0.0635286831699268    0.7679787123618013    0.4362058249119404 Se
   0.0643134754668703    0.9356984275573724    0.4361607815864557 Se
   0.2312301636002356    0.1027413819893542    0.4321847488821105 Se
   0.2328321333991680    0.2690978538904854    0.4309308818719126 Se
   0.2312963062460764    0.4340047561981906    0.4321060276632064 Se
   0.2307789548215415    0.6019551425939400    0.4345147177795728 Se
   0.2309229955359584    0.7682435451543898    0.4355895839415322 Se
   0.2307127562562030    0.9343498694600543    0.4345544018843943 Se
   0.3996024904452020    0.1021497292370729    0.4324420264276495 Se
   0.4001730981330988    0.2687964940463639    0.4228382862938827 Se
   0.4002007329548110    0.4369054845349605    0.4228637846348570 Se
   0.3996519237288212    0.6029929248069646    0.4324580235726641 Se
   0.3986768879162998    0.7690228714046273    0.4355000498368575 Se
   0.3986422924149271    0.9351112447839945    0.4355117110250948 Se
   0.5658052845214504    0.1017590757738497    0.4359956631841641 Se
   0.5639680505194911    0.2669809038982497    0.4330251304382787 Se
   0.5633764447292740    0.4344679186651245    0.4295597367370599 Se
   0.5640017542891298    0.6025675264199641    0.4330718836788818 Se
   0.5658058370953387    0.7695522225139171    0.4360264062010488 Se
   0.5656723427259592    0.9355824341555866    0.4369343163449811 Se
   0.7324489986369046    0.1020345544811676    0.4378025222066230 Se
   0.7315071613650004    0.2679994101408568    0.4367851266463463 Se
   0.7299824037429904    0.4341727836609668    0.4356521590185085 Se
   0.7299495009752565    0.6014117293168588    0.4356581786172563 Se
   0.7314942279900936    0.7690771721196188    0.4368453122171568 Se
   0.7324948557912707    0.9359732636502498    0.4378250839349516 Se
   0.8991471364087937    0.1023291123695917    0.4380854149527039 Se
   0.8986122882664345    0.2680541598474325    0.4377106816976341 Se
   0.8972587092861335    0.4342802670391624    0.4369843026874266 Se
   0.8966399661078043    0.6011383482686687    0.4365626743321863 Se
   0.8972149771339986    0.7685664501443662    0.4370609038060283 Se
   0.8986196141011669    0.9361255259788523    0.4377995514118787 Se
   0.4417095106845239    0.2683883204119925    0.5848753228539357 O
   0.4697176746522258    0.3115232474093077    0.6328378705522558 C
   0.5220810372520215    0.3109882115165372    0.6470358759116962 H
   0.4254050135839372    0.2129753259632495    0.5896120925159182 H
   0.4224635177820340    0.2861849183862395    0.6616450332760990 H
   0.4845065930123121    0.3719545117863891    0.6243614022130103 H
