W36 S72                                 
   1.00000000000000     
    18.9192000000000000    0.0000000000000000    0.0000000000000012
    -9.4595999999999947   16.3845078192785536    0.0000000000000012
     0.0000000000000000    0.0000000000000000   24.6460000000000008
   W    S 
    36    69
Direct
  0.1225118245236629  0.0483976031222326  0.5007050324585620
  0.1262810694706431  0.2163413512951777  0.5009307132157659
  0.1262810527035114  0.3821618537183156  0.5009306844152803
  0.1225118489454928  0.5463364533214587  0.5007050305209120
  0.1203205213395933  0.7125742038072076  0.5011434052203256
  0.1203205096299911  0.8799685109573616  0.5011434077579437
  0.2881442044339551  0.0483958205564150  0.4976245566118394
  0.2945834595038761  0.2179251066212302  0.4923825718268020
  0.2967252132806735  0.3844737207269020  0.4903798180905881
  0.2945834679462109  0.5488805682331659  0.4923825687516512
  0.2881442386747608  0.7119705951223807  0.4976245544858884
  0.2872110366400591  0.8797166104056373  0.4998157538728947
  0.4536352036983615  0.0468949064609632  0.5002561207640071
  0.4505489672668830  0.2149631294698153  0.4947687614979159
  0.4481590674839779  0.3769359591120676  0.4885733847988760
  0.4481590746671387  0.5434453273845463  0.4885733830466847
  0.4505490110710895  0.7078080818132335  0.4947687836841155
  0.4536352182441803  0.8789624964469596  0.5002561348295984
  0.6204448688888746  0.0463335579846884  0.5030777261336965
  0.6189966181321225  0.2130206383638296  0.5019996722725182
  0.6147920083052512  0.3777259270131950  0.4990994006958260
  0.6121976809326668  0.5422099442438011  0.4982464090801386
  0.6147920149811981  0.7092882869292652  0.4990994634466830
  0.6189965848362178  0.8781981871342239  0.5019997645058538
  0.7875908194981065  0.0464314441330131  0.5046466986712872
  0.7875907740172963  0.2133816754070850  0.5046466260160472
  0.7857116958087005  0.3792504864457342  0.5035158204191248
  0.7835666811086242  0.5448174201982141  0.5025928154924131
  0.7835667022284767  0.7109715173364961  0.5025928776456610
  0.7857117716459854  0.8786834182057319  0.5035159437516015
  0.9553800138134037  0.0474392746181636  0.5039869668165551
  0.9567754013959870  0.2144988191841932  0.5045664151245433
  0.9553800054624304  0.3801629764668135  0.5039869143805262
  0.9533329369016386  0.5459420036798264  0.5031682109486155
  0.9522784093372678  0.7122503086250873  0.5028843940798353
  0.9533328955106910  0.8796131258062942  0.5031682660289505
  0.0706970093576373  0.1058078820432655  0.5660331925400470
  0.0733031811936655  0.2727627070928449  0.5663932838066188
  0.0706969942569060  0.4371113530083335  0.5660332009667002
  0.0673242779232979  0.6020732942361775  0.5657196913784617
  0.0656208050346123  0.7689215010308317  0.5657264475120698
  0.0673242796408644  0.9374731912741510  0.5657196854144360
  0.2400410948249316  0.1112963302468657  0.5606784581691571
  0.2519290380466188  0.2803840513747602  0.5587028118377475
  0.2519289755878873  0.4437671826112748  0.5587027993110283
  0.2400411316927702  0.6009670005725241  0.5606784618012952
  0.2335357579340709  0.7676691043185642  0.5634218918164251
  0.2335357404304688  0.9380888244038914  0.5634218970248881
  0.3976577647454391  0.1071558708505052  0.5615714525122044
  0.3976577968513411  0.7627241053168916  0.5615714395881710
  0.3975929427656837  0.9349075609638291  0.5642647049966740
  0.5626814258635520  0.1018012429101702  0.5660514082208650
  0.5561968891567872  0.2680765685311357  0.5628267831185028
  0.5459449289820952  0.4265321575492038  0.5596527915868492
  0.5459449300347643  0.5916349736377171  0.5596527833834415
  0.5561969218745304  0.7603425131910626  0.5628268018730935
  0.5626813920076046  0.9331024510996286  0.5660514527788649
  0.7307645455777489  0.1014934699751606  0.5684008486676078
  0.7290352794605610  0.2683776519525765  0.5676317135934568
  0.7246743540280107  0.4328245785541895  0.5656678575115777
  0.7221588351982362  0.5971905255433683  0.5650062399660811
  0.7246743056216545  0.7640719646407206  0.5656679247714109
  0.7290352997731873  0.9328798746092488  0.5676317432761948
  0.9002460831886765  0.1028047282468378  0.5686062960115734
  0.9002460131808547  0.2696635637762554  0.5686062788621982
  0.8980205037308266  0.4353681919837200  0.5676362303992448
  0.8957251595831011  0.6007303378900843  0.5668568548437207
  0.8957251639593338  0.7672170105508869  0.5668568649923316
  0.8980205862876858  0.9348746078123185  0.5676363026391442
  0.0648099555388058  0.1031073553531812  0.4383977747173375
  0.0660578409698473  0.2691400307943184  0.4388917857290622
  0.0648099577099899  0.4339248326725311  0.4383977778756361
  0.0633130916599782  0.6005112080980410  0.4378731631430455
  0.0627065036566137  0.7674643556622271  0.4378869900547500
  0.0633130432584252  0.9350240774815433  0.4378731720359781
  0.2301561092147111  0.1013856626684344  0.4329789309719274
  0.2310336456058906  0.2678539289457404  0.4307898508580266
  0.2310336521140499  0.4354019437177143  0.4307898449281353
  0.2301561208458693  0.6009926695717240  0.4329789118123415
  0.2300793216795611  0.7683030437377738  0.4356470668752976
  0.2300793094367961  0.9339984662187035  0.4356470757429349
  0.3998117162158579  0.1017481928343997  0.4334596678187950
  0.4001559969502253  0.2679067656125866  0.4254981401040254
  0.4014491480643585  0.4368356778600457  0.4228806807021215
  0.4001560263232307  0.6044714538091682  0.4254981232616615
  0.3998117660465468  0.7702857437414963  0.4334596415287564
  0.3989091192828909  0.9355656578662064  0.4361246457407830
  0.5666241058298880  0.1023104356838616  0.4379191091516716
  0.5652481185274425  0.2673107503435261  0.4347497161143821
  0.5641596572376741  0.4345321216911415  0.4310672220142280
  0.5641596807433444  0.6018497477856570  0.4310672093635901
  0.5652482661365923  0.7701597451078186  0.4347497930906812
  0.5666242205049343  0.9365358431241404  0.4379191740395996
  0.7332072871712327  0.1027147275839155  0.4402823949451005
  0.7324088234827641  0.2683721126250234  0.4395874572302247
  0.7308519334819508  0.4343887993517441  0.4382243419317504
  0.7293866556891047  0.6008044599056817  0.4378078283960321
  0.7308520500249713  0.7686856016252008  0.4382244720413482
  0.7324088810569478  0.9362590306209597  0.4395875462824463
  0.8992515940210026  0.1029896646408375  0.4407109522610924
  0.8992516401205037  0.2684841691089304  0.4407109136875036
  0.8978660885651522  0.4342207802959450  0.4398453489424412
  0.8963480259352536  0.6006727729216692  0.4392116457180038
  0.8963480150083427  0.7678974635949132  0.4392116481166042
  0.8978658905427324  0.9358674640222731  0.4398454687407849
 
  0.00000000E+00  0.00000000E+00  0.00000000E+00
  0.00000000E+00  0.00000000E+00  0.00000000E+00
  0.00000000E+00  0.00000000E+00  0.00000000E+00
  0.00000000E+00  0.00000000E+00  0.00000000E+00
  0.00000000E+00  0.00000000E+00  0.00000000E+00
  0.00000000E+00  0.00000000E+00  0.00000000E+00
  0.00000000E+00  0.00000000E+00  0.00000000E+00
  0.00000000E+00  0.00000000E+00  0.00000000E+00
  0.00000000E+00  0.00000000E+00  0.00000000E+00
  0.00000000E+00  0.00000000E+00  0.00000000E+00
  0.00000000E+00  0.00000000E+00  0.00000000E+00
  0.00000000E+00  0.00000000E+00  0.00000000E+00
  0.00000000E+00  0.00000000E+00  0.00000000E+00
  0.00000000E+00  0.00000000E+00  0.00000000E+00
  0.00000000E+00  0.00000000E+00  0.00000000E+00
  0.00000000E+00  0.00000000E+00  0.00000000E+00
  0.00000000E+00  0.00000000E+00  0.00000000E+00
  0.00000000E+00  0.00000000E+00  0.00000000E+00
  0.00000000E+00  0.00000000E+00  0.00000000E+00
  0.00000000E+00  0.00000000E+00  0.00000000E+00
  0.00000000E+00  0.00000000E+00  0.00000000E+00
  0.00000000E+00  0.00000000E+00  0.00000000E+00
  0.00000000E+00  0.00000000E+00  0.00000000E+00
  0.00000000E+00  0.00000000E+00  0.00000000E+00
  0.00000000E+00  0.00000000E+00  0.00000000E+00
  0.00000000E+00  0.00000000E+00  0.00000000E+00
  0.00000000E+00  0.00000000E+00  0.00000000E+00
  0.00000000E+00  0.00000000E+00  0.00000000E+00
  0.00000000E+00  0.00000000E+00  0.00000000E+00
  0.00000000E+00  0.00000000E+00  0.00000000E+00
  0.00000000E+00  0.00000000E+00  0.00000000E+00
  0.00000000E+00  0.00000000E+00  0.00000000E+00
  0.00000000E+00  0.00000000E+00  0.00000000E+00
  0.00000000E+00  0.00000000E+00  0.00000000E+00
  0.00000000E+00  0.00000000E+00  0.00000000E+00
  0.00000000E+00  0.00000000E+00  0.00000000E+00
  0.00000000E+00  0.00000000E+00  0.00000000E+00
  0.00000000E+00  0.00000000E+00  0.00000000E+00
  0.00000000E+00  0.00000000E+00  0.00000000E+00
  0.00000000E+00  0.00000000E+00  0.00000000E+00
  0.00000000E+00  0.00000000E+00  0.00000000E+00
  0.00000000E+00  0.00000000E+00  0.00000000E+00
  0.00000000E+00  0.00000000E+00  0.00000000E+00
  0.00000000E+00  0.00000000E+00  0.00000000E+00
  0.00000000E+00  0.00000000E+00  0.00000000E+00
  0.00000000E+00  0.00000000E+00  0.00000000E+00
  0.00000000E+00  0.00000000E+00  0.00000000E+00
  0.00000000E+00  0.00000000E+00  0.00000000E+00
  0.00000000E+00  0.00000000E+00  0.00000000E+00
  0.00000000E+00  0.00000000E+00  0.00000000E+00
  0.00000000E+00  0.00000000E+00  0.00000000E+00
  0.00000000E+00  0.00000000E+00  0.00000000E+00
  0.00000000E+00  0.00000000E+00  0.00000000E+00
  0.00000000E+00  0.00000000E+00  0.00000000E+00
  0.00000000E+00  0.00000000E+00  0.00000000E+00
  0.00000000E+00  0.00000000E+00  0.00000000E+00
  0.00000000E+00  0.00000000E+00  0.00000000E+00
  0.00000000E+00  0.00000000E+00  0.00000000E+00
  0.00000000E+00  0.00000000E+00  0.00000000E+00
  0.00000000E+00  0.00000000E+00  0.00000000E+00
  0.00000000E+00  0.00000000E+00  0.00000000E+00
  0.00000000E+00  0.00000000E+00  0.00000000E+00
  0.00000000E+00  0.00000000E+00  0.00000000E+00
  0.00000000E+00  0.00000000E+00  0.00000000E+00
  0.00000000E+00  0.00000000E+00  0.00000000E+00
  0.00000000E+00  0.00000000E+00  0.00000000E+00
  0.00000000E+00  0.00000000E+00  0.00000000E+00
  0.00000000E+00  0.00000000E+00  0.00000000E+00
  0.00000000E+00  0.00000000E+00  0.00000000E+00
  0.00000000E+00  0.00000000E+00  0.00000000E+00
  0.00000000E+00  0.00000000E+00  0.00000000E+00
  0.00000000E+00  0.00000000E+00  0.00000000E+00
  0.00000000E+00  0.00000000E+00  0.00000000E+00
  0.00000000E+00  0.00000000E+00  0.00000000E+00
  0.00000000E+00  0.00000000E+00  0.00000000E+00
  0.00000000E+00  0.00000000E+00  0.00000000E+00
  0.00000000E+00  0.00000000E+00  0.00000000E+00
  0.00000000E+00  0.00000000E+00  0.00000000E+00
  0.00000000E+00  0.00000000E+00  0.00000000E+00
  0.00000000E+00  0.00000000E+00  0.00000000E+00
  0.00000000E+00  0.00000000E+00  0.00000000E+00
  0.00000000E+00  0.00000000E+00  0.00000000E+00
  0.00000000E+00  0.00000000E+00  0.00000000E+00
  0.00000000E+00  0.00000000E+00  0.00000000E+00
  0.00000000E+00  0.00000000E+00  0.00000000E+00
  0.00000000E+00  0.00000000E+00  0.00000000E+00
  0.00000000E+00  0.00000000E+00  0.00000000E+00
  0.00000000E+00  0.00000000E+00  0.00000000E+00
  0.00000000E+00  0.00000000E+00  0.00000000E+00
  0.00000000E+00  0.00000000E+00  0.00000000E+00
  0.00000000E+00  0.00000000E+00  0.00000000E+00
  0.00000000E+00  0.00000000E+00  0.00000000E+00
  0.00000000E+00  0.00000000E+00  0.00000000E+00
  0.00000000E+00  0.00000000E+00  0.00000000E+00
  0.00000000E+00  0.00000000E+00  0.00000000E+00
  0.00000000E+00  0.00000000E+00  0.00000000E+00
  0.00000000E+00  0.00000000E+00  0.00000000E+00
  0.00000000E+00  0.00000000E+00  0.00000000E+00
  0.00000000E+00  0.00000000E+00  0.00000000E+00
  0.00000000E+00  0.00000000E+00  0.00000000E+00
  0.00000000E+00  0.00000000E+00  0.00000000E+00
  0.00000000E+00  0.00000000E+00  0.00000000E+00
  0.00000000E+00  0.00000000E+00  0.00000000E+00
  0.00000000E+00  0.00000000E+00  0.00000000E+00
  0.00000000E+00  0.00000000E+00  0.00000000E+00
