H4 W48 Se98 C1 O1                       
   1.00000000000000     
    33.0000000000000000    0.0000000000000000    0.0000000000000000
     0.0000000000000000   26.2560005200000006    0.0000000000000000
     0.0000000000000000    0.0000000000000000   18.1299999999999990
   W    Se   O    C    H 
    48    98     1     1     4
Direct
  0.2803552717465435  0.0436690555443383  0.5014923121000585
  0.2859296925856303  0.2773669265994724  0.5010129715724295
  0.2807023883027918  0.5430828211271179  0.5009204630960608
  0.2859539869362536  0.7768233252777650  0.5010789252995951
  0.4539567655263387  0.0348436579600319  0.4991032675439847
  0.4548692511722177  0.2850707973438874  0.4991801352891735
  0.4543898808378898  0.5345019004006880  0.4995033343067449
  0.4545735612376093  0.7851690833883416  0.4992042354265588
  0.6276300296663130  0.0344352206208507  0.4972944256004318
  0.6271803468787245  0.2835777843858586  0.4972080946772012
  0.6298217418275595  0.5327874789222969  0.4979826445225122
  0.6268102446757308  0.7851269587270293  0.4976618137407407
  0.2857739911546619  0.1673906826963493  0.5012266401044123
  0.2806231568760494  0.4011538280028032  0.5009330957728941
  0.2860806686487601  0.6668634119845901  0.5009149130525798
  0.2804610717070820  0.9004817975162652  0.5013410323184089
  0.4543651289184888  0.1591174188277278  0.4990718488867529
  0.4543639812865138  0.4098054093525474  0.4993729939943807
  0.4550546365458160  0.6592014938856720  0.4993966678846053
  0.4540405011645057  0.9094863657119689  0.4991425352025258
  0.6265946367091806  0.1593734027463866  0.4972626621587221
  0.6304675982087026  0.4123758737933747  0.4968849113412236
  0.6275327278639002  0.6605164759568616  0.4978317954783369
  0.6276804149380677  0.9101495249463007  0.4974401915820383
  0.3684950017128920  0.2222926647336911  0.5001745085554485
  0.3668757075326969  0.4721460667661455  0.5002611758110889
  0.3686834232931570  0.7219886406460608  0.5001677459799763
  0.3663629387519931  0.9721282036810606  0.5003767617153148
  0.5404283102267213  0.2220216103062668  0.4980834029157926
  0.5424299600472221  0.4721337342679744  0.4984928828999521
  0.5406911331056383  0.7222491129566790  0.4984469714923000
  0.5403516108781590  0.9722177751818766  0.4980983010608073
  0.7141141994396151  0.2310388245768766  0.4964317503255551
  0.7069836370533947  0.4696361958758892  0.4962176509204513
  0.7142172931975024  0.7140761775816971  0.4972197039552986
  0.7148477769117872  0.9724059020296959  0.4967742283339535
  0.3681815739694080  0.0976275146923760  0.5002739443530366
  0.3685327101245903  0.3467322962061206  0.5001455218257597
  0.3686899427515307  0.5975932547676055  0.5002322229201822
  0.3683214257375653  0.8466289780982120  0.5002051369419848
  0.5411571429059367  0.0966269822977223  0.4980232839050674
  0.5405048683666255  0.3471775116657059  0.4982405012175417
  0.5409420785830400  0.5970700612840903  0.4986961828415410
  0.5412758540310333  0.8477633951282816  0.4982475201235819
  0.7159336026830514  0.0888635303286629  0.4965524113351165
  0.7061243211071817  0.3405601848392355  0.4961446525188843
  0.7080652393284802  0.6053238650102607  0.4972800958202256
  0.7159131159377892  0.8559351307363675  0.4970436008293536
  0.2526249608669810  0.1041285558254669  0.5923108149012136
  0.2528602967743855  0.3407844482272364  0.5918760076611306
  0.2529293221490005  0.6035203413661752  0.5917750020533207
  0.2527706461890235  0.8399952237826276  0.5921801019598847
  0.4256747998368718  0.0969564136876035  0.5931751619384027
  0.4260269793145014  0.3473699342766749  0.5930765087584641
  0.4261339329799383  0.5969359399186582  0.5932623072282986
  0.4257834837006899  0.8473599416496206  0.5931665032697205
  0.5991185653132677  0.0968984941279438  0.5909246355034125
  0.5992663573861451  0.3486421897260809  0.5885370146633808
  0.5993943625002974  0.5959667044580366  0.5899089326877995
  0.5992054192457203  0.8476954000992747  0.5911441310341998
  0.4265680465821171  0.2221812573330705  0.5925556455222905
  0.4251243310724470  0.4720959185779340  0.5925266904237231
  0.4267178834022028  0.7221204304699295  0.5926583219534431
  0.4248408390510598  0.9721471791777343  0.5920767370132021
  0.5979822888717804  0.2213923350532729  0.5907853519365418
  0.6002704858932647  0.4722624612354133  0.5923285290194256
  0.5982546854278094  0.7229819563063521  0.5911040996698221
  0.5983026199825956  0.9723217775020130  0.5903493414833080
  0.3372740984671553  0.0347964888346346  0.5934671304775692
  0.3401944709918908  0.2840941563751714  0.5958539252777071
  0.3376005054691546  0.5347809914123893  0.5930941171378276
  0.3402251252583109  0.7837642697619553  0.5958487171767757
  0.5119584976269644  0.0346414574537687  0.5915997306570294
  0.5125180398883922  0.2846059600004456  0.5921215993055350
  0.5125985929589856  0.5341961420262985  0.5917014480439980
  0.5124106679097780  0.7852740175893133  0.5915666697726829
  0.6856983671147704  0.0335279820088273  0.5931362845236665
  0.6821781234937765  0.2818665733698229  0.5968416061218306
  0.6903853502000112  0.5372498067541994  0.5915151338156740
  0.6878004657913552  0.7853773442164657  0.5852255650542660
  0.3400726690132070  0.1605021949886388  0.5959238937621988
  0.3375101740684872  0.4095571923326812  0.5931076918099870
  0.3403043510526638  0.6602374401671810  0.5958487321852268
  0.3373377338400666  0.9093994819009060  0.5933909378904948
  0.5122243305419030  0.1590606520615197  0.5913620566106108
  0.5125602234983371  0.4099662858468690  0.5916239715738918
  0.5126912110132332  0.6596231276494595  0.5923723725847209
  0.5120158962020210  0.9098418419839337  0.5917176224788876
  0.6878409075660619  0.1594879987683100  0.5844301554261729
  0.6896877957696322  0.4064777075415568  0.5941167478649093
  0.6825163435455339  0.6624740091274228  0.5974912687675247
  0.6856921353624412  0.9114426013428977  0.5933838350106309
  0.2519995107675044  0.1038745959637475  0.4110675099553122
  0.2523218941671439  0.3408328477477563  0.4105922153268605
  0.2524688472531783  0.6033497753535056  0.4104718689849319
  0.2521469938700537  0.8403046761700549  0.4108609927101491
  0.4249086764047406  0.0969378385258699  0.4057850360045041
  0.4254626510623997  0.3474810076373969  0.4060656489465566
  0.4256465993440127  0.5968900891780464  0.4062067973028624
  0.4251089795865231  0.8473192278158747  0.4058367462806197
  0.5986031985558001  0.0968525648618994  0.4040969360831433
  0.5985356539250394  0.3486263053399546  0.4063311317733367
  0.5988419076002753  0.5959852573313367  0.4064697780412549
  0.5987390799544589  0.8475325176842006  0.4043849904662505
  0.2262574319455153  0.2225557925350074  0.5012171976480293
  0.2325019468631912  0.4721436694472184  0.5009922793491077
  0.2264363143537509  0.7216997682625313  0.5008135248269205
  0.2328279337533886  0.9720138223978981  0.5014282438597120
  0.4258798609886474  0.2222372740484390  0.4064156249066589
  0.4246074724730007  0.4721679953530885  0.4069432853792604
  0.4261440793495093  0.7220352858041654  0.4065295499445044
  0.4240829556985479  0.9721325226472489  0.4070387799735890
  0.5974078895663200  0.2213642355781825  0.4042860540278974
  0.5995923169810193  0.4725781358398999  0.4033162263938526
  0.5978135673938600  0.7228423005300654  0.4048852536548717
  0.5978190918619282  0.9722176953205199  0.4048699572566958
  0.3364896086143233  0.0347280554697868  0.4080829597756587
  0.3395546296158988  0.2840790690793439  0.4050569132862403
  0.3371389209328747  0.5347581786824601  0.4078980733099262
  0.3395264239552191  0.7838006427084186  0.4051596597179331
  0.5112947014162925  0.0345757712457549  0.4051438122697382
  0.5118346383645427  0.2847305786896456  0.4048473550833399
  0.5120007786999374  0.5343037814691648  0.4061355678705587
  0.5118632059074834  0.7851330208717276  0.4056297858772404
  0.6852814201040597  0.0333613765416536  0.4005817089688276
  0.6815644451169350  0.2816116916455592  0.3965349566359687
  0.6895650991770939  0.5371770759366250  0.4027805295225561
  0.6874999893041466  0.7852744631697287  0.4093370346517542
  0.3393308987745920  0.1604423283634298  0.4052680129920431
  0.3370041029482719  0.4096214769413529  0.4078300606296438
  0.3397567650060922  0.6601936131370693  0.4050714044082361
  0.3366178571088892  0.9095183765734486  0.4079642759135398
  0.5115819400799062  0.1590892665568205  0.4053573036220000
  0.5119265371057399  0.4101429374310444  0.4058609202208541
  0.5121476608423522  0.6594651686022498  0.4053063644437867
  0.5113996057955311  0.9097074294679613  0.4052498694361705
  0.6873597810579588  0.1593911831508960  0.4090321807852740
  0.6889964277408791  0.4057490866029658  0.3982799017337039
  0.6820951458135139  0.6624345521863229  0.3972565458575029
  0.6853392944373378  0.9112282665883792  0.4007731369929692
  0.7752841623151202  0.9111508272699866  0.4966187347687046
  0.7688512903880632  0.7822024002316741  0.4971136301798327
  0.7728323093966115  0.6478933397506312  0.4972508274597671
  0.7718770127365672  0.2987865020315477  0.4959993404838043
  0.7688189025999327  0.1629060284379481  0.4958796573908295
  0.7753154815630321  0.0336574869827407  0.4963382682621907
  0.7722640657565223  0.4569053411032640  0.4901739086847983
  0.8005439044099021  0.4711763710756446  0.5488860090436777
  0.8315541893670657  0.4680648245803911  0.5276081589940576
  0.7959547384720664  0.4464356279086135  0.5969650709150756
  0.7771915897137771  0.4215631880287137  0.4745539492069245
  0.7935527908196699  0.5108116272798173  0.5626338249162005
 
  0.00000000E+00  0.00000000E+00  0.00000000E+00
  0.00000000E+00  0.00000000E+00  0.00000000E+00
  0.00000000E+00  0.00000000E+00  0.00000000E+00
  0.00000000E+00  0.00000000E+00  0.00000000E+00
  0.00000000E+00  0.00000000E+00  0.00000000E+00
  0.00000000E+00  0.00000000E+00  0.00000000E+00
  0.00000000E+00  0.00000000E+00  0.00000000E+00
  0.00000000E+00  0.00000000E+00  0.00000000E+00
  0.00000000E+00  0.00000000E+00  0.00000000E+00
  0.00000000E+00  0.00000000E+00  0.00000000E+00
  0.00000000E+00  0.00000000E+00  0.00000000E+00
  0.00000000E+00  0.00000000E+00  0.00000000E+00
  0.00000000E+00  0.00000000E+00  0.00000000E+00
  0.00000000E+00  0.00000000E+00  0.00000000E+00
  0.00000000E+00  0.00000000E+00  0.00000000E+00
  0.00000000E+00  0.00000000E+00  0.00000000E+00
  0.00000000E+00  0.00000000E+00  0.00000000E+00
  0.00000000E+00  0.00000000E+00  0.00000000E+00
  0.00000000E+00  0.00000000E+00  0.00000000E+00
  0.00000000E+00  0.00000000E+00  0.00000000E+00
  0.00000000E+00  0.00000000E+00  0.00000000E+00
  0.00000000E+00  0.00000000E+00  0.00000000E+00
  0.00000000E+00  0.00000000E+00  0.00000000E+00
  0.00000000E+00  0.00000000E+00  0.00000000E+00
  0.00000000E+00  0.00000000E+00  0.00000000E+00
  0.00000000E+00  0.00000000E+00  0.00000000E+00
  0.00000000E+00  0.00000000E+00  0.00000000E+00
  0.00000000E+00  0.00000000E+00  0.00000000E+00
  0.00000000E+00  0.00000000E+00  0.00000000E+00
  0.00000000E+00  0.00000000E+00  0.00000000E+00
  0.00000000E+00  0.00000000E+00  0.00000000E+00
  0.00000000E+00  0.00000000E+00  0.00000000E+00
  0.00000000E+00  0.00000000E+00  0.00000000E+00
  0.00000000E+00  0.00000000E+00  0.00000000E+00
  0.00000000E+00  0.00000000E+00  0.00000000E+00
  0.00000000E+00  0.00000000E+00  0.00000000E+00
  0.00000000E+00  0.00000000E+00  0.00000000E+00
  0.00000000E+00  0.00000000E+00  0.00000000E+00
  0.00000000E+00  0.00000000E+00  0.00000000E+00
  0.00000000E+00  0.00000000E+00  0.00000000E+00
  0.00000000E+00  0.00000000E+00  0.00000000E+00
  0.00000000E+00  0.00000000E+00  0.00000000E+00
  0.00000000E+00  0.00000000E+00  0.00000000E+00
  0.00000000E+00  0.00000000E+00  0.00000000E+00
  0.00000000E+00  0.00000000E+00  0.00000000E+00
  0.00000000E+00  0.00000000E+00  0.00000000E+00
  0.00000000E+00  0.00000000E+00  0.00000000E+00
  0.00000000E+00  0.00000000E+00  0.00000000E+00
  0.00000000E+00  0.00000000E+00  0.00000000E+00
  0.00000000E+00  0.00000000E+00  0.00000000E+00
  0.00000000E+00  0.00000000E+00  0.00000000E+00
  0.00000000E+00  0.00000000E+00  0.00000000E+00
  0.00000000E+00  0.00000000E+00  0.00000000E+00
  0.00000000E+00  0.00000000E+00  0.00000000E+00
  0.00000000E+00  0.00000000E+00  0.00000000E+00
  0.00000000E+00  0.00000000E+00  0.00000000E+00
  0.00000000E+00  0.00000000E+00  0.00000000E+00
  0.00000000E+00  0.00000000E+00  0.00000000E+00
  0.00000000E+00  0.00000000E+00  0.00000000E+00
  0.00000000E+00  0.00000000E+00  0.00000000E+00
  0.00000000E+00  0.00000000E+00  0.00000000E+00
  0.00000000E+00  0.00000000E+00  0.00000000E+00
  0.00000000E+00  0.00000000E+00  0.00000000E+00
  0.00000000E+00  0.00000000E+00  0.00000000E+00
  0.00000000E+00  0.00000000E+00  0.00000000E+00
  0.00000000E+00  0.00000000E+00  0.00000000E+00
  0.00000000E+00  0.00000000E+00  0.00000000E+00
  0.00000000E+00  0.00000000E+00  0.00000000E+00
  0.00000000E+00  0.00000000E+00  0.00000000E+00
  0.00000000E+00  0.00000000E+00  0.00000000E+00
  0.00000000E+00  0.00000000E+00  0.00000000E+00
  0.00000000E+00  0.00000000E+00  0.00000000E+00
  0.00000000E+00  0.00000000E+00  0.00000000E+00
  0.00000000E+00  0.00000000E+00  0.00000000E+00
  0.00000000E+00  0.00000000E+00  0.00000000E+00
  0.00000000E+00  0.00000000E+00  0.00000000E+00
  0.00000000E+00  0.00000000E+00  0.00000000E+00
  0.00000000E+00  0.00000000E+00  0.00000000E+00
  0.00000000E+00  0.00000000E+00  0.00000000E+00
  0.00000000E+00  0.00000000E+00  0.00000000E+00
  0.00000000E+00  0.00000000E+00  0.00000000E+00
  0.00000000E+00  0.00000000E+00  0.00000000E+00
  0.00000000E+00  0.00000000E+00  0.00000000E+00
  0.00000000E+00  0.00000000E+00  0.00000000E+00
  0.00000000E+00  0.00000000E+00  0.00000000E+00
  0.00000000E+00  0.00000000E+00  0.00000000E+00
  0.00000000E+00  0.00000000E+00  0.00000000E+00
  0.00000000E+00  0.00000000E+00  0.00000000E+00
  0.00000000E+00  0.00000000E+00  0.00000000E+00
  0.00000000E+00  0.00000000E+00  0.00000000E+00
  0.00000000E+00  0.00000000E+00  0.00000000E+00
  0.00000000E+00  0.00000000E+00  0.00000000E+00
  0.00000000E+00  0.00000000E+00  0.00000000E+00
  0.00000000E+00  0.00000000E+00  0.00000000E+00
  0.00000000E+00  0.00000000E+00  0.00000000E+00
  0.00000000E+00  0.00000000E+00  0.00000000E+00
  0.00000000E+00  0.00000000E+00  0.00000000E+00
  0.00000000E+00  0.00000000E+00  0.00000000E+00
  0.00000000E+00  0.00000000E+00  0.00000000E+00
  0.00000000E+00  0.00000000E+00  0.00000000E+00
  0.00000000E+00  0.00000000E+00  0.00000000E+00
  0.00000000E+00  0.00000000E+00  0.00000000E+00
  0.00000000E+00  0.00000000E+00  0.00000000E+00
  0.00000000E+00  0.00000000E+00  0.00000000E+00
  0.00000000E+00  0.00000000E+00  0.00000000E+00
  0.00000000E+00  0.00000000E+00  0.00000000E+00
  0.00000000E+00  0.00000000E+00  0.00000000E+00
  0.00000000E+00  0.00000000E+00  0.00000000E+00
  0.00000000E+00  0.00000000E+00  0.00000000E+00
  0.00000000E+00  0.00000000E+00  0.00000000E+00
  0.00000000E+00  0.00000000E+00  0.00000000E+00
  0.00000000E+00  0.00000000E+00  0.00000000E+00
  0.00000000E+00  0.00000000E+00  0.00000000E+00
  0.00000000E+00  0.00000000E+00  0.00000000E+00
  0.00000000E+00  0.00000000E+00  0.00000000E+00
  0.00000000E+00  0.00000000E+00  0.00000000E+00
  0.00000000E+00  0.00000000E+00  0.00000000E+00
  0.00000000E+00  0.00000000E+00  0.00000000E+00
  0.00000000E+00  0.00000000E+00  0.00000000E+00
  0.00000000E+00  0.00000000E+00  0.00000000E+00
  0.00000000E+00  0.00000000E+00  0.00000000E+00
  0.00000000E+00  0.00000000E+00  0.00000000E+00
  0.00000000E+00  0.00000000E+00  0.00000000E+00
  0.00000000E+00  0.00000000E+00  0.00000000E+00
  0.00000000E+00  0.00000000E+00  0.00000000E+00
  0.00000000E+00  0.00000000E+00  0.00000000E+00
  0.00000000E+00  0.00000000E+00  0.00000000E+00
  0.00000000E+00  0.00000000E+00  0.00000000E+00
  0.00000000E+00  0.00000000E+00  0.00000000E+00
  0.00000000E+00  0.00000000E+00  0.00000000E+00
  0.00000000E+00  0.00000000E+00  0.00000000E+00
  0.00000000E+00  0.00000000E+00  0.00000000E+00
  0.00000000E+00  0.00000000E+00  0.00000000E+00
  0.00000000E+00  0.00000000E+00  0.00000000E+00
  0.00000000E+00  0.00000000E+00  0.00000000E+00
  0.00000000E+00  0.00000000E+00  0.00000000E+00
  0.00000000E+00  0.00000000E+00  0.00000000E+00
  0.00000000E+00  0.00000000E+00  0.00000000E+00
  0.00000000E+00  0.00000000E+00  0.00000000E+00
  0.00000000E+00  0.00000000E+00  0.00000000E+00
  0.00000000E+00  0.00000000E+00  0.00000000E+00
  0.00000000E+00  0.00000000E+00  0.00000000E+00
  0.00000000E+00  0.00000000E+00  0.00000000E+00
  0.00000000E+00  0.00000000E+00  0.00000000E+00
  0.00000000E+00  0.00000000E+00  0.00000000E+00
  0.00000000E+00  0.00000000E+00  0.00000000E+00
  0.00000000E+00  0.00000000E+00  0.00000000E+00
  0.00000000E+00  0.00000000E+00  0.00000000E+00
  0.00000000E+00  0.00000000E+00  0.00000000E+00
  0.00000000E+00  0.00000000E+00  0.00000000E+00
  0.00000000E+00  0.00000000E+00  0.00000000E+00
  0.00000000E+00  0.00000000E+00  0.00000000E+00
