Mo48 H4 Se97 C1 O1                      
   1.00000000000000     
    33.0000000000000000    0.0000000000000000    0.0000000000000000
     0.0000000000000000   26.3120002699999986    0.0000000000000000
     0.0000000000000000    0.0000000000000000   18.0970000000000013
   Mo   Se   O    C    H 
    48    97     1     1     4
Direct
  0.2873055519963265  0.0263814127236238  0.4975843879243066
  0.2858605961761937  0.3071335454736007  0.4953473602508105
  0.2895633262783992  0.5507173286880620  0.4979040714339864
  0.2847974625955744  0.7862642135749952  0.4925744883691593
  0.4540964305814819  0.0370088800548121  0.4995502746309167
  0.4523380160033601  0.2867125569420558  0.4994154559613603
  0.4546466844329174  0.5361802688959817  0.4985454621129139
  0.4544657936730819  0.7861793217106675  0.4979980195613221
  0.6264155912089135  0.0380463496973864  0.5008443502987959
  0.6256235564784676  0.2865059054528435  0.5009399143855253
  0.6268355709353890  0.5352012409679582  0.5002414374920248
  0.6271722325469591  0.7865692260712651  0.5002143500524404
  0.2826703833572958  0.1592572656782401  0.4980310919737570
  0.2886116816029383  0.4003970251866399  0.4966716271730082
  0.2888267752803471  0.6444158666750769  0.4954827086763388
  0.2879351394047439  0.9191308189128574  0.4966814339663600
  0.4525735219002411  0.1618439465502945  0.4996836809091258
  0.4537691106809063  0.4114839332814380  0.4990695337733024
  0.4546980099673738  0.6610389053261483  0.4979568945100951
  0.4549478132172568  0.9114220252095703  0.4989243700041193
  0.6258677020428837  0.1630292153263412  0.5010301963593777
  0.6262330568089419  0.4100523932647286  0.5005562620344068
  0.6275450141096812  0.6608001782115498  0.5001190116961994
  0.6272752885976923  0.9123953391088122  0.5005136317821887
  0.3643899937984679  0.2240792279863225  0.4986477159745205
  0.3676660377229021  0.4743778156055657  0.4983206164001711
  0.3666686398130988  0.7231571326992418  0.4957627665977102
  0.3687293522955534  0.9735975983608759  0.4984737135073461
  0.5388000705165905  0.2243771126640595  0.5003515619654754
  0.5409860712694541  0.4731083183868486  0.4996439333182179
  0.5412362450597673  0.7237208668554134  0.4991187283786835
  0.5408509826946619  0.9746178091475095  0.5000547753339517
  0.7132383575341953  0.2282984243056206  0.5015327358868787
  0.7147056172600834  0.4625367497825187  0.5010315936334949
  0.7144932724791327  0.7153884861033796  0.5010216964346019
  0.7140497569514628  0.9670057768600246  0.5013866278217890
  0.3671991169556155  0.0983547725594406  0.4986261856829917
  0.3683388341524174  0.3502787024226610  0.4979676021321139
  0.3698361260774213  0.5985756941354285  0.4974045394254260
  0.3687150300511299  0.8490354555682853  0.4971837905187613
  0.5402670560178147  0.1001356376644762  0.5003389969023091
  0.5391444151572945  0.3485212665309018  0.5000397921738994
  0.5412212380102568  0.5985669588025169  0.4992226025756017
  0.5411798433748926  0.8492074248306319  0.4995009088920970
  0.7143591717899996  0.1105113341279443  0.5015420888539999
  0.7133872265568669  0.3446468398448437  0.5012781822668755
  0.7143761681180574  0.6061980847649792  0.5009484100339859
  0.7143472524231007  0.8578895694426796  0.5011558971669873
  0.2497523640129220  0.0931054487389043  0.5768138279416766
  0.2233235095604179  0.3586487794571225  0.4873935440762978
  0.2251750220552230  0.5937331513774261  0.4966136081717955
  0.2494170362400872  0.8502846808534185  0.5711197323111075
  0.4243538082289944  0.0990731160573624  0.5922340257311963
  0.4247977861646351  0.3493692555013780  0.5922928089211075
  0.4266638595041881  0.5990637599387597  0.5912932505214857
  0.4258510383522353  0.8484559858321103  0.5908637450310846
  0.5978034333741784  0.0999017599413842  0.5936910102620147
  0.5963426312589870  0.3487209530813724  0.5931127375587052
  0.5986133445342487  0.5981906842191899  0.5924388764771340
  0.5986721105093252  0.8489910595577754  0.5925893657956314
  0.4222459638993730  0.2242456375307665  0.5913143328311981
  0.4251435476573324  0.4742926884362010  0.5913225250357669
  0.4244346679114431  0.7236345765634590  0.5892139569066689
  0.4261402718142755  0.9737036706370011  0.5918963533070739
  0.5960888544332442  0.2245251974134410  0.5934200256417953
  0.5983609365582369  0.4733564270705888  0.5931806281920565
  0.5986889078162461  0.7239446187497068  0.5922945889377770
  0.5983377046231725  0.9750082517239108  0.5930102097239434
  0.3389699674514441  0.0349204641142465  0.5939793753014513
  0.3346718491393897  0.2890548668929147  0.5931549900783172
  0.3391985524739829  0.5374471590332058  0.5952180406047543
  0.3378661745267910  0.7857262314654437  0.5890010878522451
  0.5116322935020490  0.0371262454981913  0.5924064141847253
  0.5097075744054762  0.2864872675871497  0.5927400362374909
  0.5121762965170384  0.5361408053373459  0.5914943326834453
  0.5119660877831360  0.7862335946185556  0.5912078555664304
  0.6870569074739132  0.0386677631069478  0.5888549442455416
  0.6836769476832854  0.2865893552460775  0.5971297563355569
  0.6874557851615463  0.5344825256299310  0.5883096759179017
  0.6875856352139631  0.7865756878195908  0.5887116041519037
  0.3363142914612217  0.1611090128433664  0.5924316861499890
  0.3383396746654365  0.4122509358044152  0.5951594012086716
  0.3376029970381631  0.6603096858182091  0.5929387184529480
  0.3395905488476716  0.9111163683446932  0.5931765334765221
  0.5101166043577398  0.1618369032115884  0.5927926927266057
  0.5110847447435896  0.4115433521032886  0.5923385396272448
  0.5122183088309806  0.6613709030424202  0.5913491670143561
  0.5123329758647542  0.9114485095967860  0.5922023765072914
  0.6836420175881949  0.1652719323705195  0.5971375151186262
  0.6839776506686697  0.4078219521039799  0.5967361079157688
  0.6837277483239923  0.6607164005415957  0.5987753632524963
  0.6834845992592837  0.9123255827041366  0.5990341597738721
  0.2494600531613035  0.0933254374788383  0.4191024484374562
  0.2528405041406387  0.8532305803669606  0.4133995211684404
  0.4249899902799475  0.0991576175200610  0.4064635285928275
  0.4255667548656863  0.3492371787231096  0.4054224673849101
  0.4272002525452588  0.5985581826744036  0.4045736684312347
  0.4266989417651913  0.8490632531706128  0.4051874806929590
  0.5982174171822411  0.1000078783372610  0.4077646584259223
  0.5967951932317848  0.3484541401357751  0.4079177116384946
  0.5992325957214225  0.5980990611028836  0.4072713599129101
  0.5992414077403116  0.8492265644432458  0.4075952920974956
  0.2380566623480327  0.2292076584664865  0.5059646099238629
  0.2408788651092742  0.7181707014644526  0.4624270541670470
  0.2279935957060172  0.9722285735225682  0.4980304711820758
  0.4228574846596556  0.2240225513887626  0.4072622889206700
  0.4254960663248998  0.4739621304064225  0.4060072971903066
  0.4256871822091394  0.7235697264196760  0.4051699944517898
  0.4266750688009254  0.9741568707886323  0.4062004457266771
  0.5965032428680598  0.2244649860113838  0.4082672208391788
  0.5988439717614092  0.4731089594685783  0.4071274684161911
  0.5993522923410572  0.7240071588181974  0.4073439538555373
  0.5987792519757172  0.9752567460508321  0.4079412884538350
  0.3396578689501201  0.0351516010056719  0.4025131335957307
  0.3364568759394133  0.2887211095398034  0.4016339059678695
  0.3388347349872942  0.5365604373437814  0.4010320839849182
  0.3398929263879359  0.7865061373379227  0.4013454270909505
  0.5121012455721412  0.0373341682815162  0.4076087858622717
  0.5101735363790401  0.2862687990912354  0.4071594252824725
  0.5127768880897775  0.5358499817927674  0.4067062163654080
  0.5128017137513653  0.7864940201465511  0.4065110531430072
  0.6874567475457267  0.0387272193720038  0.4137209976259912
  0.6840372182209431  0.2864448232453902  0.4053954014195236
  0.6878594871712892  0.5343846376916408  0.4131855912209768
  0.6880995674857260  0.7866574148848413  0.4128858675988599
  0.3368414058050798  0.1609786291081726  0.4044776108140006
  0.3386955085359720  0.4124524976958188  0.4008195446906851
  0.3387858132090206  0.6589506188546661  0.3993421214542788
  0.3406392654094620  0.9122396678249985  0.4016321059069010
  0.5105542939143317  0.1618140445009985  0.4074857749577284
  0.5116234174525512  0.4112791501758317  0.4068404005698124
  0.5129705775661506  0.6612679789789768  0.4062062938606604
  0.5129153509117707  0.9118655534452967  0.4068485242740635
  0.6839871216935886  0.1652954149483385  0.4056528827174153
  0.7749985920564364  0.9136595958739024  0.5018754982344841
  0.7673968935435026  0.7867381200197607  0.5018102878917698
  0.7752276879080079  0.6597821131183439  0.5014386818459026
  0.7670873483490083  0.5331762028425279  0.5012784595549752
  0.7735330238800302  0.4063839065926830  0.5007591140929060
  0.7729658721416354  0.2864371414010264  0.5022048422150498
  0.7732768369969255  0.1665513776339068  0.5014335473046488
  0.7667451044343263  0.0399639403565240  0.5018648809846104
  0.6843305370081467  0.4076646318649724  0.4051706903698380
  0.6843399749486194  0.6607481817129685  0.4025842615210660
  0.6840181458899476  0.9125512964218986  0.4029011603479242
  0.2532576078651537  0.4741413957927516  0.5507929250629641
  0.2100659711599713  0.4745358568202009  0.5711013838570390
  0.2031171627552606  0.4399088787930456  0.6023071925586885
  0.2036482867798787  0.5090784538408234  0.6029210590095903
  0.2693659372959334  0.4749936532146840  0.5964053432667962
  0.1932095443678360  0.4749706733065345  0.5191178358272408
 
  0.00000000E+00  0.00000000E+00  0.00000000E+00
  0.00000000E+00  0.00000000E+00  0.00000000E+00
  0.00000000E+00  0.00000000E+00  0.00000000E+00
  0.00000000E+00  0.00000000E+00  0.00000000E+00
  0.00000000E+00  0.00000000E+00  0.00000000E+00
  0.00000000E+00  0.00000000E+00  0.00000000E+00
  0.00000000E+00  0.00000000E+00  0.00000000E+00
  0.00000000E+00  0.00000000E+00  0.00000000E+00
  0.00000000E+00  0.00000000E+00  0.00000000E+00
  0.00000000E+00  0.00000000E+00  0.00000000E+00
  0.00000000E+00  0.00000000E+00  0.00000000E+00
  0.00000000E+00  0.00000000E+00  0.00000000E+00
  0.00000000E+00  0.00000000E+00  0.00000000E+00
  0.00000000E+00  0.00000000E+00  0.00000000E+00
  0.00000000E+00  0.00000000E+00  0.00000000E+00
  0.00000000E+00  0.00000000E+00  0.00000000E+00
  0.00000000E+00  0.00000000E+00  0.00000000E+00
  0.00000000E+00  0.00000000E+00  0.00000000E+00
  0.00000000E+00  0.00000000E+00  0.00000000E+00
  0.00000000E+00  0.00000000E+00  0.00000000E+00
  0.00000000E+00  0.00000000E+00  0.00000000E+00
  0.00000000E+00  0.00000000E+00  0.00000000E+00
  0.00000000E+00  0.00000000E+00  0.00000000E+00
  0.00000000E+00  0.00000000E+00  0.00000000E+00
  0.00000000E+00  0.00000000E+00  0.00000000E+00
  0.00000000E+00  0.00000000E+00  0.00000000E+00
  0.00000000E+00  0.00000000E+00  0.00000000E+00
  0.00000000E+00  0.00000000E+00  0.00000000E+00
  0.00000000E+00  0.00000000E+00  0.00000000E+00
  0.00000000E+00  0.00000000E+00  0.00000000E+00
  0.00000000E+00  0.00000000E+00  0.00000000E+00
  0.00000000E+00  0.00000000E+00  0.00000000E+00
  0.00000000E+00  0.00000000E+00  0.00000000E+00
  0.00000000E+00  0.00000000E+00  0.00000000E+00
  0.00000000E+00  0.00000000E+00  0.00000000E+00
  0.00000000E+00  0.00000000E+00  0.00000000E+00
  0.00000000E+00  0.00000000E+00  0.00000000E+00
  0.00000000E+00  0.00000000E+00  0.00000000E+00
  0.00000000E+00  0.00000000E+00  0.00000000E+00
  0.00000000E+00  0.00000000E+00  0.00000000E+00
  0.00000000E+00  0.00000000E+00  0.00000000E+00
  0.00000000E+00  0.00000000E+00  0.00000000E+00
  0.00000000E+00  0.00000000E+00  0.00000000E+00
  0.00000000E+00  0.00000000E+00  0.00000000E+00
  0.00000000E+00  0.00000000E+00  0.00000000E+00
  0.00000000E+00  0.00000000E+00  0.00000000E+00
  0.00000000E+00  0.00000000E+00  0.00000000E+00
  0.00000000E+00  0.00000000E+00  0.00000000E+00
  0.00000000E+00  0.00000000E+00  0.00000000E+00
  0.00000000E+00  0.00000000E+00  0.00000000E+00
  0.00000000E+00  0.00000000E+00  0.00000000E+00
  0.00000000E+00  0.00000000E+00  0.00000000E+00
  0.00000000E+00  0.00000000E+00  0.00000000E+00
  0.00000000E+00  0.00000000E+00  0.00000000E+00
  0.00000000E+00  0.00000000E+00  0.00000000E+00
  0.00000000E+00  0.00000000E+00  0.00000000E+00
  0.00000000E+00  0.00000000E+00  0.00000000E+00
  0.00000000E+00  0.00000000E+00  0.00000000E+00
  0.00000000E+00  0.00000000E+00  0.00000000E+00
  0.00000000E+00  0.00000000E+00  0.00000000E+00
  0.00000000E+00  0.00000000E+00  0.00000000E+00
  0.00000000E+00  0.00000000E+00  0.00000000E+00
  0.00000000E+00  0.00000000E+00  0.00000000E+00
  0.00000000E+00  0.00000000E+00  0.00000000E+00
  0.00000000E+00  0.00000000E+00  0.00000000E+00
  0.00000000E+00  0.00000000E+00  0.00000000E+00
  0.00000000E+00  0.00000000E+00  0.00000000E+00
  0.00000000E+00  0.00000000E+00  0.00000000E+00
  0.00000000E+00  0.00000000E+00  0.00000000E+00
  0.00000000E+00  0.00000000E+00  0.00000000E+00
  0.00000000E+00  0.00000000E+00  0.00000000E+00
  0.00000000E+00  0.00000000E+00  0.00000000E+00
  0.00000000E+00  0.00000000E+00  0.00000000E+00
  0.00000000E+00  0.00000000E+00  0.00000000E+00
  0.00000000E+00  0.00000000E+00  0.00000000E+00
  0.00000000E+00  0.00000000E+00  0.00000000E+00
  0.00000000E+00  0.00000000E+00  0.00000000E+00
  0.00000000E+00  0.00000000E+00  0.00000000E+00
  0.00000000E+00  0.00000000E+00  0.00000000E+00
  0.00000000E+00  0.00000000E+00  0.00000000E+00
  0.00000000E+00  0.00000000E+00  0.00000000E+00
  0.00000000E+00  0.00000000E+00  0.00000000E+00
  0.00000000E+00  0.00000000E+00  0.00000000E+00
  0.00000000E+00  0.00000000E+00  0.00000000E+00
  0.00000000E+00  0.00000000E+00  0.00000000E+00
  0.00000000E+00  0.00000000E+00  0.00000000E+00
  0.00000000E+00  0.00000000E+00  0.00000000E+00
  0.00000000E+00  0.00000000E+00  0.00000000E+00
  0.00000000E+00  0.00000000E+00  0.00000000E+00
  0.00000000E+00  0.00000000E+00  0.00000000E+00
  0.00000000E+00  0.00000000E+00  0.00000000E+00
  0.00000000E+00  0.00000000E+00  0.00000000E+00
  0.00000000E+00  0.00000000E+00  0.00000000E+00
  0.00000000E+00  0.00000000E+00  0.00000000E+00
  0.00000000E+00  0.00000000E+00  0.00000000E+00
  0.00000000E+00  0.00000000E+00  0.00000000E+00
  0.00000000E+00  0.00000000E+00  0.00000000E+00
  0.00000000E+00  0.00000000E+00  0.00000000E+00
  0.00000000E+00  0.00000000E+00  0.00000000E+00
  0.00000000E+00  0.00000000E+00  0.00000000E+00
  0.00000000E+00  0.00000000E+00  0.00000000E+00
  0.00000000E+00  0.00000000E+00  0.00000000E+00
  0.00000000E+00  0.00000000E+00  0.00000000E+00
  0.00000000E+00  0.00000000E+00  0.00000000E+00
  0.00000000E+00  0.00000000E+00  0.00000000E+00
  0.00000000E+00  0.00000000E+00  0.00000000E+00
  0.00000000E+00  0.00000000E+00  0.00000000E+00
  0.00000000E+00  0.00000000E+00  0.00000000E+00
  0.00000000E+00  0.00000000E+00  0.00000000E+00
  0.00000000E+00  0.00000000E+00  0.00000000E+00
  0.00000000E+00  0.00000000E+00  0.00000000E+00
  0.00000000E+00  0.00000000E+00  0.00000000E+00
  0.00000000E+00  0.00000000E+00  0.00000000E+00
  0.00000000E+00  0.00000000E+00  0.00000000E+00
  0.00000000E+00  0.00000000E+00  0.00000000E+00
  0.00000000E+00  0.00000000E+00  0.00000000E+00
  0.00000000E+00  0.00000000E+00  0.00000000E+00
  0.00000000E+00  0.00000000E+00  0.00000000E+00
  0.00000000E+00  0.00000000E+00  0.00000000E+00
  0.00000000E+00  0.00000000E+00  0.00000000E+00
  0.00000000E+00  0.00000000E+00  0.00000000E+00
  0.00000000E+00  0.00000000E+00  0.00000000E+00
  0.00000000E+00  0.00000000E+00  0.00000000E+00
  0.00000000E+00  0.00000000E+00  0.00000000E+00
  0.00000000E+00  0.00000000E+00  0.00000000E+00
  0.00000000E+00  0.00000000E+00  0.00000000E+00
  0.00000000E+00  0.00000000E+00  0.00000000E+00
  0.00000000E+00  0.00000000E+00  0.00000000E+00
  0.00000000E+00  0.00000000E+00  0.00000000E+00
  0.00000000E+00  0.00000000E+00  0.00000000E+00
  0.00000000E+00  0.00000000E+00  0.00000000E+00
  0.00000000E+00  0.00000000E+00  0.00000000E+00
  0.00000000E+00  0.00000000E+00  0.00000000E+00
  0.00000000E+00  0.00000000E+00  0.00000000E+00
  0.00000000E+00  0.00000000E+00  0.00000000E+00
  0.00000000E+00  0.00000000E+00  0.00000000E+00
  0.00000000E+00  0.00000000E+00  0.00000000E+00
  0.00000000E+00  0.00000000E+00  0.00000000E+00
  0.00000000E+00  0.00000000E+00  0.00000000E+00
  0.00000000E+00  0.00000000E+00  0.00000000E+00
  0.00000000E+00  0.00000000E+00  0.00000000E+00
  0.00000000E+00  0.00000000E+00  0.00000000E+00
  0.00000000E+00  0.00000000E+00  0.00000000E+00
  0.00000000E+00  0.00000000E+00  0.00000000E+00
  0.00000000E+00  0.00000000E+00  0.00000000E+00
  0.00000000E+00  0.00000000E+00  0.00000000E+00
  0.00000000E+00  0.00000000E+00  0.00000000E+00
  0.00000000E+00  0.00000000E+00  0.00000000E+00
  0.00000000E+00  0.00000000E+00  0.00000000E+00
  0.00000000E+00  0.00000000E+00  0.00000000E+00
  0.00000000E+00  0.00000000E+00  0.00000000E+00
