Mo48 H4 Se97 C1 O1
1.0
  33.0000000000000000    0.0000000000000000    0.0000000000000000
   0.0000000000000000   26.3120002699999986    0.0000000000000000
   0.0000000000000000    0.0000000000000000   18.0970000000000013
Mo Se O C H
48 97 1 1 4
direct
   0.2868184500000000    0.0260540900000000    0.5019028300000000 Mo
   0.2860199700000000    0.3108571500000000    0.5052902300000000 Mo
   0.2921735000000000    0.5212208000000000    0.5061782700000000 Mo
   0.2851947400000000    0.7857276900000000    0.5023152400000001 Mo
   0.4538009000000000    0.0360577700000000    0.5008489400000000 Mo
   0.4529001700000000    0.2865976700000000    0.5023904200000000 Mo
   0.4563401000000000    0.5349419300000000    0.5028654200000000 Mo
   0.4540916400000000    0.7848101300000000    0.5013184100000000 Mo
   0.6261605099999999    0.0368317500000000    0.4995433400000000 Mo
   0.6264653500000000    0.2850989400000000    0.4998520800000000 Mo
   0.6280428500000000    0.5341569300000000    0.5000141900000000 Mo
   0.6271969800000000    0.7855367200000000    0.4996843100000000 Mo
   0.2841429800000000    0.1579137300000000    0.5032933500000000 Mo
   0.2898627900000000    0.4343425300000000    0.5064158000000000 Mo
   0.2883507600000000    0.6353759200000000    0.5053117300000000 Mo
   0.2874727400000000    0.9184170400000000    0.5015595300000000 Mo
   0.4525680500000000    0.1611641500000000    0.5015576000000000 Mo
   0.4555539600000000    0.4106522100000000    0.5028935300000000 Mo
   0.4552498600000000    0.6592825500000000    0.5022131700000000 Mo
   0.4544227200000000    0.9102431900000000    0.5006848500000000 Mo
   0.6260382700000000    0.1616995600000000    0.4997175200000000 Mo
   0.6274718000000000    0.4088153700000000    0.4999584100000000 Mo
   0.6283006600000000    0.6598584800000000    0.4998680500000000 Mo
   0.6269470100000000    0.9112326200000000    0.4995049000000000 Mo
   0.3641325100000000    0.2242596700000000    0.5031491700000000 Mo
   0.3736800700000000    0.4731402300000000    0.5045582500000000 Mo
   0.3658440900000000    0.7212513699999999    0.5027061800000000 Mo
   0.3683547300000000    0.9727362300000000    0.5012328000000000 Mo
   0.5390891000000000    0.2234235400000000    0.5008263500000000 Mo
   0.5425565800000000    0.4720035500000000    0.5014293300000000 Mo
   0.5414463000000000    0.7225181500000000    0.5008284100000000 Mo
   0.5405161600000000    0.9734302800000000    0.5000845200000000 Mo
   0.7137859500000000    0.2267790700000000    0.4988231100000000 Mo
   0.7158400600000000    0.4614436500000000    0.4984076500000000 Mo
   0.7149637900000000    0.7145900800000000    0.4985810400000000 Mo
   0.7138093900000000    0.9659012500000000    0.4988215200000000 Mo
   0.3671868000000000    0.0982334700000000    0.5019687900000001 Mo
   0.3681479300000000    0.3484921400000000    0.5042513900000000 Mo
   0.3706425000000000    0.5980164700000000    0.5040604700000000 Mo
   0.3681598000000000    0.8472507400000000    0.5015400900000000 Mo
   0.5401211600000000    0.0990974500000000    0.5003492800000000 Mo
   0.5403625600000000    0.3471795300000000    0.5012356000000000 Mo
   0.5423576500000000    0.5977344200000000    0.5013104000000000 Mo
   0.5407942200000000    0.8479558600000000    0.5002837200000000 Mo
   0.7144259800000000    0.1091700700000000    0.4988566600000000 Mo
   0.7143538300000000    0.3431795500000000    0.4986036600000000 Mo
   0.7152346000000001    0.6053800100000000    0.4984325700000000 Mo
   0.7142072000000000    0.8569289400000000    0.4987602100000000 Mo
   0.2502770000000000    0.0928945900000000    0.5823830400000000 Se
   0.2319239600000000    0.3746805800000000    0.5071579899999999 Se
   0.2311093700000000    0.5755681400000000    0.5080929199999999 Se
   0.2504475100000000    0.8508892100000000    0.5804881700000000 Se
   0.4248986900000000    0.0982352100000000    0.5942795200000000 Se
   0.4257023700000000    0.3486820300000000    0.5963820200000000 Se
   0.4279852000000000    0.5977010300000000    0.5965522000000000 Se
   0.4259330700000000    0.8475572400000000    0.5938330900000000 Se
   0.5981411000000000    0.0987229500000000    0.5928124100000000 Se
   0.5981610500000000    0.3472366600000000    0.5929784800000000 Se
   0.6004930900000000    0.5971615700000000    0.5930164999999999 Se
   0.5988454000000000    0.8479755000000000    0.5922519000000001 Se
   0.4230870200000000    0.2237150100000000    0.5939819200000001 Se
   0.4298569600000000    0.4729446900000000    0.5980812000000000 Se
   0.4249802600000000    0.7221262800000000    0.5935448800000001 Se
   0.4261873400000000    0.9728928200000000    0.5936620600000000 Se
   0.5970350200000000    0.2232238700000000    0.5926305800000000 Se
   0.6005282400000000    0.4720850200000000    0.5935836900000000 Se
   0.5996942300000000    0.7228866400000000    0.5925670400000000 Se
   0.5984280600000000    0.9738956400000000    0.5922558100000000 Se
   0.3393167900000000    0.0342354400000000    0.5971348200000000 Se
   0.3354370600000000    0.2883599300000000    0.5993868900000000 Se
   0.3423145000000000    0.5335730600000000    0.6022995400000000 Se
   0.3384634100000000    0.7845487200000000    0.5968934500000000 Se
   0.5118352000000000    0.0360182800000000    0.5926797100000000 Se
   0.5108855300000000    0.2853580300000000    0.5943417500000000 Se
   0.5146041900000000    0.5351336799999999    0.5942710300000000 Se
   0.5123529000000000    0.7851407400000000    0.5930782700000000 Se
   0.6872425500000000    0.0375487400000000    0.5866141499999999 Se
   0.6850507700000000    0.2851317300000000    0.5949778600000000 Se
   0.6892928200000000    0.5334283000000000    0.5864333700000000 Se
   0.6882120000000000    0.7856135500000000    0.5869111400000000 Se
   0.3375165600000000    0.1607349700000000    0.5976722700000000 Se
   0.3399305800000000    0.4142334100000000    0.6010273800000000 Se
   0.3375847500000000    0.6576513600000000    0.5996096600000000 Se
   0.3397407500000000    0.9105792400000000    0.5969868600000000 Se
   0.5106810100000000    0.1608021700000000    0.5934613500000000 Se
   0.5135986500000000    0.4100515600000000    0.5946603200000000 Se
   0.5134713200000000    0.6603112400000000    0.5941044700000000 Se
   0.5123315899999999    0.9105343100000000    0.5929027700000000 Se
   0.6842981200000000    0.1639608500000000    0.5948926600000000 Se
   0.6858465800000000    0.4065337400000000    0.5947432800000000 Se
   0.6852273800000001    0.6598049200000000    0.5971104699999999 Se
   0.6836874400000000    0.9113877600000000    0.5970871900000000 Se
   0.2500679500000000    0.0937065600000000    0.4230459300000000 Se
   0.2505296200000000    0.8504373400000000    0.4231167900000000 Se
   0.4243958900000000    0.0987117700000000    0.4085964400000000 Se
   0.4246784000000000    0.3490593300000000    0.4100348800000000 Se
   0.4270069600000000    0.5971862600000000    0.4096009400000000 Se
   0.4255862200000000    0.8471324700000000    0.4083996900000000 Se
   0.5976351300000000    0.0988729700000000    0.4069205900000000 Se
   0.5973462800000000    0.3473155900000000    0.4077369000000000 Se
   0.5995896600000000    0.5970485400000000    0.4078728900000000 Se
   0.5983925200000000    0.8478510200000000    0.4073675400000000 Se
   0.2440127800000000    0.2335344700000000    0.5047884600000000 Se
   0.2437073500000000    0.7117329700000000    0.5027777900000000 Se
   0.2276272200000000    0.9716216600000001    0.5004432599999999 Se
   0.4223848200000000    0.2243024500000000    0.4108079100000000 Se
   0.4287451600000000    0.4728907400000000    0.4088173400000000 Se
   0.4243924900000000    0.7214763600000000    0.4106041300000000 Se
   0.4258646300000000    0.9729868400000000    0.4080725400000000 Se
   0.5963502300000000    0.2233226800000000    0.4076555200000000 Se
   0.5995957700000000    0.4721254600000000    0.4073702300000000 Se
   0.5989988600000000    0.7227596200000000    0.4077050600000000 Se
   0.5980609800000000    0.9739341500000001    0.4071573100000000 Se
   0.3389382900000000    0.0347380500000000    0.4063035600000000 Se
   0.3344970600000000    0.2890878000000000    0.4091489100000000 Se
   0.3410664400000000    0.5332130000000000    0.4077515900000000 Se
   0.3382573800000000    0.7837657600000000    0.4074428400000000 Se
   0.5113958000000000    0.0362165100000000    0.4081260200000000 Se
   0.5100542500000000    0.2857053700000000    0.4086084300000000 Se
   0.5136643400000001    0.5350386800000000    0.4094878700000000 Se
   0.5118497100000000    0.7847683700000000    0.4085669200000000 Se
   0.6868351200000000    0.0375265400000000    0.4115189900000000 Se
   0.6843138200000000    0.2850413200000000    0.4031704900000000 Se
   0.6883292500000000    0.5334690300000000    0.4113323400000000 Se
   0.6875879499999999    0.7856548300000000    0.4111363000000000 Se
   0.3369383500000000    0.1615083600000000    0.4079666700000000 Se
   0.3386091000000000    0.4144149700000000    0.4094950200000000 Se
   0.3365705300000000    0.6566837700000000    0.4085446500000000 Se
   0.3395148100000000    0.9103900900000000    0.4059473800000000 Se
   0.5100638700000000    0.1611725100000000    0.4082923200000000 Se
   0.5126227400000000    0.4102111800000000    0.4090377400000000 Se
   0.5127411100000000    0.6599614700000001    0.4087812300000000 Se
   0.5119941800000000    0.9104194000000000    0.4077194400000000 Se
   0.6837319800000000    0.1639665900000000    0.4033805100000000 Se
   0.7747892000000000    0.9126411200000000    0.4983093000000000 Se
   0.7675651600000000    0.7861191800000000    0.4979266100000000 Se
   0.7758982400000000    0.6592136800000000    0.4972562000000000 Se
   0.7680387800000000    0.5322565900000000    0.4973563200000000 Se
   0.7745099500000000    0.4049466600000000    0.4975141100000000 Se
   0.7737097600000000    0.2846426600000000    0.4980901800000000 Se
   0.7735926600000000    0.1647601800000000    0.4986522400000000 Se
   0.7667153500000000    0.0385211200000000    0.4985727600000000 Se
   0.6848956500000000    0.4064569300000000    0.4032051900000000 Se
   0.6842949600000000    0.6599245600000000    0.4008609900000000 Se
   0.6832078700000001    0.9113613300000000    0.4009832600000000 Se
   0.2406573193939394    0.4923167102660556    0.5128447172907111 O
   0.1994542572727273    0.5102994673785767    0.5210536607620048 C
   0.1790352272727273    0.4776859905925337    0.5139746824783112 H
   0.1955136945454545    0.5268874620396151    0.5762792992656240 H
   0.2438289290909091    0.4515605826818413    0.5142511559269491 H
   0.1934869869696969    0.5389305886262811    0.4783541415046693 H
