Mo  S                                   
    1.000000000000000     
    33.0000000000000000    0.0000000000000000    0.0000000000000000
     0.0000000000000000   25.5200004577999984    0.0000000000000000
     0.0000000000000000    0.0000000000000000   17.4729003905999996
   Mo   S    O    C 
    48    98     2     1
Direct
  0.2864011694242702  0.1031623185268410  0.4988210090963647
  0.3698467079208569  0.0339529519834829  0.4989540589907223
  0.2886672523963626  0.2123810323225543  0.4989127840652339
  0.3702003307473133  0.1588520263808686  0.4989844712931135
  0.4526884794246233  0.0964528042983983  0.4991220787249908
  0.5353804969743758  0.0339921991247991  0.4996329423574067
  0.2847272394381476  0.3476297197828925  0.4996312250914292
  0.3689491647090946  0.2846447569560450  0.4993162245251834
  0.4523738134008297  0.2217460687313084  0.4993946085120761
  0.5352410970087444  0.1589621984668119  0.4997541848298134
  0.6172930275538288  0.0965074792974030  0.5013895144011552
  0.2881944949291599  0.4747954343429218  0.4981357260345050
  0.3685756064119150  0.4082136271931522  0.4991289589427934
  0.4517013032997911  0.3466249450351698  0.4998249790770949
  0.5351338652891945  0.2844046493376542  0.5001431557633692
  0.2886626751958236  0.5909414264787592  0.4972614232930585
  0.3697123882370298  0.5340023628997101  0.4990464696720814
  0.4521344862592555  0.4713300729132712  0.4999279458184592
  0.5349174614995746  0.4088499930704110  0.5004803850781933
  0.2871963276091953  0.7227065136553157  0.4999351460139048
  0.3681864334619479  0.6593168763491826  0.4982062852237342
  0.4518006114644593  0.5967693759512289  0.4998293224083664
  0.5346281623258723  0.5342836532309506  0.5006019142173591
  0.4516665997352982  0.7216344863579014  0.4998663585469593
  0.5346838280606355  0.6589000257826589  0.5005231658017131
  0.6186727618981247  0.2217319622266629  0.5008820404590740
  0.7009869741704712  0.0357643821470353  0.5032047424261070
  0.6170601130329270  0.3467813758792077  0.5011847918428264
  0.7010727697404654  0.1568468358773528  0.5037062098697577
  0.6181352549403106  0.4718509308930186  0.5007832428874124
  0.7009398674471987  0.2869622905030165  0.5059606864719000
  0.6166587169646280  0.5965248167466880  0.5000463923550250
  0.7001486487353769  0.4084835247382892  0.4984604983348589
  0.6182319505163819  0.7211524510301069  0.5003237227030074
  0.7002079327892347  0.5356108590374452  0.5005474185205796
  0.7001024802380764  0.6574897574960475  0.4964575170693121
  0.2843108401050843  0.8509404779223999  0.4994879537412668
  0.3693219280781992  0.7854750063874042  0.4994785242762103
  0.2854472518373244  0.9641131806542101  0.4991515287901741
  0.3693943230287705  0.9087947010269078  0.4993109596079838
  0.4523541861693582  0.8466019945333018  0.4996918061970694
  0.5349583878770905  0.7840212956539290  0.5003229875764135
  0.4522193857767330  0.9712968820667800  0.4992785893150370
  0.5352049170944699  0.9087458005171701  0.4998918673533427
  0.6171471958519288  0.8461808354916921  0.5004089078391140
  0.6187306816951450  0.9712241692827508  0.5005005114772370
  0.7002042308029621  0.7845051014044314  0.4958516522549564
  0.7009782719720764  0.9061872721378698  0.5049539951775596
  0.3123824304511551  0.0336864866111465  0.4130912539311111
  0.3123538868110788  0.0338488179741849  0.5847472050842901
  0.3166168879511641  0.1574599831707223  0.4041867267377218
  0.3165224412401113  0.1573927855337734  0.5936025525811434
  0.3975965398961633  0.0961308416744374  0.4096522761451744
  0.3974776643029709  0.0961131266414531  0.5883065609625813
  0.4801759148508323  0.0337062503743265  0.4100047365689945
  0.4798925085855075  0.0337740061550991  0.5885518971336630
  0.3104518572363484  0.2818879518662462  0.4119438420320455
  0.3103997886441200  0.2814545041538767  0.5865026493763456
  0.3970739464050123  0.2226501185671144  0.4102144672503622
  0.3969293548600877  0.2224908520367481  0.5882156547299383
  0.4800910779542924  0.1592627003765769  0.4099330627315917
  0.4797663746762098  0.1591060493565784  0.5888028417181942
  0.5629951840720157  0.0965606424671455  0.4103423144297779
  0.5621006099975659  0.0964681035644479  0.5900029594729109
  0.3112979118709223  0.4092976399656071  0.4095284528873352
  0.3107141497516961  0.4096233839324033  0.5878696605492918
  0.3964060999136522  0.3464824947497829  0.4097493175422255
  0.3960333579172636  0.3465335725016463  0.5892517829114357
  0.4798967225460607  0.2843985389926560  0.4104897708456286
  0.4795719627770131  0.2841739823310958  0.5890564737351267
  0.5633497403780611  0.2218075375572537  0.4111470239382561
  0.5626680020256385  0.2215781230618173  0.5891617355916492
  0.6470526332079265  0.0339621197720064  0.4127213538251801
  0.6457461314837567  0.0334554794257623  0.5905090837608578
  0.6472090200141898  0.1590980917077283  0.4130092845651283
  0.6456764204883186  0.1593949661547844  0.5907283707438807
  0.3158559155460411  0.5323142549145372  0.4056348385435249
  0.3147982273005832  0.5324178033767929  0.5918333650532817
  0.3971203385570989  0.4706827456748277  0.4104218307276838
  0.3965574073182989  0.4708443033585554  0.5883768133002635
  0.4797644874686685  0.4089068197583647  0.4107234623029889
  0.4793928805989119  0.4088557290596127  0.5894554196733512
  0.5625824460026703  0.3466267012783609  0.4106113647721215
  0.5620854328384672  0.3466631923738240  0.5905705736389640
  0.3110032700560942  0.6603400408586457  0.4084227646931923
  0.3109044538769704  0.6570688817007345  0.5865122463008395
  0.3968104137031380  0.5970779819543788  0.4098913918416875
  0.3962566645464887  0.5974805968914229  0.5883466012103412
  0.4795092462528194  0.5340479985317957  0.4107738546937205
  0.4791163151352816  0.5341314229924092  0.5895456865310479
  0.5625302022402315  0.4717064625549178  0.4116207414113258
  0.5624428982590443  0.4716271046104125  0.5897749805739371
  0.3962911276132183  0.7222418341645832  0.4102971670424481
  0.3957590703511024  0.7216970942212266  0.5882360446580803
  0.4794876297788421  0.6592557541563717  0.4107536505433824
  0.4791286127619156  0.6592565571253908  0.5894567338153535
  0.5617930319982448  0.5964691510996096  0.4105700054067564
  0.5619981152632304  0.5966402681719286  0.5904082842093632
  0.5624927134345126  0.7213051223465042  0.4113877000847047
  0.5627064393143941  0.7214246336477641  0.5896446809134642
  0.6479420787187370  0.2845966861996918  0.4133354433901711
  0.6450499322553332  0.2839736734753790  0.5910271988254135
  0.7276048498512792  0.0963358859809311  0.4153174861934573
  0.7267465058006572  0.0962871840561708  0.5924158580899307
  0.6450938921199976  0.4097144535662127  0.4113512311392918
  0.6467459763036743  0.4094876553257659  0.5896976715098803
  0.7488603085612427  0.2222451200886337  0.4936208487499846
  0.6459801665321422  0.5339559203167396  0.4111282109001778
  0.6458138931637885  0.5341729281086687  0.5895460108719097
  0.7271607482934087  0.3484405884125051  0.4139141732079516
  0.7270018995408976  0.3471064758319163  0.5907810650222912
  0.6448522211467680  0.6590905894811925  0.4100068262570157
  0.6469276027314665  0.6587694805510644  0.5885086944036039
  0.7496659863628109  0.4718293775259776  0.5040382915607695
  0.7262061712596208  0.5965977429284106  0.4098743747119920
  0.7273331856359108  0.5964085862866239  0.5857500074505936
  0.7496125085792350  0.7210959101893780  0.5025913640125979
  0.2303342762555380  0.1658263970706609  0.4991258803039543
  0.2205434777385301  0.3431273519291674  0.4995533139718894
  0.2188734077224127  0.7227270144926300  0.5009178322614291
  0.2361589659753560  0.0363151022371901  0.4987334682365114
  0.3123242207438182  0.7856131680236094  0.4109026937567929
  0.3122944241412084  0.7856642526594172  0.5884493958627828
  0.3141118577311741  0.9079502920077894  0.4059243226435673
  0.3141675928519731  0.9081937931380449  0.5927281643595340
  0.3973192144831699  0.8467762055159717  0.4099621069145575
  0.3971714110643749  0.8468671679320224  0.5890093383847712
  0.4797578585341467  0.7838178698614221  0.4106200819744437
  0.4794485037870455  0.7838919942644615  0.5893318779846712
  0.3967926504826783  0.9714236570118798  0.4097545067246679
  0.3966946290270890  0.9716214302283149  0.5885453997686398
  0.4800076916726549  0.9089349937331154  0.4101410726856322
  0.4797743196403986  0.9091404025016054  0.5890592380262668
  0.5624613441927012  0.8463550566525168  0.4103234561375358
  0.5622712739115497  0.8463093316699234  0.5901235695280947
  0.5634057447417526  0.9712579899232182  0.4108278607155659
  0.5628400053548681  0.9713807329303448  0.5889915477215782
  0.6447084343172895  0.7831915891120560  0.4101356466253971
  0.6474046729331296  0.7835896649796703  0.5885069011228676
  0.6479179614799384  0.9084665990195262  0.4125438405480397
  0.6452427093612706  0.9088889037596677  0.5903527603022245
  0.7271649219658566  0.8447919531884923  0.4121085777258114
  0.7274123147370062  0.8458415230211102  0.5886038190671936
  0.7491888975591549  0.9707372026167094  0.4944240525933082
  0.2286256207970292  0.9120576495140421  0.4998359409733404
  0.2197210142230078  0.8055655978621377  0.4995458473573751
  0.2275806534000746  0.5758082116537728  0.4511266009409999
  0.2287499598041027  0.4967108452991301  0.5199553568932996
  0.2390379940231451  0.5452965710624822  0.5053357028476659
 
  0.00000000E+00  0.00000000E+00  0.00000000E+00
  0.00000000E+00  0.00000000E+00  0.00000000E+00
  0.00000000E+00  0.00000000E+00  0.00000000E+00
  0.00000000E+00  0.00000000E+00  0.00000000E+00
  0.00000000E+00  0.00000000E+00  0.00000000E+00
  0.00000000E+00  0.00000000E+00  0.00000000E+00
  0.00000000E+00  0.00000000E+00  0.00000000E+00
  0.00000000E+00  0.00000000E+00  0.00000000E+00
  0.00000000E+00  0.00000000E+00  0.00000000E+00
  0.00000000E+00  0.00000000E+00  0.00000000E+00
  0.00000000E+00  0.00000000E+00  0.00000000E+00
  0.00000000E+00  0.00000000E+00  0.00000000E+00
  0.00000000E+00  0.00000000E+00  0.00000000E+00
  0.00000000E+00  0.00000000E+00  0.00000000E+00
  0.00000000E+00  0.00000000E+00  0.00000000E+00
  0.00000000E+00  0.00000000E+00  0.00000000E+00
  0.00000000E+00  0.00000000E+00  0.00000000E+00
  0.00000000E+00  0.00000000E+00  0.00000000E+00
  0.00000000E+00  0.00000000E+00  0.00000000E+00
  0.00000000E+00  0.00000000E+00  0.00000000E+00
  0.00000000E+00  0.00000000E+00  0.00000000E+00
  0.00000000E+00  0.00000000E+00  0.00000000E+00
  0.00000000E+00  0.00000000E+00  0.00000000E+00
  0.00000000E+00  0.00000000E+00  0.00000000E+00
  0.00000000E+00  0.00000000E+00  0.00000000E+00
  0.00000000E+00  0.00000000E+00  0.00000000E+00
  0.00000000E+00  0.00000000E+00  0.00000000E+00
  0.00000000E+00  0.00000000E+00  0.00000000E+00
  0.00000000E+00  0.00000000E+00  0.00000000E+00
  0.00000000E+00  0.00000000E+00  0.00000000E+00
  0.00000000E+00  0.00000000E+00  0.00000000E+00
  0.00000000E+00  0.00000000E+00  0.00000000E+00
  0.00000000E+00  0.00000000E+00  0.00000000E+00
  0.00000000E+00  0.00000000E+00  0.00000000E+00
  0.00000000E+00  0.00000000E+00  0.00000000E+00
  0.00000000E+00  0.00000000E+00  0.00000000E+00
  0.00000000E+00  0.00000000E+00  0.00000000E+00
  0.00000000E+00  0.00000000E+00  0.00000000E+00
  0.00000000E+00  0.00000000E+00  0.00000000E+00
  0.00000000E+00  0.00000000E+00  0.00000000E+00
  0.00000000E+00  0.00000000E+00  0.00000000E+00
  0.00000000E+00  0.00000000E+00  0.00000000E+00
  0.00000000E+00  0.00000000E+00  0.00000000E+00
  0.00000000E+00  0.00000000E+00  0.00000000E+00
  0.00000000E+00  0.00000000E+00  0.00000000E+00
  0.00000000E+00  0.00000000E+00  0.00000000E+00
  0.00000000E+00  0.00000000E+00  0.00000000E+00
  0.00000000E+00  0.00000000E+00  0.00000000E+00
  0.00000000E+00  0.00000000E+00  0.00000000E+00
  0.00000000E+00  0.00000000E+00  0.00000000E+00
  0.00000000E+00  0.00000000E+00  0.00000000E+00
  0.00000000E+00  0.00000000E+00  0.00000000E+00
  0.00000000E+00  0.00000000E+00  0.00000000E+00
  0.00000000E+00  0.00000000E+00  0.00000000E+00
  0.00000000E+00  0.00000000E+00  0.00000000E+00
  0.00000000E+00  0.00000000E+00  0.00000000E+00
  0.00000000E+00  0.00000000E+00  0.00000000E+00
  0.00000000E+00  0.00000000E+00  0.00000000E+00
  0.00000000E+00  0.00000000E+00  0.00000000E+00
  0.00000000E+00  0.00000000E+00  0.00000000E+00
  0.00000000E+00  0.00000000E+00  0.00000000E+00
  0.00000000E+00  0.00000000E+00  0.00000000E+00
  0.00000000E+00  0.00000000E+00  0.00000000E+00
  0.00000000E+00  0.00000000E+00  0.00000000E+00
  0.00000000E+00  0.00000000E+00  0.00000000E+00
  0.00000000E+00  0.00000000E+00  0.00000000E+00
  0.00000000E+00  0.00000000E+00  0.00000000E+00
  0.00000000E+00  0.00000000E+00  0.00000000E+00
  0.00000000E+00  0.00000000E+00  0.00000000E+00
  0.00000000E+00  0.00000000E+00  0.00000000E+00
  0.00000000E+00  0.00000000E+00  0.00000000E+00
  0.00000000E+00  0.00000000E+00  0.00000000E+00
  0.00000000E+00  0.00000000E+00  0.00000000E+00
  0.00000000E+00  0.00000000E+00  0.00000000E+00
  0.00000000E+00  0.00000000E+00  0.00000000E+00
  0.00000000E+00  0.00000000E+00  0.00000000E+00
  0.00000000E+00  0.00000000E+00  0.00000000E+00
  0.00000000E+00  0.00000000E+00  0.00000000E+00
  0.00000000E+00  0.00000000E+00  0.00000000E+00
  0.00000000E+00  0.00000000E+00  0.00000000E+00
  0.00000000E+00  0.00000000E+00  0.00000000E+00
  0.00000000E+00  0.00000000E+00  0.00000000E+00
  0.00000000E+00  0.00000000E+00  0.00000000E+00
  0.00000000E+00  0.00000000E+00  0.00000000E+00
  0.00000000E+00  0.00000000E+00  0.00000000E+00
  0.00000000E+00  0.00000000E+00  0.00000000E+00
  0.00000000E+00  0.00000000E+00  0.00000000E+00
  0.00000000E+00  0.00000000E+00  0.00000000E+00
  0.00000000E+00  0.00000000E+00  0.00000000E+00
  0.00000000E+00  0.00000000E+00  0.00000000E+00
  0.00000000E+00  0.00000000E+00  0.00000000E+00
  0.00000000E+00  0.00000000E+00  0.00000000E+00
  0.00000000E+00  0.00000000E+00  0.00000000E+00
  0.00000000E+00  0.00000000E+00  0.00000000E+00
  0.00000000E+00  0.00000000E+00  0.00000000E+00
  0.00000000E+00  0.00000000E+00  0.00000000E+00
  0.00000000E+00  0.00000000E+00  0.00000000E+00
  0.00000000E+00  0.00000000E+00  0.00000000E+00
  0.00000000E+00  0.00000000E+00  0.00000000E+00
  0.00000000E+00  0.00000000E+00  0.00000000E+00
  0.00000000E+00  0.00000000E+00  0.00000000E+00
  0.00000000E+00  0.00000000E+00  0.00000000E+00
  0.00000000E+00  0.00000000E+00  0.00000000E+00
  0.00000000E+00  0.00000000E+00  0.00000000E+00
  0.00000000E+00  0.00000000E+00  0.00000000E+00
  0.00000000E+00  0.00000000E+00  0.00000000E+00
  0.00000000E+00  0.00000000E+00  0.00000000E+00
  0.00000000E+00  0.00000000E+00  0.00000000E+00
  0.00000000E+00  0.00000000E+00  0.00000000E+00
  0.00000000E+00  0.00000000E+00  0.00000000E+00
  0.00000000E+00  0.00000000E+00  0.00000000E+00
  0.00000000E+00  0.00000000E+00  0.00000000E+00
  0.00000000E+00  0.00000000E+00  0.00000000E+00
  0.00000000E+00  0.00000000E+00  0.00000000E+00
  0.00000000E+00  0.00000000E+00  0.00000000E+00
  0.00000000E+00  0.00000000E+00  0.00000000E+00
  0.00000000E+00  0.00000000E+00  0.00000000E+00
  0.00000000E+00  0.00000000E+00  0.00000000E+00
  0.00000000E+00  0.00000000E+00  0.00000000E+00
  0.00000000E+00  0.00000000E+00  0.00000000E+00
  0.00000000E+00  0.00000000E+00  0.00000000E+00
  0.00000000E+00  0.00000000E+00  0.00000000E+00
  0.00000000E+00  0.00000000E+00  0.00000000E+00
  0.00000000E+00  0.00000000E+00  0.00000000E+00
  0.00000000E+00  0.00000000E+00  0.00000000E+00
  0.00000000E+00  0.00000000E+00  0.00000000E+00
  0.00000000E+00  0.00000000E+00  0.00000000E+00
  0.00000000E+00  0.00000000E+00  0.00000000E+00
  0.00000000E+00  0.00000000E+00  0.00000000E+00
  0.00000000E+00  0.00000000E+00  0.00000000E+00
  0.00000000E+00  0.00000000E+00  0.00000000E+00
  0.00000000E+00  0.00000000E+00  0.00000000E+00
  0.00000000E+00  0.00000000E+00  0.00000000E+00
  0.00000000E+00  0.00000000E+00  0.00000000E+00
  0.00000000E+00  0.00000000E+00  0.00000000E+00
  0.00000000E+00  0.00000000E+00  0.00000000E+00
  0.00000000E+00  0.00000000E+00  0.00000000E+00
  0.00000000E+00  0.00000000E+00  0.00000000E+00
  0.00000000E+00  0.00000000E+00  0.00000000E+00
  0.00000000E+00  0.00000000E+00  0.00000000E+00
  0.00000000E+00  0.00000000E+00  0.00000000E+00
  0.00000000E+00  0.00000000E+00  0.00000000E+00
  0.00000000E+00  0.00000000E+00  0.00000000E+00
  0.00000000E+00  0.00000000E+00  0.00000000E+00
  0.00000000E+00  0.00000000E+00  0.00000000E+00
  0.00000000E+00  0.00000000E+00  0.00000000E+00
  0.00000000E+00  0.00000000E+00  0.00000000E+00
  0.00000000E+00  0.00000000E+00  0.00000000E+00
  0.00000000E+00  0.00000000E+00  0.00000000E+00
