Mo  S                                   
1.0
  33.0000000000         0.0000000000         0.0000000000
   0.0000000000        25.5200004578         0.0000000000
   0.0000000000         0.0000000000        17.4729003906
Mo S O C
48 98 2 1
Cartesian
     9.446730874         2.612568437         8.706121067
    12.218336725         0.869573460         8.714696801
     9.527948019         5.396210907         8.703123916
    12.227476100         4.043358319         8.709188567
    14.950231141         2.463534261         8.718981070
    17.678987846         0.874328098         8.733217704
     9.408872207         8.808938169         8.705133658
    12.179698985         7.241452427         8.708868863
    14.931476344         5.656892518         8.715827573
    17.667106862         4.062112413         8.732075282
    20.376677265         2.472108792         8.763729907
     9.508449196        11.949928711         8.712449199
    12.140557409        10.404560878         8.713878960
    14.896509146         8.846465049         8.718033634
    17.649871246         7.263110797         8.731459581
     9.491478854        15.532245567         8.720889129
    12.121301248        13.657364040         8.722671993
    14.870515972        12.033369536         8.725363448
    17.625141863        10.441368421         8.732377707
     9.430580594        18.313288188         8.723091797
    12.201477196        16.846365377         8.728970882
    14.898278434        15.216857671         8.733163572
    17.626198251        13.627684758         8.736037591
    14.927434017        18.419068816         8.736269179
    17.638674285        16.808123116         8.737563527
    20.408689351         5.667097288         8.764328229
    23.127785213         0.919199562         8.732002938
    20.343683301         8.856065560         8.762122810
    23.114535135         4.037661702         8.889006763
    20.381231978        12.036409339         8.743644044
    23.100267505         7.309356970         8.880580906
    20.337183447        15.217887071         8.725394212
    23.090969672        10.419364223         8.740705164
    20.398038709        18.403491652         8.724256154
    23.087178404        13.659530143         8.763903105
    23.091108571        16.767053030         8.629344904
     9.427525697        21.818924060         8.719895712
    12.204042027        20.023843129         8.728901087
     9.432774180        24.616490822         8.713877374
    12.212700991        23.207563843         8.723222859
    14.933589867        21.608485560         8.733745438
    17.661230244        20.011334559         8.737644213
    14.941893232        24.796301291         8.726502922
    17.669485856        23.195727967         8.736609400
    20.368996032        21.598929988         8.725246549
    20.426070797        24.793727205         8.744370073
    23.104931822        20.027772180         8.622318523
    23.124522276        23.143987316         8.772884006
    10.318879668         0.858941454         7.210703595
    10.313164977         0.865293446        10.211889714
    10.454571914         3.993481185         7.054488503
    10.448674955         3.997056705        10.357321548
    13.135186948         2.446932906         7.150713271
    13.126705580         2.451850240        10.277394235
    15.861684343         0.864896565         7.164145003
    15.849058919         0.870158652        10.287790496
    10.259194521         7.144048667         7.173663777
    10.252697210         7.141633768        10.236697078
    13.112239092         5.665976889         7.152589640
    13.103313095         5.666297303        10.268830843
    15.852491032         4.062924753         7.157807259
    15.835380281         4.065222297        10.285395926
    18.587113607         2.472704224         7.171978253
    18.554274514         2.466973837        10.312393408
    10.264996369        10.363273609         7.102281232
    10.258356594        10.356546487        10.317828886
    13.070810700         8.836773449         7.150432739
    13.062537918         8.832129384        10.276082096
    15.833029461         7.257795742         7.160085657
    15.815978103         7.256222718        10.281986800
    18.594007164         5.664700113         7.184034245
    18.551635545         5.665257528        10.297168619
    21.326201583         0.874497454         7.198053428
    21.351902944         0.866159208        10.310992585
    21.396243180         4.072440085         7.240313052
    21.262381064         4.079607962        10.352868521
    10.179270785        13.736123892         7.191407557
    10.172162514        13.729985997        10.245557728
    13.028755500        12.041772037         7.165421930
    13.020180843        12.034144380        10.275501168
    15.798302239        10.448672266         7.163719571
    15.785246152        10.443297774        10.285694904
    18.551551743         8.853687649         7.169621689
    18.519532981         8.858803915        10.312201356
    10.431462633        16.915616758         7.071280953
    10.423229316        16.912766582        10.378801614
    13.073623676        15.215018985         7.173000856
    13.066037650        15.209456966        10.284412173
    15.798731218        13.621563753         7.171559050
    15.792169255        13.615950945        10.293151919
    18.548136619        12.035687919         7.179366566
    18.537776494        12.033671652        10.295735000
    13.113280288        18.439169009         7.168633126
    13.105657357        18.438999180        10.295270699
    15.814494958        16.814778625         7.174395383
    15.812201935        16.812351438        10.299524605
    18.523450499        15.214484992         7.163440292
    18.534521437        15.218844228        10.305947274
    18.551444484        18.405920247         7.179002038
    18.572218457        18.405809959        10.292219500
    21.375156083         7.264483764         7.237427660
    21.250300917         7.259363043        10.350410463
    24.028637305         2.475867403         7.291731551
    23.968972740         2.482469466        10.362813512
    21.292946589        10.447176472         7.195808218
    21.309765932        10.455908877        10.314997957
    24.726601442         5.678485834         8.840802486
    21.314863967        13.619668009         7.179239328
    21.278701207        13.627902644        10.297897942
    24.003420695         8.867781572         7.290643404
    23.944940148         8.864855264        10.365559699
    21.252496720        16.814167138         7.143870810
    21.353104419        16.808787389        10.259116326
    24.723467304        12.040472723         8.758703513
    23.948284126        15.213351268         7.147008725
    23.985619427        15.210666648        10.223618579
    24.721509257        18.392869976         8.681912501
     7.598610850         4.221131551         8.703586048
     7.280134015         8.717639204         8.701707361
     7.562404608        16.663187822         8.718981283
     7.778194892         0.913860639         8.705332932
    10.308530339        20.047759752         7.220635715
    10.301296264        20.050162780        10.228118799
    10.413397332        23.211402670         7.079598033
    10.406096480        23.217794555        10.359186044
    13.111186114        21.605672309         7.167013975
    13.103003582        21.610717829        10.291285350
    15.839500570        20.011473735         7.175418870
    15.836857720        20.013289070        10.298876821
    13.119370164        24.798807261         7.159066485
    13.110425868        24.806581476        10.283740327
    15.845879517        23.199113733         7.170216832
    15.839778785        23.204291000        10.296479645
    18.556587268        21.605455411         7.164111211
    18.568302406        21.599722133        10.305280163
    18.595384303        24.792611373         7.181503270
    18.585213877        24.794422896        10.295091686
    21.263506955        19.990333644         7.143600029
    21.372440699        19.997187843        10.256374638
    21.358331105        23.201058227         7.184009384
    21.313704763        23.193478676        10.297189276
    23.972837269        21.579343358         7.150991534
    24.010370032        21.588466198        10.223812564
    24.734573535        24.790408108         8.749561669
     7.554091864        23.213570502         8.714647455
     7.764408030        19.987392071         8.718264799
     7.562400000        15.532200000         8.712450000
     7.562400000        13.212200000         8.712450000
     7.562400000        14.372200000         8.712450000
