Mo48 H4 C1 S98 O1                       
   1.00000000000000     
    33.0000000000000000    0.0000000000000000    0.0000000000000000
     0.0000000000000000   25.5199999999999996    0.0000000000000000
     0.0000000000000000    0.0000000000000000   17.4728999999999992
   Mo   S    O    C    H 
    48    98     1     1     4
Direct
  0.2857850613575808  0.1006461868972547  0.4973875746594196
  0.3696956849073020  0.0322683501570816  0.4980315781815545
  0.2880937233115461  0.2104719692088321  0.4974009519171240
  0.3697336455284624  0.1571181673438130  0.4979122629301612
  0.4524392174874163  0.0949146363076477  0.4985444589172545
  0.5352559051612628  0.0325551160697896  0.4994916711936207
  0.2853337176523765  0.3472313636029797  0.4975555961276190
  0.3684932047193127  0.2828688209262100  0.4980131810317260
  0.4520122030888434  0.2201416869666278  0.4985718059074884
  0.5349441483688142  0.1574391879162783  0.4994633221662458
  0.6170436344986564  0.0950779619128114  0.5014991529728617
  0.2868354991247202  0.4703298343979630  0.4972708383730977
  0.3681905958452678  0.4070831715482505  0.4980798931024567
  0.4514119829558599  0.3449334862423211  0.4988543363460782
  0.5348128697433131  0.2827365336395140  0.4996437531583947
  0.2892914891670961  0.6023322738449273  0.4976105460987562
  0.3686792709782056  0.5321581733229900  0.4983515738095165
  0.4516864349115285  0.4695813391427009  0.4992290258070221
  0.5346899939975570  0.4070657854729552  0.4999210357840669
  0.2858374533948221  0.7134891706410992  0.4976643797225210
  0.3705906190156935  0.6575985268994818  0.4986551624278205
  0.4524397572265498  0.5942902852215212  0.4995996691238376
  0.5349885910953883  0.5320930028751687  0.5002643429593652
  0.4527664376886719  0.7197713022096479  0.4996229030426901
  0.5351837376320688  0.6568453953156681  0.5003951054488747
  0.6183384590217212  0.2201314637194844  0.5010829290422838
  0.7007284614587607  0.0345713223577467  0.5031558942320433
  0.6168255336441398  0.3449737518548238  0.5012000258055325
  0.7006443009167083  0.1557932186344705  0.5050381501321624
  0.6182785329529022  0.4697166639162106  0.5007928222094233
  0.7006022269611389  0.2847593713438200  0.5067206232569281
  0.6170451723725418  0.5945126009554708  0.5000326818289788
  0.7001420950597048  0.4062902204029554  0.4997227540419164
  0.6186180830776409  0.7194118956561254  0.5003335625802027
  0.7003787390242860  0.5333559261134995  0.5019448507108913
  0.7004043854318287  0.6553859841581700  0.4959458212862933
  0.2854114864149652  0.8519863240920191  0.4976664117083398
  0.3698397128711552  0.7820733129569719  0.4986059957723201
  0.2854824338306731  0.9619459665913291  0.4975331560068559
  0.3697018807909684  0.9071339968048798  0.4983431412657867
  0.4524348192983325  0.8447307251398524  0.4993100495343379
  0.5354490462171143  0.7823977571668461  0.5002308851610566
  0.4523474553419392  0.9697816216432011  0.4988443915291239
  0.5352456845534599  0.9071631450248070  0.4998047902629624
  0.6173607812535664  0.8447343817366740  0.5003713322761822
  0.6186699512082773  0.9698837706136024  0.5006129549144850
  0.7004207276012935  0.7833016785212835  0.4953647593402071
  0.7008533304943566  0.9051720768774921  0.5050552569712758
  0.3122556796793474  0.0317495339350364  0.4119030076223046
  0.3119174887327602  0.0318347239660243  0.5833572152881104
  0.3162253868030898  0.1554153866449574  0.4029851639509709
  0.3158859334900277  0.1554016763136244  0.5921290210471442
  0.3974198018625216  0.0944018197346088  0.4088281195972609
  0.3970470391920466  0.0944735696478088  0.5874496063960000
  0.4801937611263458  0.0321873774477871  0.4096033380391473
  0.4796740761054381  0.0323459615916499  0.5882174533746541
  0.3099008598863106  0.2803221295395481  0.4104738576681105
  0.3096002319019805  0.2802145806567363  0.5847605396767833
  0.3967784056604901  0.2209305394781310  0.4092101224539087
  0.3963911299035794  0.2208628782965481  0.5870674934427350
  0.4798996659837363  0.1576273328757851  0.4093551872774732
  0.4793194551494652  0.1576088526662811  0.5882502378896182
  0.5628607829763248  0.0950726829058611  0.4102032220884136
  0.5617493750596610  0.0950347500557022  0.5899223822750944
  0.3115836659901959  0.4080641962687032  0.4072901126781683
  0.3111343435516266  0.4080327199870012  0.5878765325009281
  0.3960832763505113  0.3449532358756850  0.4089469141953656
  0.3955878652208238  0.3448707454231379  0.5877009866221357
  0.4796911353028827  0.2827025521020007  0.4096769346124990
  0.4791244154889185  0.2825482144899942  0.5883041672504432
  0.5631918213986494  0.2201456633669031  0.4109001328297491
  0.5621579838284231  0.2200468968817374  0.5890162059179392
  0.6468462931523677  0.0326241843370754  0.4127761763823034
  0.6456023781435355  0.0321463002112829  0.5907252852543061
  0.6471906943433128  0.1576293947541093  0.4134263901262589
  0.6450126109403528  0.1579206852253587  0.5913125920474885
  0.3114081253824806  0.5345253829786814  0.4096656415787200
  0.3107779316747039  0.5344943858835679  0.5856895106756166
  0.3963885599537560  0.4696773633259567  0.4094642647625313
  0.3958115969376360  0.4695172884859301  0.5877016109708953
  0.4794808107755419  0.4073125966964242  0.4099698552909835
  0.4789366634994188  0.4071166743871604  0.5886647989966857
  0.5624705346493308  0.3448812225975177  0.4102369382116542
  0.5616363558870293  0.3449359520239968  0.5901964128425270
  0.3169084366299402  0.6591407333815098  0.4041478397127444
  0.3162733946971927  0.6590907887965796  0.5918439563190735
  0.3975357982994532  0.5940180589447669  0.4098143161388182
  0.3969094144050396  0.5938460775760829  0.5879827721694554
  0.4799133470746626  0.5318521604664841  0.4103529792094591
  0.4794313123938094  0.5316713889364573  0.5891126640682143
  0.5628286738139280  0.4696629129343087  0.4112206146549928
  0.5624398433683742  0.4694718278452160  0.5895195467023231
  0.3979448458726482  0.7202381640902144  0.4094903378866954
  0.3973749814805437  0.7202645106937773  0.5884625618856661
  0.4801314067890642  0.6570073302554484  0.4105100379262737
  0.4796899820432499  0.6569961059267105  0.5893319573415039
  0.5622676508638643  0.5944244498708864  0.4104310417264481
  0.5623360076815678  0.5945249163297621  0.5902085199148241
  0.5629101568862667  0.7195100109374600  0.4113824185897585
  0.5630800494265201  0.7196024370630431  0.5895289196044299
  0.6478037563849641  0.2827670154779620  0.4136220957797969
  0.6445345107028174  0.2822755698524635  0.5914490328914065
  0.7276006916729808  0.0952703274233787  0.4163284746334300
  0.7261566572943767  0.0951910364351755  0.5933620502867371
  0.6454554204978165  0.4076119903323212  0.4116592885560219
  0.6464213291387525  0.4074056459290921  0.5901724913349691
  0.7491952212957580  0.2204865715574974  0.4984335913595371
  0.6465951195649388  0.5318548743865618  0.4114525327549720
  0.6456654682841642  0.5320626056454683  0.5898966204339140
  0.7274292910625281  0.3460909283807277  0.4154055235853742
  0.7264798019534479  0.3448943995457442  0.5921192572672584
  0.6450510831014747  0.6572589435008662  0.4099945287262902
  0.6474087176324086  0.6568843759240254  0.5883870592245891
  0.7497352415343428  0.4695438366516202  0.5061769819879928
  0.7265948830408506  0.5944442227501264  0.4105123429705954
  0.7274999176346988  0.5942559414948190  0.5862299102276725
  0.7495122289242878  0.7194707231520533  0.5020409031152337
  0.2298567053744821  0.1647375877704287  0.4971815140328004
  0.2196953423356821  0.3445526350397055  0.4973831971874584
  0.2302122902186222  0.6471059173315397  0.4970385146752063
  0.2355656708351498  0.0342811868239862  0.4971282373739379
  0.3123351955588735  0.7823093141117682  0.4123799699182508
  0.3118209370938495  0.7823234978465257  0.5835761986679260
  0.3153188849985920  0.9069232675822585  0.4041150934924925
  0.3148517206923471  0.9070323115961946  0.5916222778595384
  0.3972487995195661  0.8443594621359515  0.4094534898172222
  0.3967558832850237  0.8445244033060910  0.5880623790597456
  0.4803965752818725  0.7822580971247518  0.4103993346259132
  0.4799477990325397  0.7824127719866615  0.5891009890118490
  0.3971314976303380  0.9698275598168201  0.4091053328372454
  0.3967169170347976  0.9700261356755903  0.5876826006784287
  0.4800564154752113  0.9071775573671825  0.4099180933981117
  0.4796216894079703  0.9074262522562575  0.5887123452730725
  0.5627213108917939  0.8448714997935493  0.4102828582533791
  0.5624837411163517  0.8448040050719973  0.5900474322526200
  0.5633680871771692  0.9697673780333318  0.4108485809312030
  0.5626690757694761  0.9699126134453383  0.5889383968163440
  0.6448515305634820  0.7816685678885175  0.4101051229025355
  0.6477432386257744  0.7820661176554576  0.5883280276390229
  0.6479315501980059  0.9072278834968919  0.4125394486986552
  0.6451770146867077  0.9075515158114439  0.5904671867818438
  0.7272033954437311  0.8437564854601985  0.4119866928939706
  0.7274631353618650  0.8447330826777008  0.5882616847980555
  0.7491563978993209  0.9697509206721776  0.4959507132772311
  0.2286126145958992  0.9070775193771236  0.4970898348936941
  0.2352807229142617  0.7794930784168179  0.4972221695458116
  0.2237689227560396  0.4640121059547011  0.5042257963481681
  0.1900430400373572  0.5002095741412451  0.5150917449807748
  0.1657915181101935  0.4898318402669751  0.4749423413973157
  0.1794561045089902  0.4975561549172233  0.5744800571647528
  0.2153822982766224  0.4259162424755902  0.5051084033243930
  0.2015307170105250  0.5396297040438887  0.5030484010537557
 
  0.00000000E+00  0.00000000E+00  0.00000000E+00
  0.00000000E+00  0.00000000E+00  0.00000000E+00
  0.00000000E+00  0.00000000E+00  0.00000000E+00
  0.00000000E+00  0.00000000E+00  0.00000000E+00
  0.00000000E+00  0.00000000E+00  0.00000000E+00
  0.00000000E+00  0.00000000E+00  0.00000000E+00
  0.00000000E+00  0.00000000E+00  0.00000000E+00
  0.00000000E+00  0.00000000E+00  0.00000000E+00
  0.00000000E+00  0.00000000E+00  0.00000000E+00
  0.00000000E+00  0.00000000E+00  0.00000000E+00
  0.00000000E+00  0.00000000E+00  0.00000000E+00
  0.00000000E+00  0.00000000E+00  0.00000000E+00
  0.00000000E+00  0.00000000E+00  0.00000000E+00
  0.00000000E+00  0.00000000E+00  0.00000000E+00
  0.00000000E+00  0.00000000E+00  0.00000000E+00
  0.00000000E+00  0.00000000E+00  0.00000000E+00
  0.00000000E+00  0.00000000E+00  0.00000000E+00
  0.00000000E+00  0.00000000E+00  0.00000000E+00
  0.00000000E+00  0.00000000E+00  0.00000000E+00
  0.00000000E+00  0.00000000E+00  0.00000000E+00
  0.00000000E+00  0.00000000E+00  0.00000000E+00
  0.00000000E+00  0.00000000E+00  0.00000000E+00
  0.00000000E+00  0.00000000E+00  0.00000000E+00
  0.00000000E+00  0.00000000E+00  0.00000000E+00
  0.00000000E+00  0.00000000E+00  0.00000000E+00
  0.00000000E+00  0.00000000E+00  0.00000000E+00
  0.00000000E+00  0.00000000E+00  0.00000000E+00
  0.00000000E+00  0.00000000E+00  0.00000000E+00
  0.00000000E+00  0.00000000E+00  0.00000000E+00
  0.00000000E+00  0.00000000E+00  0.00000000E+00
  0.00000000E+00  0.00000000E+00  0.00000000E+00
  0.00000000E+00  0.00000000E+00  0.00000000E+00
  0.00000000E+00  0.00000000E+00  0.00000000E+00
  0.00000000E+00  0.00000000E+00  0.00000000E+00
  0.00000000E+00  0.00000000E+00  0.00000000E+00
  0.00000000E+00  0.00000000E+00  0.00000000E+00
  0.00000000E+00  0.00000000E+00  0.00000000E+00
  0.00000000E+00  0.00000000E+00  0.00000000E+00
  0.00000000E+00  0.00000000E+00  0.00000000E+00
  0.00000000E+00  0.00000000E+00  0.00000000E+00
  0.00000000E+00  0.00000000E+00  0.00000000E+00
  0.00000000E+00  0.00000000E+00  0.00000000E+00
  0.00000000E+00  0.00000000E+00  0.00000000E+00
  0.00000000E+00  0.00000000E+00  0.00000000E+00
  0.00000000E+00  0.00000000E+00  0.00000000E+00
  0.00000000E+00  0.00000000E+00  0.00000000E+00
  0.00000000E+00  0.00000000E+00  0.00000000E+00
  0.00000000E+00  0.00000000E+00  0.00000000E+00
  0.00000000E+00  0.00000000E+00  0.00000000E+00
  0.00000000E+00  0.00000000E+00  0.00000000E+00
  0.00000000E+00  0.00000000E+00  0.00000000E+00
  0.00000000E+00  0.00000000E+00  0.00000000E+00
  0.00000000E+00  0.00000000E+00  0.00000000E+00
  0.00000000E+00  0.00000000E+00  0.00000000E+00
  0.00000000E+00  0.00000000E+00  0.00000000E+00
  0.00000000E+00  0.00000000E+00  0.00000000E+00
  0.00000000E+00  0.00000000E+00  0.00000000E+00
  0.00000000E+00  0.00000000E+00  0.00000000E+00
  0.00000000E+00  0.00000000E+00  0.00000000E+00
  0.00000000E+00  0.00000000E+00  0.00000000E+00
  0.00000000E+00  0.00000000E+00  0.00000000E+00
  0.00000000E+00  0.00000000E+00  0.00000000E+00
  0.00000000E+00  0.00000000E+00  0.00000000E+00
  0.00000000E+00  0.00000000E+00  0.00000000E+00
  0.00000000E+00  0.00000000E+00  0.00000000E+00
  0.00000000E+00  0.00000000E+00  0.00000000E+00
  0.00000000E+00  0.00000000E+00  0.00000000E+00
  0.00000000E+00  0.00000000E+00  0.00000000E+00
  0.00000000E+00  0.00000000E+00  0.00000000E+00
  0.00000000E+00  0.00000000E+00  0.00000000E+00
  0.00000000E+00  0.00000000E+00  0.00000000E+00
  0.00000000E+00  0.00000000E+00  0.00000000E+00
  0.00000000E+00  0.00000000E+00  0.00000000E+00
  0.00000000E+00  0.00000000E+00  0.00000000E+00
  0.00000000E+00  0.00000000E+00  0.00000000E+00
  0.00000000E+00  0.00000000E+00  0.00000000E+00
  0.00000000E+00  0.00000000E+00  0.00000000E+00
  0.00000000E+00  0.00000000E+00  0.00000000E+00
  0.00000000E+00  0.00000000E+00  0.00000000E+00
  0.00000000E+00  0.00000000E+00  0.00000000E+00
  0.00000000E+00  0.00000000E+00  0.00000000E+00
  0.00000000E+00  0.00000000E+00  0.00000000E+00
  0.00000000E+00  0.00000000E+00  0.00000000E+00
  0.00000000E+00  0.00000000E+00  0.00000000E+00
  0.00000000E+00  0.00000000E+00  0.00000000E+00
  0.00000000E+00  0.00000000E+00  0.00000000E+00
  0.00000000E+00  0.00000000E+00  0.00000000E+00
  0.00000000E+00  0.00000000E+00  0.00000000E+00
  0.00000000E+00  0.00000000E+00  0.00000000E+00
  0.00000000E+00  0.00000000E+00  0.00000000E+00
  0.00000000E+00  0.00000000E+00  0.00000000E+00
  0.00000000E+00  0.00000000E+00  0.00000000E+00
  0.00000000E+00  0.00000000E+00  0.00000000E+00
  0.00000000E+00  0.00000000E+00  0.00000000E+00
  0.00000000E+00  0.00000000E+00  0.00000000E+00
  0.00000000E+00  0.00000000E+00  0.00000000E+00
  0.00000000E+00  0.00000000E+00  0.00000000E+00
  0.00000000E+00  0.00000000E+00  0.00000000E+00
  0.00000000E+00  0.00000000E+00  0.00000000E+00
  0.00000000E+00  0.00000000E+00  0.00000000E+00
  0.00000000E+00  0.00000000E+00  0.00000000E+00
  0.00000000E+00  0.00000000E+00  0.00000000E+00
  0.00000000E+00  0.00000000E+00  0.00000000E+00
  0.00000000E+00  0.00000000E+00  0.00000000E+00
  0.00000000E+00  0.00000000E+00  0.00000000E+00
  0.00000000E+00  0.00000000E+00  0.00000000E+00
  0.00000000E+00  0.00000000E+00  0.00000000E+00
  0.00000000E+00  0.00000000E+00  0.00000000E+00
  0.00000000E+00  0.00000000E+00  0.00000000E+00
  0.00000000E+00  0.00000000E+00  0.00000000E+00
  0.00000000E+00  0.00000000E+00  0.00000000E+00
  0.00000000E+00  0.00000000E+00  0.00000000E+00
  0.00000000E+00  0.00000000E+00  0.00000000E+00
  0.00000000E+00  0.00000000E+00  0.00000000E+00
  0.00000000E+00  0.00000000E+00  0.00000000E+00
  0.00000000E+00  0.00000000E+00  0.00000000E+00
  0.00000000E+00  0.00000000E+00  0.00000000E+00
  0.00000000E+00  0.00000000E+00  0.00000000E+00
  0.00000000E+00  0.00000000E+00  0.00000000E+00
  0.00000000E+00  0.00000000E+00  0.00000000E+00
  0.00000000E+00  0.00000000E+00  0.00000000E+00
  0.00000000E+00  0.00000000E+00  0.00000000E+00
  0.00000000E+00  0.00000000E+00  0.00000000E+00
  0.00000000E+00  0.00000000E+00  0.00000000E+00
  0.00000000E+00  0.00000000E+00  0.00000000E+00
  0.00000000E+00  0.00000000E+00  0.00000000E+00
  0.00000000E+00  0.00000000E+00  0.00000000E+00
  0.00000000E+00  0.00000000E+00  0.00000000E+00
  0.00000000E+00  0.00000000E+00  0.00000000E+00
  0.00000000E+00  0.00000000E+00  0.00000000E+00
  0.00000000E+00  0.00000000E+00  0.00000000E+00
  0.00000000E+00  0.00000000E+00  0.00000000E+00
  0.00000000E+00  0.00000000E+00  0.00000000E+00
  0.00000000E+00  0.00000000E+00  0.00000000E+00
  0.00000000E+00  0.00000000E+00  0.00000000E+00
  0.00000000E+00  0.00000000E+00  0.00000000E+00
  0.00000000E+00  0.00000000E+00  0.00000000E+00
  0.00000000E+00  0.00000000E+00  0.00000000E+00
  0.00000000E+00  0.00000000E+00  0.00000000E+00
  0.00000000E+00  0.00000000E+00  0.00000000E+00
  0.00000000E+00  0.00000000E+00  0.00000000E+00
  0.00000000E+00  0.00000000E+00  0.00000000E+00
  0.00000000E+00  0.00000000E+00  0.00000000E+00
  0.00000000E+00  0.00000000E+00  0.00000000E+00
  0.00000000E+00  0.00000000E+00  0.00000000E+00
  0.00000000E+00  0.00000000E+00  0.00000000E+00
  0.00000000E+00  0.00000000E+00  0.00000000E+00
  0.00000000E+00  0.00000000E+00  0.00000000E+00
  0.00000000E+00  0.00000000E+00  0.00000000E+00
  0.00000000E+00  0.00000000E+00  0.00000000E+00
  0.00000000E+00  0.00000000E+00  0.00000000E+00
  0.00000000E+00  0.00000000E+00  0.00000000E+00
