W36 Se72                                
   1.00000000000000     
    19.6920000000000002    0.0000000000000000    0.0000000000000012
    -9.8459999999999965   17.0537722513231707    0.0000000000000012
     0.0000000000000000    0.0000000000000000   25.9200000000000017
   W    Se
    36    70
Direct
  0.1229815569890462  0.0487321249317958  0.5003850593885772
  0.1266719766450208  0.2160778245675488  0.5007405995723389
  0.1230097090254603  0.3797856896678411  0.5002767019591587
  0.1206605855390137  0.5458909638130933  0.5007113163540637
  0.1199839219126062  0.7127927765110798  0.5010985201970257
  0.1206202577633988  0.8803329692049573  0.5007690599075403
  0.2882458986614722  0.0487566994519497  0.4976086135296001
  0.2978887308748881  0.2195792358764947  0.4928497789263133
  0.2978584624683904  0.3837782207532712  0.4928131882458402
  0.2882615337158825  0.5450149187991329  0.4975709205953933
  0.2871668849041029  0.7125188186277001  0.5003613809972904
  0.2871362648269979  0.8801963467364686  0.5003784091539387
  0.4536225843034032  0.0473641850621647  0.5000601686302062
  0.4491136351403142  0.2164106822965266  0.4942914006468513
  0.4466221161439634  0.3760541229140486  0.4884798231359397
  0.4491198321717675  0.5382442355485679  0.4943171690459636
  0.4536442094576572  0.7118164203088426  0.5000904006380011
  0.4535383076701791  0.8795295846523388  0.5013625679979867
  0.6203632816559832  0.0465358841375831  0.5023001652635557
  0.6185945446057204  0.2129484168785041  0.5007930761386419
  0.6141113652598449  0.3776453231385091  0.4980568790388986
  0.6141077873203571  0.5420224815677415  0.4980919124884906
  0.6186036620448263  0.7112294504041614  0.5008479525901279
  0.6204123298578352  0.8794270783327534  0.5023082720038659
  0.7879074301404287  0.0467430585413808  0.5033518209499590
  0.7870283210925919  0.2132391001615233  0.5028393028946070
  0.7850531521396391  0.3790115193232495  0.5017459652589977
  0.7840414863028329  0.5448256575723391  0.5010721441047963
  0.7850146893936341  0.7115915361392098  0.5017948504781344
  0.7870445961175037  0.8793910300187875  0.5028998070788120
  0.9558139421561691  0.0476657164279644  0.5029501298086245
  0.9558133507805593  0.2137089508354180  0.5028822552933221
  0.9542431379674312  0.3797193267258692  0.5022188325829333
  0.9526225729730555  0.5457862784550187  0.5017471038161503
  0.9525944613538257  0.7124160377654292  0.5017860178504634
  0.9541928407919826  0.8800733487922940  0.5023158748093479
  0.0705719168533392  0.1056426326131259  0.5666556943001169
  0.0705528952858998  0.2705103908772415  0.5665675153704655
  0.0676683305204833  0.4353590239222811  0.5662140238944389
  0.0650203070716984  0.6014981719745052  0.5662870213294440
  0.0649722446320382  0.7690872156602069  0.5663176021599909
  0.0675941454927127  0.9377968640272343  0.5663183436892254
  0.2404881784392217  0.1118570673607735  0.5618173740884913
  0.2529556464048639  0.2792380556804375  0.5611421035672137
  0.2404481585873839  0.4341185098430032  0.5617453905177427
  0.2333489561909374  0.6000760837206585  0.5645448858487612
  0.2319423896512092  0.7687610506587745  0.5656841625565860
  0.2333374109764321  0.9388308505156786  0.5645987065919158
  0.3980497058884467  0.1084833681527186  0.5624258551822479
  0.3980157089714922  0.5951085515731052  0.5624332639380185
  0.3977485649810362  0.7668018255617284  0.5658315589849678
  0.3977636589541689  0.9365468586469774  0.5658178650144663
  0.5631484833024700  0.1025759184387098  0.5664121213084101
  0.5558224235736162  0.2681009466754674  0.5629510781464546
  0.5446381037632619  0.4250819112995075  0.5604412200321107
  0.5558046010862085  0.5933032156138296  0.5629890832187598
  0.5632161994650176  0.7662731663044156  0.5664417624908964
  0.5639677111572752  0.9347744067330765  0.5672556708827869
  0.7311864229110583  0.1021466062025382  0.5680921599138458
  0.7288390750092404  0.2684560944081440  0.5670823127246081
  0.7244227328741815  0.4326105516823660  0.5651729938038770
  0.7244213608041363  0.5973696950649057  0.5652236932476313
  0.7288502818644886  0.7659760445510955  0.5671283893704455
  0.7312388620782784  0.9346868349160928  0.5681450980504863
  0.9001858568865941  0.1029015509058908  0.5683798817231320
  0.8992715880859308  0.2691884124209878  0.5678161876496119
  0.8968820580712347  0.4347770572534060  0.5669795307707730
  0.8954661922913019  0.6005014182470205  0.5666119873063380
  0.8967975134099717  0.7675995053806020  0.5670425084943034
  0.8992499675332439  0.9356518229355970  0.5679136229570574
  0.0657583668129647  0.1035095302121150  0.4367013600952134
  0.0658002997067229  0.2676981423131721  0.4366273514193608
  0.0644088293180545  0.4342493792549504  0.4360707125565000
  0.0635676498224171  0.6011792970889189  0.4361740370819689
  0.0635286831834776  0.7679787123513009  0.4362058249215295
  0.0643134754715362  0.9356984275667770  0.4361607815818616
  0.2312301635892666  0.1027413819668084  0.4321847488992461
  0.2328321333999099  0.2690978538952464  0.4309308818559643
  0.2312963062217719  0.4340047561748150  0.4321060276727096
  0.2307789548281960  0.6019551425979017  0.4345147177915223
  0.2309229955548702  0.7682435451759630  0.4355895839421109
  0.2307127562401021  0.9343498694643841  0.4345544018882848
  0.3996024904559832  0.1021497292351583  0.4324420264086584
  0.4001730981465457  0.2687964940242793  0.4228382862951534
  0.4002007329697861  0.4369054845306266  0.4228637846503247
  0.3996519236998139  0.6029929247943429  0.4324580235668662
  0.3986768879313658  0.7690228714303515  0.4355000498222523
  0.3986422924432986  0.9351112447921963  0.4355117110320563
  0.5658052845069719  0.1017590757747371  0.4359956631792130
  0.5639680505434868  0.2669809039157869  0.4330251304402708
  0.5633764447270266  0.4344679186935636  0.4295597367342623
  0.5640017542933364  0.6025675264337167  0.4330718836766465
  0.5658058371159527  0.7695522225064479  0.4360264062063521
  0.5656723427414647  0.9355824341640115  0.4369343163359218
  0.7324489986699234  0.1020345545055150  0.4378025221961579
  0.7315071614014812  0.2679994101679810  0.4367851266445228
  0.7299824037572122  0.4341727836800118  0.4356521590340208
  0.7299495009547670  0.6014117293037273  0.4356581786272287
  0.7314942279602121  0.7690771721065985  0.4368453122098828
  0.7324948557828321  0.9359732636449110  0.4378250839266116
  0.8991471364191952  0.1023291123876788  0.4380854149351521
  0.8986122882772989  0.2680541598505002  0.4377106816983556
  0.8972587093097886  0.4342802670624550  0.4369843026952935
  0.8966399660999969  0.6011383482711992  0.4365626743432074
  0.8972149771510161  0.7685664501349549  0.4370609038024540
  0.8986196141140752  0.9361255260056751  0.4377995514291726
 
  0.00000000E+00  0.00000000E+00  0.00000000E+00
  0.00000000E+00  0.00000000E+00  0.00000000E+00
  0.00000000E+00  0.00000000E+00  0.00000000E+00
  0.00000000E+00  0.00000000E+00  0.00000000E+00
  0.00000000E+00  0.00000000E+00  0.00000000E+00
  0.00000000E+00  0.00000000E+00  0.00000000E+00
  0.00000000E+00  0.00000000E+00  0.00000000E+00
  0.00000000E+00  0.00000000E+00  0.00000000E+00
  0.00000000E+00  0.00000000E+00  0.00000000E+00
  0.00000000E+00  0.00000000E+00  0.00000000E+00
  0.00000000E+00  0.00000000E+00  0.00000000E+00
  0.00000000E+00  0.00000000E+00  0.00000000E+00
  0.00000000E+00  0.00000000E+00  0.00000000E+00
  0.00000000E+00  0.00000000E+00  0.00000000E+00
  0.00000000E+00  0.00000000E+00  0.00000000E+00
  0.00000000E+00  0.00000000E+00  0.00000000E+00
  0.00000000E+00  0.00000000E+00  0.00000000E+00
  0.00000000E+00  0.00000000E+00  0.00000000E+00
  0.00000000E+00  0.00000000E+00  0.00000000E+00
  0.00000000E+00  0.00000000E+00  0.00000000E+00
  0.00000000E+00  0.00000000E+00  0.00000000E+00
  0.00000000E+00  0.00000000E+00  0.00000000E+00
  0.00000000E+00  0.00000000E+00  0.00000000E+00
  0.00000000E+00  0.00000000E+00  0.00000000E+00
  0.00000000E+00  0.00000000E+00  0.00000000E+00
  0.00000000E+00  0.00000000E+00  0.00000000E+00
  0.00000000E+00  0.00000000E+00  0.00000000E+00
  0.00000000E+00  0.00000000E+00  0.00000000E+00
  0.00000000E+00  0.00000000E+00  0.00000000E+00
  0.00000000E+00  0.00000000E+00  0.00000000E+00
  0.00000000E+00  0.00000000E+00  0.00000000E+00
  0.00000000E+00  0.00000000E+00  0.00000000E+00
  0.00000000E+00  0.00000000E+00  0.00000000E+00
  0.00000000E+00  0.00000000E+00  0.00000000E+00
  0.00000000E+00  0.00000000E+00  0.00000000E+00
  0.00000000E+00  0.00000000E+00  0.00000000E+00
  0.00000000E+00  0.00000000E+00  0.00000000E+00
  0.00000000E+00  0.00000000E+00  0.00000000E+00
  0.00000000E+00  0.00000000E+00  0.00000000E+00
  0.00000000E+00  0.00000000E+00  0.00000000E+00
  0.00000000E+00  0.00000000E+00  0.00000000E+00
  0.00000000E+00  0.00000000E+00  0.00000000E+00
  0.00000000E+00  0.00000000E+00  0.00000000E+00
  0.00000000E+00  0.00000000E+00  0.00000000E+00
  0.00000000E+00  0.00000000E+00  0.00000000E+00
  0.00000000E+00  0.00000000E+00  0.00000000E+00
  0.00000000E+00  0.00000000E+00  0.00000000E+00
  0.00000000E+00  0.00000000E+00  0.00000000E+00
  0.00000000E+00  0.00000000E+00  0.00000000E+00
  0.00000000E+00  0.00000000E+00  0.00000000E+00
  0.00000000E+00  0.00000000E+00  0.00000000E+00
  0.00000000E+00  0.00000000E+00  0.00000000E+00
  0.00000000E+00  0.00000000E+00  0.00000000E+00
  0.00000000E+00  0.00000000E+00  0.00000000E+00
  0.00000000E+00  0.00000000E+00  0.00000000E+00
  0.00000000E+00  0.00000000E+00  0.00000000E+00
  0.00000000E+00  0.00000000E+00  0.00000000E+00
  0.00000000E+00  0.00000000E+00  0.00000000E+00
  0.00000000E+00  0.00000000E+00  0.00000000E+00
  0.00000000E+00  0.00000000E+00  0.00000000E+00
  0.00000000E+00  0.00000000E+00  0.00000000E+00
  0.00000000E+00  0.00000000E+00  0.00000000E+00
  0.00000000E+00  0.00000000E+00  0.00000000E+00
  0.00000000E+00  0.00000000E+00  0.00000000E+00
  0.00000000E+00  0.00000000E+00  0.00000000E+00
  0.00000000E+00  0.00000000E+00  0.00000000E+00
  0.00000000E+00  0.00000000E+00  0.00000000E+00
  0.00000000E+00  0.00000000E+00  0.00000000E+00
  0.00000000E+00  0.00000000E+00  0.00000000E+00
  0.00000000E+00  0.00000000E+00  0.00000000E+00
  0.00000000E+00  0.00000000E+00  0.00000000E+00
  0.00000000E+00  0.00000000E+00  0.00000000E+00
  0.00000000E+00  0.00000000E+00  0.00000000E+00
  0.00000000E+00  0.00000000E+00  0.00000000E+00
  0.00000000E+00  0.00000000E+00  0.00000000E+00
  0.00000000E+00  0.00000000E+00  0.00000000E+00
  0.00000000E+00  0.00000000E+00  0.00000000E+00
  0.00000000E+00  0.00000000E+00  0.00000000E+00
  0.00000000E+00  0.00000000E+00  0.00000000E+00
  0.00000000E+00  0.00000000E+00  0.00000000E+00
  0.00000000E+00  0.00000000E+00  0.00000000E+00
  0.00000000E+00  0.00000000E+00  0.00000000E+00
  0.00000000E+00  0.00000000E+00  0.00000000E+00
  0.00000000E+00  0.00000000E+00  0.00000000E+00
  0.00000000E+00  0.00000000E+00  0.00000000E+00
  0.00000000E+00  0.00000000E+00  0.00000000E+00
  0.00000000E+00  0.00000000E+00  0.00000000E+00
  0.00000000E+00  0.00000000E+00  0.00000000E+00
  0.00000000E+00  0.00000000E+00  0.00000000E+00
  0.00000000E+00  0.00000000E+00  0.00000000E+00
  0.00000000E+00  0.00000000E+00  0.00000000E+00
  0.00000000E+00  0.00000000E+00  0.00000000E+00
  0.00000000E+00  0.00000000E+00  0.00000000E+00
  0.00000000E+00  0.00000000E+00  0.00000000E+00
  0.00000000E+00  0.00000000E+00  0.00000000E+00
  0.00000000E+00  0.00000000E+00  0.00000000E+00
  0.00000000E+00  0.00000000E+00  0.00000000E+00
  0.00000000E+00  0.00000000E+00  0.00000000E+00
  0.00000000E+00  0.00000000E+00  0.00000000E+00
  0.00000000E+00  0.00000000E+00  0.00000000E+00
  0.00000000E+00  0.00000000E+00  0.00000000E+00
  0.00000000E+00  0.00000000E+00  0.00000000E+00
  0.00000000E+00  0.00000000E+00  0.00000000E+00
  0.00000000E+00  0.00000000E+00  0.00000000E+00
  0.00000000E+00  0.00000000E+00  0.00000000E+00
  0.00000000E+00  0.00000000E+00  0.00000000E+00
