W36 Se72                                
   1.00000000000000     
    19.6920000000000002    0.0000000000000000    0.0000000000000012
    -9.8459999999999965   17.0537722513231707    0.0000000000000012
     0.0000000000000000    0.0000000000000000   25.9200000000000017
   W    Se
    36    72
Direct
  0.1203613291838295  0.0463053299872200  0.4999999998207514
  0.1203613200656974  0.2129720050608128  0.4999999994083595
  0.1203613244534409  0.3796386716134563  0.5000000004739320
  0.1203613129056151  0.5463053334909915  0.5000000007797993
  0.1203613243595285  0.7129719972332964  0.5000000004159233
  0.1203613337687983  0.8796386661322444  0.4999999996164846
  0.2870280044970883  0.0463053451527102  0.5000000006019931
  0.2870280123451749  0.2129720109602502  0.5000000000908997
  0.2870280026271175  0.3796386704666190  0.5000000001143690
  0.2870279979937109  0.5463053356789587  0.5000000003428227
  0.2870279911796203  0.7129719947856117  0.4999999993035615
  0.2870279895992454  0.8796386727460970  0.4999999999236522
  0.4536946631568028  0.0463053369921127  0.4999999997841300
  0.4536946593718056  0.2129720064897924  0.5000000007196022
  0.4536946595177724  0.3796386596347361  0.4999999999505107
  0.4536946620005580  0.5463053479039033  0.4999999996481819
  0.4536946721384609  0.7129720071064511  0.5000000006809699
  0.4536946723829161  0.8796386688886528  0.4999999986156709
  0.6203613294666397  0.0463053338679273  0.4999999997706013
  0.6203613225336611  0.2129719975935416  0.4999999985833341
  0.6203613233748086  0.3796386706890686  0.5000000008057626
  0.6203613360229028  0.5463053390941255  0.4999999993690949
  0.6203613209246939  0.7129720001695503  0.4999999998013962
  0.6203613221185975  0.8796386651819716  0.4999999998943920
  0.7870280070748521  0.0463053446603823  0.5000000005612648
  0.7870280018723932  0.2129719912046113  0.5000000003923404
  0.7870280023704836  0.3796386822916915  0.4999999983755998
  0.7870279944720124  0.5463053337833017  0.4999999994658353
  0.7870279981264474  0.7129720091684746  0.5000000007300756
  0.7870280052075245  0.8796386731718613  0.5000000008267520
  0.9536946511612996  0.0463053401635065  0.4999999994297042
  0.9536946583421297  0.2129719988045835  0.5000000005667005
  0.9536946810742393  0.3796386883402150  0.5000000001529372
  0.9536946764695742  0.5463053362000423  0.5000000008928609
  0.9536946664556751  0.7129719994547230  0.4999999992059827
  0.9536946522604239  0.8796386630109012  0.4999999997294822
  0.0648193330911582  0.1018473328746197  0.5652662698717137
  0.0648193334199973  0.2685139964601930  0.5652662667022668
  0.0648193344467103  0.4351806677728192  0.5652662654717417
  0.0648193340441878  0.6018473286451709  0.5652662595691282
  0.0648193393098637  0.7685140017616447  0.5652662666851782
  0.0648193350717818  0.9351806624111063  0.5652662682695464
  0.2314860067441700  0.1018473331075214  0.5652662675793039
  0.2314860046303338  0.2685140000131199  0.5652662642497575
  0.2314860024664185  0.4351806649094598  0.5652662678464395
  0.2314859990561970  0.6018473302268674  0.5652662689321701
  0.2314859992721026  0.7685139985944218  0.5652662689680312
  0.2314859998409275  0.9351806636085840  0.5652662632520062
  0.3981526661241261  0.1018473316068409  0.5652662643086188
  0.3981526673688975  0.2685139968163313  0.5652662642050430
  0.3981526657723293  0.4351806629411854  0.5652662657012471
  0.3981526707399325  0.6018473330459173  0.5652662650750955
  0.3981526729901503  0.7685140005870252  0.5652662661710295
  0.3981526699680131  0.9351806660832622  0.5652662678424960
  0.5648193363234881  0.1018473321945308  0.5652662671321025
  0.5648193363919489  0.2685140016051406  0.5652662651438547
  0.5648193375065347  0.4351806619984018  0.5652662677134188
  0.5648193347142936  0.6018473328235316  0.5652662685573020
  0.5648193307890210  0.7685139954170523  0.5652662637757189
  0.5648193333369491  0.9351806659508952  0.5652662662422046
  0.7314860010990856  0.1018473327990890  0.5652662650095692
  0.7314859989580000  0.2685139951471811  0.5652662719098274
  0.7314859994176288  0.4351806664800222  0.5652662671684894
  0.7314860025862870  0.6018473307870451  0.5652662663643824
  0.7314860035941138  0.7685139965518886  0.5652662645875068
  0.7314860026009384  0.9351806663668896  0.5652662676345344
  0.8981526694756425  0.1018473322881377  0.5652662621130347
  0.8981526683143031  0.2685139968104338  0.5652662650837357
  0.8981526717437021  0.4351806690905846  0.5652662671024160
  0.8981526654966601  0.6018473273549674  0.5652662671158311
  0.8981526666874373  0.7685140004261442  0.5652662666268995
  0.8981526688719867  0.9351806638889499  0.5652662637405186
  0.0648193336801199  0.1018473336247965  0.4347337291283040
  0.0648193340136416  0.2685139958577309  0.4347337319018436
  0.0648193343007648  0.4351806664164499  0.4347337348704770
  0.0648193345812729  0.6018473290654711  0.4347337405714882
  0.0648193394934324  0.7685140020678887  0.4347337332732479
  0.0648193349924497  0.9351806623306089  0.4347337315408240
  0.2314860063185264  0.1018473333417091  0.4347337320131643
  0.2314860036949540  0.2685139994164985  0.4347337344629807
  0.2314860018021037  0.4351806636884277  0.4347337316150615
  0.2314859989281004  0.6018473306453913  0.4347337320661566
  0.2314859993542200  0.7685139986923346  0.4347337303968430
  0.2314859995838745  0.9351806631540072  0.4347337365668338
  0.3981526653568537  0.1018473309254517  0.4347337351179661
  0.3981526656385768  0.2685139962233194  0.4347337358524328
  0.3981526646625753  0.4351806618583751  0.4347337338624087
  0.3981526707342411  0.6018473324562521  0.4347337364090151
  0.3981526719091377  0.7685140010205629  0.4347337342033057
  0.3981526700441407  0.9351806655681045  0.4347337318997333
  0.5648193357289983  0.1018473312395471  0.4347337336939958
  0.5648193356651490  0.2685140002558128  0.4347337363865904
  0.5648193365457672  0.4351806621946182  0.4347337330403533
  0.5648193348396759  0.6018473327883243  0.4347337315423729
  0.5648193319309485  0.7685139962329188  0.4347337357781527
  0.5648193326177235  0.9351806652062464  0.4347337329833678
  0.7314860007479780  0.1018473323469991  0.4347337347302229
  0.7314859992601512  0.2685139955410918  0.4347337297515494
  0.7314860005741011  0.4351806667342473  0.4347337343284465
  0.7314860021985865  0.6018473308684520  0.4347337346805205
  0.7314860034939770  0.7685139971180774  0.4347337344277520
  0.7314860027886425  0.9351806664911066  0.4347337308496435
  0.8981526698640963  0.1018473321723050  0.4347337377476705
  0.8981526684162020  0.2685139963185605  0.4347337350676597
  0.8981526712522481  0.4351806680790062  0.4347337339241335
  0.8981526659576602  0.6018473284590158  0.4347337339549426
  0.8981526670668956  0.7685140009132496  0.4347337334697841
  0.8981526688213677  0.9351806640656619  0.4347337353228724
 
  0.00000000E+00  0.00000000E+00  0.00000000E+00
  0.00000000E+00  0.00000000E+00  0.00000000E+00
  0.00000000E+00  0.00000000E+00  0.00000000E+00
  0.00000000E+00  0.00000000E+00  0.00000000E+00
  0.00000000E+00  0.00000000E+00  0.00000000E+00
  0.00000000E+00  0.00000000E+00  0.00000000E+00
  0.00000000E+00  0.00000000E+00  0.00000000E+00
  0.00000000E+00  0.00000000E+00  0.00000000E+00
  0.00000000E+00  0.00000000E+00  0.00000000E+00
  0.00000000E+00  0.00000000E+00  0.00000000E+00
  0.00000000E+00  0.00000000E+00  0.00000000E+00
  0.00000000E+00  0.00000000E+00  0.00000000E+00
  0.00000000E+00  0.00000000E+00  0.00000000E+00
  0.00000000E+00  0.00000000E+00  0.00000000E+00
  0.00000000E+00  0.00000000E+00  0.00000000E+00
  0.00000000E+00  0.00000000E+00  0.00000000E+00
  0.00000000E+00  0.00000000E+00  0.00000000E+00
  0.00000000E+00  0.00000000E+00  0.00000000E+00
  0.00000000E+00  0.00000000E+00  0.00000000E+00
  0.00000000E+00  0.00000000E+00  0.00000000E+00
  0.00000000E+00  0.00000000E+00  0.00000000E+00
  0.00000000E+00  0.00000000E+00  0.00000000E+00
  0.00000000E+00  0.00000000E+00  0.00000000E+00
  0.00000000E+00  0.00000000E+00  0.00000000E+00
  0.00000000E+00  0.00000000E+00  0.00000000E+00
  0.00000000E+00  0.00000000E+00  0.00000000E+00
  0.00000000E+00  0.00000000E+00  0.00000000E+00
  0.00000000E+00  0.00000000E+00  0.00000000E+00
  0.00000000E+00  0.00000000E+00  0.00000000E+00
  0.00000000E+00  0.00000000E+00  0.00000000E+00
  0.00000000E+00  0.00000000E+00  0.00000000E+00
  0.00000000E+00  0.00000000E+00  0.00000000E+00
  0.00000000E+00  0.00000000E+00  0.00000000E+00
  0.00000000E+00  0.00000000E+00  0.00000000E+00
  0.00000000E+00  0.00000000E+00  0.00000000E+00
  0.00000000E+00  0.00000000E+00  0.00000000E+00
  0.00000000E+00  0.00000000E+00  0.00000000E+00
  0.00000000E+00  0.00000000E+00  0.00000000E+00
  0.00000000E+00  0.00000000E+00  0.00000000E+00
  0.00000000E+00  0.00000000E+00  0.00000000E+00
  0.00000000E+00  0.00000000E+00  0.00000000E+00
  0.00000000E+00  0.00000000E+00  0.00000000E+00
  0.00000000E+00  0.00000000E+00  0.00000000E+00
  0.00000000E+00  0.00000000E+00  0.00000000E+00
  0.00000000E+00  0.00000000E+00  0.00000000E+00
  0.00000000E+00  0.00000000E+00  0.00000000E+00
  0.00000000E+00  0.00000000E+00  0.00000000E+00
  0.00000000E+00  0.00000000E+00  0.00000000E+00
  0.00000000E+00  0.00000000E+00  0.00000000E+00
  0.00000000E+00  0.00000000E+00  0.00000000E+00
  0.00000000E+00  0.00000000E+00  0.00000000E+00
  0.00000000E+00  0.00000000E+00  0.00000000E+00
  0.00000000E+00  0.00000000E+00  0.00000000E+00
  0.00000000E+00  0.00000000E+00  0.00000000E+00
  0.00000000E+00  0.00000000E+00  0.00000000E+00
  0.00000000E+00  0.00000000E+00  0.00000000E+00
  0.00000000E+00  0.00000000E+00  0.00000000E+00
  0.00000000E+00  0.00000000E+00  0.00000000E+00
  0.00000000E+00  0.00000000E+00  0.00000000E+00
  0.00000000E+00  0.00000000E+00  0.00000000E+00
  0.00000000E+00  0.00000000E+00  0.00000000E+00
  0.00000000E+00  0.00000000E+00  0.00000000E+00
  0.00000000E+00  0.00000000E+00  0.00000000E+00
  0.00000000E+00  0.00000000E+00  0.00000000E+00
  0.00000000E+00  0.00000000E+00  0.00000000E+00
  0.00000000E+00  0.00000000E+00  0.00000000E+00
  0.00000000E+00  0.00000000E+00  0.00000000E+00
  0.00000000E+00  0.00000000E+00  0.00000000E+00
  0.00000000E+00  0.00000000E+00  0.00000000E+00
  0.00000000E+00  0.00000000E+00  0.00000000E+00
  0.00000000E+00  0.00000000E+00  0.00000000E+00
  0.00000000E+00  0.00000000E+00  0.00000000E+00
  0.00000000E+00  0.00000000E+00  0.00000000E+00
  0.00000000E+00  0.00000000E+00  0.00000000E+00
  0.00000000E+00  0.00000000E+00  0.00000000E+00
  0.00000000E+00  0.00000000E+00  0.00000000E+00
  0.00000000E+00  0.00000000E+00  0.00000000E+00
  0.00000000E+00  0.00000000E+00  0.00000000E+00
  0.00000000E+00  0.00000000E+00  0.00000000E+00
  0.00000000E+00  0.00000000E+00  0.00000000E+00
  0.00000000E+00  0.00000000E+00  0.00000000E+00
  0.00000000E+00  0.00000000E+00  0.00000000E+00
  0.00000000E+00  0.00000000E+00  0.00000000E+00
  0.00000000E+00  0.00000000E+00  0.00000000E+00
  0.00000000E+00  0.00000000E+00  0.00000000E+00
  0.00000000E+00  0.00000000E+00  0.00000000E+00
  0.00000000E+00  0.00000000E+00  0.00000000E+00
  0.00000000E+00  0.00000000E+00  0.00000000E+00
  0.00000000E+00  0.00000000E+00  0.00000000E+00
  0.00000000E+00  0.00000000E+00  0.00000000E+00
  0.00000000E+00  0.00000000E+00  0.00000000E+00
  0.00000000E+00  0.00000000E+00  0.00000000E+00
  0.00000000E+00  0.00000000E+00  0.00000000E+00
  0.00000000E+00  0.00000000E+00  0.00000000E+00
  0.00000000E+00  0.00000000E+00  0.00000000E+00
  0.00000000E+00  0.00000000E+00  0.00000000E+00
  0.00000000E+00  0.00000000E+00  0.00000000E+00
  0.00000000E+00  0.00000000E+00  0.00000000E+00
  0.00000000E+00  0.00000000E+00  0.00000000E+00
  0.00000000E+00  0.00000000E+00  0.00000000E+00
  0.00000000E+00  0.00000000E+00  0.00000000E+00
  0.00000000E+00  0.00000000E+00  0.00000000E+00
  0.00000000E+00  0.00000000E+00  0.00000000E+00
  0.00000000E+00  0.00000000E+00  0.00000000E+00
  0.00000000E+00  0.00000000E+00  0.00000000E+00
  0.00000000E+00  0.00000000E+00  0.00000000E+00
  0.00000000E+00  0.00000000E+00  0.00000000E+00
  0.00000000E+00  0.00000000E+00  0.00000000E+00
