W36 Se72
1.0
  19.6920000000000002    0.0000000000000000    0.0000000000000012
  -9.8459999999999965   17.0537722513231707    0.0000000000000012
   0.0000000000000000    0.0000000000000000   25.9200000000000017
W Se
36 72
direct
   0.1203703703703707    0.0462962962962962    0.4999999999999997 W
   0.1203703703703707    0.2129629629629628    0.4999999999999997 W
   0.1203703703703707    0.3796296296296296    0.4999999999999996 W
   0.1203703703703707    0.5462962962962962    0.4999999999999996 W
   0.1203703703703707    0.7129629629629628    0.4999999999999996 W
   0.1203703703703707    0.8796296296296294    0.4999999999999996 W
   0.2870370370370374    0.0462962962962962    0.4999999999999997 W
   0.2870370370370374    0.2129629629629628    0.4999999999999996 W
   0.2870370370370374    0.3796296296296296    0.4999999999999996 W
   0.2870370370370374    0.5462962962962962    0.4999999999999996 W
   0.2870370370370374    0.7129629629629628    0.4999999999999996 W
   0.2870370370370373    0.8796296296296294    0.4999999999999996 W
   0.4537037037037041    0.0462962962962962    0.4999999999999996 W
   0.4537037037037040    0.2129629629629628    0.4999999999999996 W
   0.4537037037037041    0.3796296296296296    0.4999999999999996 W
   0.4537037037037040    0.5462962962962962    0.4999999999999996 W
   0.4537037037037041    0.7129629629629628    0.4999999999999996 W
   0.4537037037037040    0.8796296296296294    0.4999999999999996 W
   0.6203703703703707    0.0462962962962962    0.4999999999999996 W
   0.6203703703703707    0.2129629629629628    0.4999999999999996 W
   0.6203703703703707    0.3796296296296296    0.4999999999999996 W
   0.6203703703703707    0.5462962962962962    0.4999999999999996 W
   0.6203703703703707    0.7129629629629628    0.4999999999999996 W
   0.6203703703703707    0.8796296296296294    0.4999999999999996 W
   0.7870370370370374    0.0462962962962962    0.4999999999999996 W
   0.7870370370370372    0.2129629629629628    0.4999999999999996 W
   0.7870370370370374    0.3796296296296296    0.4999999999999996 W
   0.7870370370370374    0.5462962962962962    0.4999999999999996 W
   0.7870370370370372    0.7129629629629628    0.4999999999999996 W
   0.7870370370370374    0.8796296296296294    0.4999999999999997 W
   0.9537037037037042    0.0462962962962962    0.4999999999999996 W
   0.9537037037037039    0.2129629629629628    0.4999999999999996 W
   0.9537037037037042    0.3796296296296296    0.4999999999999996 W
   0.9537037037037039    0.5462962962962962    0.4999999999999996 W
   0.9537037037037039    0.7129629629629628    0.4999999999999997 W
   0.9537037037037039    0.8796296296296294    0.4999999999999997 W
   0.0648148148148152    0.1018518518518517    0.5644499999999998 Se
   0.0648148148148152    0.2685185185185184    0.5644499999999998 Se
   0.0648148148148152    0.4351851851851851    0.5644499999999997 Se
   0.0648148148148152    0.6018518518518517    0.5644499999999997 Se
   0.0648148148148152    0.7685185185185185    0.5644499999999997 Se
   0.0648148148148151    0.9351851851851849    0.5644499999999997 Se
   0.2314814814814818    0.1018518518518517    0.5644499999999998 Se
   0.2314814814814818    0.2685185185185184    0.5644499999999997 Se
   0.2314814814814818    0.4351851851851851    0.5644499999999997 Se
   0.2314814814814818    0.6018518518518517    0.5644499999999997 Se
   0.2314814814814819    0.7685185185185185    0.5644499999999997 Se
   0.2314814814814818    0.9351851851851849    0.5644499999999997 Se
   0.3981481481481484    0.1018518518518517    0.5644499999999997 Se
   0.3981481481481485    0.2685185185185184    0.5644499999999997 Se
   0.3981481481481485    0.4351851851851851    0.5644499999999997 Se
   0.3981481481481485    0.6018518518518517    0.5644499999999997 Se
   0.3981481481481486    0.7685185185185185    0.5644499999999997 Se
   0.3981481481481484    0.9351851851851849    0.5644499999999997 Se
   0.5648148148148151    0.1018518518518517    0.5644499999999997 Se
   0.5648148148148151    0.2685185185185184    0.5644499999999997 Se
   0.5648148148148151    0.4351851851851851    0.5644499999999997 Se
   0.5648148148148151    0.6018518518518517    0.5644499999999997 Se
   0.5648148148148151    0.7685185185185185    0.5644499999999997 Se
   0.5648148148148151    0.9351851851851849    0.5644499999999997 Se
   0.7314814814814818    0.1018518518518517    0.5644499999999997 Se
   0.7314814814814818    0.2685185185185184    0.5644499999999997 Se
   0.7314814814814818    0.4351851851851851    0.5644499999999997 Se
   0.7314814814814818    0.6018518518518517    0.5644499999999997 Se
   0.7314814814814818    0.7685185185185185    0.5644499999999997 Se
   0.7314814814814818    0.9351851851851849    0.5644499999999998 Se
   0.8981481481481486    0.1018518518518517    0.5644499999999997 Se
   0.8981481481481484    0.2685185185185184    0.5644499999999997 Se
   0.8981481481481486    0.4351851851851851    0.5644499999999997 Se
   0.8981481481481486    0.6018518518518517    0.5644499999999997 Se
   0.8981481481481486    0.7685185185185185    0.5644499999999998 Se
   0.8981481481481484    0.9351851851851849    0.5644499999999998 Se
   0.0648148148148152    0.1018518518518517    0.4355499999999995 Se
   0.0648148148148152    0.2685185185185184    0.4355499999999995 Se
   0.0648148148148152    0.4351851851851851    0.4355499999999995 Se
   0.0648148148148152    0.6018518518518517    0.4355499999999995 Se
   0.0648148148148152    0.7685185185185185    0.4355499999999995 Se
   0.0648148148148151    0.9351851851851849    0.4355499999999997 Se
   0.2314814814814818    0.1018518518518517    0.4355499999999995 Se
   0.2314814814814818    0.2685185185185184    0.4355499999999995 Se
   0.2314814814814818    0.4351851851851851    0.4355499999999995 Se
   0.2314814814814818    0.6018518518518517    0.4355499999999995 Se
   0.2314814814814819    0.7685185185185185    0.4355499999999997 Se
   0.2314814814814818    0.9351851851851849    0.4355499999999995 Se
   0.3981481481481484    0.1018518518518517    0.4355499999999995 Se
   0.3981481481481485    0.2685185185185184    0.4355499999999995 Se
   0.3981481481481485    0.4351851851851851    0.4355499999999995 Se
   0.3981481481481485    0.6018518518518517    0.4355499999999997 Se
   0.3981481481481486    0.7685185185185185    0.4355499999999995 Se
   0.3981481481481484    0.9351851851851849    0.4355499999999995 Se
   0.5648148148148151    0.1018518518518517    0.4355499999999995 Se
   0.5648148148148151    0.2685185185185184    0.4355499999999995 Se
   0.5648148148148151    0.4351851851851851    0.4355499999999997 Se
   0.5648148148148151    0.6018518518518517    0.4355499999999995 Se
   0.5648148148148151    0.7685185185185185    0.4355499999999995 Se
   0.5648148148148151    0.9351851851851849    0.4355499999999995 Se
   0.7314814814814818    0.1018518518518517    0.4355499999999995 Se
   0.7314814814814818    0.2685185185185184    0.4355499999999997 Se
   0.7314814814814818    0.4351851851851851    0.4355499999999995 Se
   0.7314814814814818    0.6018518518518517    0.4355499999999995 Se
   0.7314814814814818    0.7685185185185185    0.4355499999999995 Se
   0.7314814814814818    0.9351851851851849    0.4355499999999995 Se
   0.8981481481481486    0.1018518518518517    0.4355499999999997 Se
   0.8981481481481484    0.2685185185185184    0.4355499999999995 Se
   0.8981481481481486    0.4351851851851851    0.4355499999999995 Se
   0.8981481481481486    0.6018518518518517    0.4355499999999995 Se
   0.8981481481481486    0.7685185185185185    0.4355499999999995 Se
   0.8981481481481484    0.9351851851851849    0.4355499999999995 Se
