W48 Se99                                
    1.000000000000000     
    33.0000000000000000    0.0000000000000000    0.0000000000000000
     0.0000000000000000   26.2560005188000005    0.0000000000000000
     0.0000000000000000    0.0000000000000000   18.1299991608000006
   W    Se   O    C 
    48    99     2     1
Direct
  0.2819512107474172  0.0421768317041905  0.4966524511946544
  0.2867268718623129  0.2729248879123986  0.4864939959715911
  0.2816819752792422  0.5450625032862162  0.5071754966518675
  0.2859968311109349  0.7828766777876051  0.4975143914186431
  0.4555610101282971  0.0358470272590551  0.4990555187050443
  0.4551662029920978  0.2857760640071408  0.4978173435864415
  0.4542259663894632  0.5359619036003419  0.4990536191737699
  0.4558838291847319  0.7863374789589392  0.4997845032777092
  0.6285001846478050  0.0358182508954870  0.5023432977821617
  0.6277137963839283  0.2860301927729955  0.5009816209072846
  0.6275684859956465  0.5356823876619397  0.5013413065004322
  0.6281754387094146  0.7856616103032745  0.5015404115731524
  0.2879528805127461  0.1670391048078328  0.4946698736577119
  0.2818466659479922  0.4059741604464258  0.4968669777635840
  0.2856718686177080  0.6669495449384929  0.4982970390552523
  0.2823961687751215  0.9056102450034836  0.4991704277518183
  0.4558434733805833  0.1603860781021568  0.4983665633811490
  0.4541292553081709  0.4104892027443576  0.4982613511418968
  0.4553254273000844  0.6606495419666034  0.4995806249164683
  0.4556313586982945  0.9106205215328238  0.4995940384064528
  0.6284403259569146  0.1605162896101731  0.5014760932438154
  0.6278252367596964  0.4113187754163340  0.5006150732493200
  0.6281650870597626  0.6601498965784898  0.5010455854731893
  0.6286843516923482  0.9111478520407902  0.5018290110886321
  0.3697597379687023  0.2225584901264910  0.4951161717505669
  0.3663333501608627  0.4734175058181804  0.4981384638243955
  0.3688906771783042  0.7241032031311082  0.4991128503593427
  0.3683654709254448  0.9730227326290520  0.4980946355891989
  0.5424446584383248  0.2231245634208260  0.4999006537117375
  0.5405791076877623  0.4733120603837238  0.4997470927177680
  0.5424888769960085  0.7230145054976290  0.5004945397890842
  0.5417875803698726  0.9733724152728909  0.5007773360254527
  0.7159045316699292  0.2147102876039375  0.5022792876201095
  0.7143967758912662  0.4765270981784876  0.5022727755949048
  0.7159508668706673  0.7140867164556037  0.5018757728203107
  0.7152129901245676  0.9767507545238862  0.5034177882860722
  0.3700863576847263  0.0984182948011787  0.4968975015500021
  0.3674799596202329  0.3473292784647691  0.4953158715587390
  0.3689573502838038  0.5991420572889874  0.4995018271856584
  0.3699483991629727  0.8482142790371983  0.4987793353322670
  0.5417739099758487  0.0980389439529383  0.5004341713482684
  0.5418355208346444  0.3487110700907793  0.4995799750499549
  0.5409533203690338  0.5979908236708955  0.5001351338341274
  0.5427442753447077  0.8485577665423852  0.5007598195052658
  0.7150862357716483  0.0950612958598364  0.5033646783287582
  0.7156073822991680  0.3574407058818715  0.5015897759120034
  0.7145375739360315  0.5948173871219091  0.5023906537813739
  0.7162456742486736  0.8570389298923795  0.5024936030260744
  0.2540122558621779  0.1031405695304104  0.5858197039925246
  0.2499292734095251  0.3400877593031007  0.5710428619750890
  0.2543193037832237  0.6063157180877354  0.5956228470771646
  0.2535361399560218  0.8458822380170813  0.5895417582141529
  0.4264474568112459  0.0982707458714518  0.5918556349239119
  0.4243518104510517  0.3477646740043155  0.5901740607463577
  0.4261080432497257  0.5984058036963288  0.5930146570925993
  0.4267525045038711  0.8485774945693255  0.5931814996037382
  0.5987728178652739  0.0983972056886222  0.5943641617285035
  0.5991113584755895  0.3486003671279658  0.5938277715406888
  0.5981702993879526  0.5980644941559133  0.5937184461533511
  0.6000570492205344  0.8482024133209968  0.5948770985519414
  0.4263233614517036  0.2232788886531134  0.5906185413688473
  0.4244042025883586  0.4728083922096754  0.5908090402314851
  0.4266503380885036  0.7236174849048890  0.5923529777329104
  0.4258988985117326  0.9734092159570928  0.5917098613074749
  0.5995793138135243  0.2235354874502103  0.5942981736771197
  0.5978507322586510  0.4732103984752469  0.5933921816464200
  0.5998507706130658  0.7229954274101484  0.5944971343198613
  0.5989100396438709  0.9732823074290965  0.5945620263973820
  0.3385128279545779  0.0359156370150607  0.5896454349041698
  0.3367325219048872  0.2832432995853548  0.5877425103854942
  0.3398185818043809  0.5361270669548671  0.5941612257707719
  0.3399636631332661  0.7862835507876904  0.5936905675029368
  0.5124788340467806  0.0357910273035105  0.5935714241845492
  0.5124245379975036  0.2859550325580852  0.5917716373552920
  0.5114369015447437  0.5354835867893857  0.5929074665534946
  0.5133967952533673  0.7858046903345032  0.5932100168498279
  0.6859183355669363  0.0359229390247862  0.5998232302574867
  0.6877782034383786  0.2862061136645227  0.5901351586049490
  0.6850213722484434  0.5356486102965919  0.5986765518092118
  0.6883123495496833  0.7854703310642404  0.5905020337617347
  0.3409504853180371  0.1611208033734225  0.5914482645399359
  0.3371417216017548  0.4100106602332598  0.5913396303137919
  0.3399255037376034  0.6622859304159676  0.5940104558436498
  0.3390878949582957  0.9111519401637166  0.5914658117937548
  0.5127727210420652  0.1609819195930532  0.5927993260232829
  0.5114334277432452  0.4105345278424024  0.5922512800747508
  0.5126516936475618  0.6608179132102515  0.5932461995662122
  0.5128879765694002  0.9107063051388441  0.5935522381352030
  0.6860596338293536  0.1587429838852520  0.5984224295161642
  0.6855461859515609  0.4132829787867451  0.5975239838019707
  0.6859443318299547  0.6581083453001075  0.5978056419732883
  0.6864025979726750  0.9130747593996755  0.5986286332714085
  0.2547785981115169  0.1020037366727782  0.4048414494149680
  0.2512065386604476  0.6052208525748310  0.4136470708890360
  0.2539022680892772  0.8444052645850290  0.4072322555061909
  0.4276247498578256  0.0977421312719314  0.4043170983994829
  0.4261633267922394  0.3482470751051320  0.4042060106076515
  0.4260055651164021  0.5985437243721700  0.4056961532457495
  0.4273442266531253  0.8484807694328753  0.4056045158464036
  0.5997613292044630  0.0979660962815530  0.4085427400618889
  0.5999009840369850  0.3485114395092023  0.4070093983847555
  0.5988347973349403  0.5980820979393304  0.4079148666436088
  0.6006526247051808  0.8484523748066766  0.4079662266707640
  0.2267964536681522  0.2181320739668761  0.4908283523371427
  0.2353146350380193  0.4778877695162825  0.5337492521041797
  0.2282491405825265  0.7254399517235460  0.5042079524549746
  0.2317374441768906  0.9732379300394902  0.4970420964595761
  0.4282321320726543  0.2227515983527950  0.4037782413154181
  0.4247262688298397  0.4735989546269827  0.4059257002760150
  0.4271157304565639  0.7236693086486639  0.4066138883524383
  0.4266017602974386  0.9730175370000319  0.4061666117848557
  0.6004542891224772  0.2231319930723445  0.4073575787160564
  0.5986033326540657  0.4735132989379482  0.4077033631564603
  0.6003603063585380  0.7232004575686706  0.4076273140876876
  0.5997691856190817  0.9734539839168944  0.4088164488743339
  0.3391157196273005  0.0350173388223253  0.4047441164058820
  0.3421076568656769  0.2839361829242279  0.3967152052864425
  0.3358357378548635  0.5372917249641530  0.4079103466397915
  0.3413391192829910  0.7858182452085567  0.4035033085767725
  0.5134757127660363  0.0355088166029386  0.4067005082210007
  0.5136636492226732  0.2857828805336424  0.4063986896423607
  0.5120350712412647  0.5358122075690475  0.4062880863945545
  0.5139265354715836  0.7859596867558349  0.4074982163581408
  0.6872799924636744  0.0358397502670756  0.4068778400433105
  0.6884737562267162  0.2858885947190433  0.4131866538816693
  0.6864405092679773  0.5357488664273286  0.4060879559936346
  0.6888558326666712  0.7857727250274862  0.4135934129079988
  0.3418887113356444  0.1601403715933354  0.3996390050167677
  0.3374876489796075  0.4108280838957027  0.4035982209671581
  0.3408373241104972  0.6620863061337910  0.4043663243089746
  0.3388610689734413  0.9104537297810770  0.4056264136251342
  0.5139525181629235  0.1605975776344768  0.4063993340593367
  0.5123435448967290  0.4107501424499793  0.4061132435208443
  0.5131034100964863  0.6609939237759027  0.4068811784460545
  0.5136490895079393  0.9106953458895534  0.4072096436057775
  0.6865612614092017  0.1583913766187715  0.4059197167261676
  0.6859049207157603  0.4132630337420165  0.4048973676022918
  0.6861423613707969  0.6582793526252423  0.4052207240220723
  0.6867198997623650  0.9132796369272468  0.4061754608528917
  0.7748852343334706  0.9135390799424208  0.4976530461802722
  0.7690117877809651  0.7855084302848659  0.5046971338980416
  0.7744795476672652  0.6575924792846635  0.4952510574870220
  0.7735428940565270  0.5355731138512998  0.5146329352173135
  0.7742625216882297  0.4137246314588796  0.4950404777411270
  0.7686925997751789  0.2861217091034842  0.5047299740419700
  0.7746376852259066  0.1583493852054502  0.4979287440528095
  0.7742802534292392  0.0359875423036749  0.5133745362577695
  0.2369498557402518  0.3990024361193859  0.3982916329035616
  0.2533398264038483  0.3131158785640222  0.4004037116699427
  0.2564016047013458  0.3598496417149199  0.4177882790263918
 
  0.00000000E+00  0.00000000E+00  0.00000000E+00
  0.00000000E+00  0.00000000E+00  0.00000000E+00
  0.00000000E+00  0.00000000E+00  0.00000000E+00
  0.00000000E+00  0.00000000E+00  0.00000000E+00
  0.00000000E+00  0.00000000E+00  0.00000000E+00
  0.00000000E+00  0.00000000E+00  0.00000000E+00
  0.00000000E+00  0.00000000E+00  0.00000000E+00
  0.00000000E+00  0.00000000E+00  0.00000000E+00
  0.00000000E+00  0.00000000E+00  0.00000000E+00
  0.00000000E+00  0.00000000E+00  0.00000000E+00
  0.00000000E+00  0.00000000E+00  0.00000000E+00
  0.00000000E+00  0.00000000E+00  0.00000000E+00
  0.00000000E+00  0.00000000E+00  0.00000000E+00
  0.00000000E+00  0.00000000E+00  0.00000000E+00
  0.00000000E+00  0.00000000E+00  0.00000000E+00
  0.00000000E+00  0.00000000E+00  0.00000000E+00
  0.00000000E+00  0.00000000E+00  0.00000000E+00
  0.00000000E+00  0.00000000E+00  0.00000000E+00
  0.00000000E+00  0.00000000E+00  0.00000000E+00
  0.00000000E+00  0.00000000E+00  0.00000000E+00
  0.00000000E+00  0.00000000E+00  0.00000000E+00
  0.00000000E+00  0.00000000E+00  0.00000000E+00
  0.00000000E+00  0.00000000E+00  0.00000000E+00
  0.00000000E+00  0.00000000E+00  0.00000000E+00
  0.00000000E+00  0.00000000E+00  0.00000000E+00
  0.00000000E+00  0.00000000E+00  0.00000000E+00
  0.00000000E+00  0.00000000E+00  0.00000000E+00
  0.00000000E+00  0.00000000E+00  0.00000000E+00
  0.00000000E+00  0.00000000E+00  0.00000000E+00
  0.00000000E+00  0.00000000E+00  0.00000000E+00
  0.00000000E+00  0.00000000E+00  0.00000000E+00
  0.00000000E+00  0.00000000E+00  0.00000000E+00
  0.00000000E+00  0.00000000E+00  0.00000000E+00
  0.00000000E+00  0.00000000E+00  0.00000000E+00
  0.00000000E+00  0.00000000E+00  0.00000000E+00
  0.00000000E+00  0.00000000E+00  0.00000000E+00
  0.00000000E+00  0.00000000E+00  0.00000000E+00
  0.00000000E+00  0.00000000E+00  0.00000000E+00
  0.00000000E+00  0.00000000E+00  0.00000000E+00
  0.00000000E+00  0.00000000E+00  0.00000000E+00
  0.00000000E+00  0.00000000E+00  0.00000000E+00
  0.00000000E+00  0.00000000E+00  0.00000000E+00
  0.00000000E+00  0.00000000E+00  0.00000000E+00
  0.00000000E+00  0.00000000E+00  0.00000000E+00
  0.00000000E+00  0.00000000E+00  0.00000000E+00
  0.00000000E+00  0.00000000E+00  0.00000000E+00
  0.00000000E+00  0.00000000E+00  0.00000000E+00
  0.00000000E+00  0.00000000E+00  0.00000000E+00
  0.00000000E+00  0.00000000E+00  0.00000000E+00
  0.00000000E+00  0.00000000E+00  0.00000000E+00
  0.00000000E+00  0.00000000E+00  0.00000000E+00
  0.00000000E+00  0.00000000E+00  0.00000000E+00
  0.00000000E+00  0.00000000E+00  0.00000000E+00
  0.00000000E+00  0.00000000E+00  0.00000000E+00
  0.00000000E+00  0.00000000E+00  0.00000000E+00
  0.00000000E+00  0.00000000E+00  0.00000000E+00
  0.00000000E+00  0.00000000E+00  0.00000000E+00
  0.00000000E+00  0.00000000E+00  0.00000000E+00
  0.00000000E+00  0.00000000E+00  0.00000000E+00
  0.00000000E+00  0.00000000E+00  0.00000000E+00
  0.00000000E+00  0.00000000E+00  0.00000000E+00
  0.00000000E+00  0.00000000E+00  0.00000000E+00
  0.00000000E+00  0.00000000E+00  0.00000000E+00
  0.00000000E+00  0.00000000E+00  0.00000000E+00
  0.00000000E+00  0.00000000E+00  0.00000000E+00
  0.00000000E+00  0.00000000E+00  0.00000000E+00
  0.00000000E+00  0.00000000E+00  0.00000000E+00
  0.00000000E+00  0.00000000E+00  0.00000000E+00
  0.00000000E+00  0.00000000E+00  0.00000000E+00
  0.00000000E+00  0.00000000E+00  0.00000000E+00
  0.00000000E+00  0.00000000E+00  0.00000000E+00
  0.00000000E+00  0.00000000E+00  0.00000000E+00
  0.00000000E+00  0.00000000E+00  0.00000000E+00
  0.00000000E+00  0.00000000E+00  0.00000000E+00
  0.00000000E+00  0.00000000E+00  0.00000000E+00
  0.00000000E+00  0.00000000E+00  0.00000000E+00
  0.00000000E+00  0.00000000E+00  0.00000000E+00
  0.00000000E+00  0.00000000E+00  0.00000000E+00
  0.00000000E+00  0.00000000E+00  0.00000000E+00
  0.00000000E+00  0.00000000E+00  0.00000000E+00
  0.00000000E+00  0.00000000E+00  0.00000000E+00
  0.00000000E+00  0.00000000E+00  0.00000000E+00
  0.00000000E+00  0.00000000E+00  0.00000000E+00
  0.00000000E+00  0.00000000E+00  0.00000000E+00
  0.00000000E+00  0.00000000E+00  0.00000000E+00
  0.00000000E+00  0.00000000E+00  0.00000000E+00
  0.00000000E+00  0.00000000E+00  0.00000000E+00
  0.00000000E+00  0.00000000E+00  0.00000000E+00
  0.00000000E+00  0.00000000E+00  0.00000000E+00
  0.00000000E+00  0.00000000E+00  0.00000000E+00
  0.00000000E+00  0.00000000E+00  0.00000000E+00
  0.00000000E+00  0.00000000E+00  0.00000000E+00
  0.00000000E+00  0.00000000E+00  0.00000000E+00
  0.00000000E+00  0.00000000E+00  0.00000000E+00
  0.00000000E+00  0.00000000E+00  0.00000000E+00
  0.00000000E+00  0.00000000E+00  0.00000000E+00
  0.00000000E+00  0.00000000E+00  0.00000000E+00
  0.00000000E+00  0.00000000E+00  0.00000000E+00
  0.00000000E+00  0.00000000E+00  0.00000000E+00
  0.00000000E+00  0.00000000E+00  0.00000000E+00
  0.00000000E+00  0.00000000E+00  0.00000000E+00
  0.00000000E+00  0.00000000E+00  0.00000000E+00
  0.00000000E+00  0.00000000E+00  0.00000000E+00
  0.00000000E+00  0.00000000E+00  0.00000000E+00
  0.00000000E+00  0.00000000E+00  0.00000000E+00
  0.00000000E+00  0.00000000E+00  0.00000000E+00
  0.00000000E+00  0.00000000E+00  0.00000000E+00
  0.00000000E+00  0.00000000E+00  0.00000000E+00
  0.00000000E+00  0.00000000E+00  0.00000000E+00
  0.00000000E+00  0.00000000E+00  0.00000000E+00
  0.00000000E+00  0.00000000E+00  0.00000000E+00
  0.00000000E+00  0.00000000E+00  0.00000000E+00
  0.00000000E+00  0.00000000E+00  0.00000000E+00
  0.00000000E+00  0.00000000E+00  0.00000000E+00
  0.00000000E+00  0.00000000E+00  0.00000000E+00
  0.00000000E+00  0.00000000E+00  0.00000000E+00
  0.00000000E+00  0.00000000E+00  0.00000000E+00
  0.00000000E+00  0.00000000E+00  0.00000000E+00
  0.00000000E+00  0.00000000E+00  0.00000000E+00
  0.00000000E+00  0.00000000E+00  0.00000000E+00
  0.00000000E+00  0.00000000E+00  0.00000000E+00
  0.00000000E+00  0.00000000E+00  0.00000000E+00
  0.00000000E+00  0.00000000E+00  0.00000000E+00
  0.00000000E+00  0.00000000E+00  0.00000000E+00
  0.00000000E+00  0.00000000E+00  0.00000000E+00
  0.00000000E+00  0.00000000E+00  0.00000000E+00
  0.00000000E+00  0.00000000E+00  0.00000000E+00
  0.00000000E+00  0.00000000E+00  0.00000000E+00
  0.00000000E+00  0.00000000E+00  0.00000000E+00
  0.00000000E+00  0.00000000E+00  0.00000000E+00
  0.00000000E+00  0.00000000E+00  0.00000000E+00
  0.00000000E+00  0.00000000E+00  0.00000000E+00
  0.00000000E+00  0.00000000E+00  0.00000000E+00
  0.00000000E+00  0.00000000E+00  0.00000000E+00
  0.00000000E+00  0.00000000E+00  0.00000000E+00
  0.00000000E+00  0.00000000E+00  0.00000000E+00
  0.00000000E+00  0.00000000E+00  0.00000000E+00
  0.00000000E+00  0.00000000E+00  0.00000000E+00
  0.00000000E+00  0.00000000E+00  0.00000000E+00
  0.00000000E+00  0.00000000E+00  0.00000000E+00
  0.00000000E+00  0.00000000E+00  0.00000000E+00
  0.00000000E+00  0.00000000E+00  0.00000000E+00
  0.00000000E+00  0.00000000E+00  0.00000000E+00
  0.00000000E+00  0.00000000E+00  0.00000000E+00
  0.00000000E+00  0.00000000E+00  0.00000000E+00
  0.00000000E+00  0.00000000E+00  0.00000000E+00
  0.00000000E+00  0.00000000E+00  0.00000000E+00
  0.00000000E+00  0.00000000E+00  0.00000000E+00
  0.00000000E+00  0.00000000E+00  0.00000000E+00
  0.00000000E+00  0.00000000E+00  0.00000000E+00
