W48 Se99
1.0
  33.0000000000         0.0000000000         0.0000000000
   0.0000000000        26.2560005188         0.0000000000
   0.0000000000         0.0000000000        18.1299991608
W Se O C
48 99 2 1
Cartesian
     9.277551360         1.130226038         9.105769779
     9.453195180         7.279018239         9.049088693
     9.458984700        13.858164405         9.043457153
     9.299803590        20.677788755         9.110572778
    14.988246570         0.943535110         9.091762904
    15.012228000         7.505485958         9.055589023
    15.005118810        14.058588273         9.059249289
    14.988862350        20.629267666         9.095223014
    20.687232060         0.930272416         9.087700334
    20.706403080         7.493871617         9.065046356
    20.705939430        14.061704335         9.075497938
    20.689976010        20.627580981         9.078670869
     9.460473330         4.420556607         9.066579610
     9.453146670        10.995351366         9.038051331
     9.281679990        17.148147082         9.084093733
     9.295742940        23.850071820         9.117617189
    15.006410100         4.219915077         9.071157978
    15.008836260        10.769302693         9.050670536
    14.999800200        17.333707427         9.079645538
    14.982849090        23.899376126         9.099195660
    20.710241640         4.198987470         9.065777357
    20.719190580        10.789491719         9.059768169
    20.709400800        17.333856561         9.069896493
    20.697172320        23.917438679         9.075307935
    12.171103230         5.877813209         9.050370121
    12.169588860        12.398004152         9.035934835
    12.111352770        18.972142511         9.097049249
    12.105173850        25.558780827         9.109936778
    17.879103000         5.850144898         9.065579196
    17.849545230        12.422197744         9.060535068
    17.866799940        18.978261209         9.082043411
    17.829111630        25.550267319         9.086342034
    23.604605310         5.610276117         9.060733410
    23.571711570        12.503622327         9.076164396
    23.600246670        18.755428896         9.066615689
    23.548160460        25.616198237         9.085960760
    12.169804680         2.598880896         9.091547338
    12.145870770         9.137811008         9.054899539
    12.172361850        15.679113088         9.072319205
    12.154954020        22.264504244         9.106420464
    17.838183000         2.570410201         9.076844453
    17.886136620         9.144856806         9.058892490
    17.844187350        15.699345699         9.069920969
    17.857232910        22.271874041         9.088889299
    23.554427490         2.495339307         9.085136208
    23.610930090         9.366096168         9.060929214
    23.567482620        15.620426463         9.079013707
    23.591095440        22.505048855         9.064577333
     8.354446980         2.771613609        10.709856264
     8.039943450         9.140623288         9.913579993
     8.353426290        15.504469200        10.685645282
     8.313843450        22.260831555        10.780667508
    14.056397520         2.590966024        10.783336969
    14.045227350         9.139315477        10.745061640
    14.056535460        15.688913403        10.767757861
    14.043492210        22.260798997        10.800465467
    19.735432860         2.577419503        10.762670402
    19.786388490         9.140678163        10.755906099
    19.741880070        15.699926482        10.756158831
    19.767332970        22.268072960        10.774865727
    14.064945840         5.875513709        10.752321798
    14.059436160        12.405088283        10.741505803
    14.033363850        18.969911014        10.769635766
    14.026673100        25.555708875        10.779995066
    19.781887290         5.853594674        10.759444712
    19.745266860        12.416991441        10.749866453
    19.775122950        18.980170021        10.770480080
    19.729872360        25.546724072        10.768362678
    11.144323080         0.965913624        10.786641705
    11.138016780         7.489548041        10.798476244
    11.239005690        14.004416630        10.785489544
    11.160678870        20.607032772        10.797266610
    16.887676080         0.937930766        10.778244615
    16.921668720         7.503619944        10.741173118
    16.896687060        14.054690044        10.757340182
    16.904797800        20.619420878        10.771929211
    22.588195080         0.929574269        10.838465764
    22.701835860         7.490633727        10.666834864
    22.612363620        14.059796049        10.831394883
    22.690472640        20.628201410        10.674578912
    11.241340440         4.274432774        10.806690946
    11.136134790        10.793409902        10.790107799
    11.145860220        17.308485126        10.769119424
    11.157277890        23.915993286        10.803131484
    16.906327020         4.226133024        10.760674289
    16.907442090        10.772694180        10.745011964
    16.903067280        17.340638486        10.766600079
    16.891045050        23.905234102        10.780175823
    22.625205240         4.149927870        10.812963201
    22.634457120        10.838250162        10.806099002
    22.627816860        17.281833447        10.812701948
    22.617061830        23.966887917        10.817952395
     8.376182430         2.699892718         7.435737597
     8.381733360        15.582716020         7.409973418
     8.300948370        22.266298579         7.454707196
    14.048937870         2.572054090         7.386737648
    14.050498440         9.134504328         7.361608019
    14.055934530        15.708246484         7.372349862
    14.032721340        22.265672899         7.401787542
    19.736298450         2.562991043         7.389793460
    19.789664730         9.137394588         7.367026532
    19.745109780        15.701125331         7.386894110
    19.752878310        22.268039089         7.388708379
     7.512603120         5.841819383         8.672357101
     7.517120820        12.429619265         8.634385449
     7.600865250        18.924468703         9.178091796
     7.599151230        25.606479841         9.177747507
    14.071549470         5.860035271         7.364622856
    14.071846470        12.413279893         7.354549104
    14.023659870        18.985020817         7.412543889
    14.012389710        25.548487424         7.422458642
    19.780694010         5.848830786         7.372896300
    19.752495180        12.426668615         7.380319810
    19.765942680        18.986340706         7.384416102
    19.726012350        25.550693191         7.397031136
    11.139683280         0.937928141         7.421404926
    11.140523460         7.514994832         7.312047672
    11.232259830        14.051567155         7.328244288
    11.153927730        20.618074471         7.415048730
    16.876574220         0.928335511         7.392612130
    16.927911990         7.496493541         7.378760267
    16.902103020        14.064941437         7.369065069
    16.894204470        20.626441733         7.407563941
    22.624097430         0.927580913         7.356525092
    22.701981390         7.488811298         7.460782196
    22.640523840        14.063457973         7.339261888
    22.681154760        20.628997229         7.467347976
    11.229020550         4.223105444         7.346886822
    11.142135510        10.753269466         7.304113803
    11.146697760        17.342418118         7.401689096
    11.149216980        23.917195811         7.423005986
    16.906646460         4.214588523         7.381680829
    16.916979750        10.774460684         7.368551809
    16.899095070        17.352368617         7.387440548
    16.879251510        23.903889532         7.402586350
    22.610301780         4.145178947         7.313120061
    22.627243650        10.841024896         7.314450078
    22.614556470        17.284230882         7.320821141
    22.592320740        23.967238698         7.318342589
    25.524932400        23.983502977         8.875200970
    25.342683630        20.629534427         9.115035115
    25.535611860        17.270616359         8.933999096
    25.517372100        14.063060720         9.284727012
    25.542674850        10.854050761         8.933063588
    25.354106580         7.489179669         9.114666350
    25.535530680         4.125646846         8.884806244
    25.487884950         0.924051319         9.382765889
     9.453000000        10.995000000         7.304000000
     9.453000000         8.675000000         7.304000000
     9.453000000         9.835000000         7.304000000
