Mo  S                                   
   1.00000000000000     
    33.0000000000000000    0.0000000000000000    0.0000000000000000
     0.0000000000000000   25.5199999999999996    0.0000000000000000
     0.0000000000000000    0.0000000000000000   17.4728999999999992
   Mo   S 
    48    99
Direct
  0.2846119247757883  0.1049805350417543  0.4978622573351359
  0.3695178455263104  0.0352529981040561  0.4988830433689699
  0.2853045993825347  0.2260132743987810  0.4977172816196855
  0.3696309028759615  0.1602767996468941  0.4984907889738750
  0.4519490574777407  0.0975696654253824  0.4995965058301195
  0.5352513694723555  0.0352011190866577  0.5009686704936982
  0.2851657406096066  0.3426383859653441  0.4977723156983345
  0.3696158660894611  0.2844066099692313  0.4983829849936185
  0.4524526559187549  0.2222694109295063  0.4993127980240430
  0.5349828126493819  0.1597490930876830  0.5006089284506814
  0.6172730023973045  0.0982514898822373  0.5025964958308506
  0.2842692345090825  0.4638983105763259  0.4979815226095070
  0.3693167324440907  0.4085719258205955  0.4985355513367580
  0.4522319007570132  0.3466726980009796  0.4993950696390073
  0.5349799896272671  0.2847534036412611  0.5009812046127493
  0.2854388553528153  0.6040695659027548  0.4983403454918971
  0.3691059443492009  0.5337047779369612  0.4988466030976468
  0.4515062207259177  0.4713326999232947  0.4994986539600532
  0.5346589909709678  0.4090848349030267  0.5009497223054709
  0.2855143561003928  0.7147577607450017  0.4985292157184418
  0.3694751007555439  0.6590616547231107  0.4992274998097201
  0.4518555332307059  0.5964506393123230  0.4998914675645878
  0.5345573962272923  0.5339510867534614  0.5005879070014174
  0.4522005624123082  0.7217702469734419  0.5002320707232286
  0.5348815560410145  0.6588278767855655  0.5010121133113472
  0.6176183739777059  0.2231654496731252  0.5022995518352360
  0.7016636294600431  0.0399171423252938  0.4981724176227758
  0.6175496852949109  0.3470028352485315  0.5060445970611269
  0.6979809377772384  0.1622455343546392  0.5058402572016263
  0.6172977535935331  0.4706903613483675  0.5017945168448463
  0.6966972566741987  0.2836216358273091  0.5106785284807742
  0.6168627081883074  0.5956652512103489  0.5017061249116921
  0.6965500069061648  0.4104673102423533  0.5101298755846955
  0.6186389536586603  0.7211843053260907  0.5011358568860302
  0.6976402664081505  0.5318074686968046  0.5041551338070178
  0.7011787464603216  0.6541408308234224  0.4946494455053596
  0.2856690601015544  0.8543941264832497  0.4984995543914437
  0.3696497467976911  0.7845507865770074  0.4993994658145482
  0.2857464745846343  0.9650122851173464  0.4982750007220957
  0.3697856988167985  0.9099701053864351  0.4992619017796756
  0.4523993266399629  0.8471743282451385  0.5002795398529258
  0.5353001409502198  0.7845185295660997  0.5010197210917369
  0.4523346323344839  0.9724955092172607  0.5000379860226332
  0.5353208729825170  0.9096449661669581  0.5010280877270148
  0.6172126495023704  0.8469996526999566  0.5004183956490706
  0.6188831469337543  0.9727495036260194  0.5017479907090987
  0.7007628568647917  0.7865226768417557  0.4952334659571918
  0.7010951931717102  0.9071119727602621  0.5020611464382227
  0.3122054299563075  0.0353803392933401  0.4127068551104358
  0.3117352535855886  0.0356064615730247  0.5839419043435186
  0.3140027738464539  0.1621271480610886  0.4067305045601799
  0.3135608021605236  0.1622479695342278  0.5892804768341335
  0.3967999451211739  0.0973642102945718  0.4093351344629781
  0.3962473522604526  0.0976096348844067  0.5885928847768440
  0.4801151618073121  0.0349277869105862  0.4109712372265761
  0.4794358730168966  0.0351439387120394  0.5894169822288831
  0.3139431676689526  0.2843986447451599  0.4057560405779697
  0.3135342357973414  0.2843644743537652  0.5901351054109156
  0.3976030710696463  0.2222362983844022  0.4092798592929086
  0.3970380678330301  0.2222957116729489  0.5880905468014248
  0.4800628199682109  0.1596518624304508  0.4103141099634726
  0.4793462942628679  0.1597675083334451  0.5892593666572594
  0.5628828884787964  0.0975286314842947  0.4115021039079849
  0.5620413693175124  0.0974412215646865  0.5912460654066507
  0.3136839580450470  0.4067111541473309  0.4068411018516045
  0.3132754306233636  0.4065652717276720  0.5893503526275978
  0.3974123911282774  0.3466608284481936  0.4093124246452859
  0.3968252161982164  0.3465697263297827  0.5881683987534956
  0.4803688743636059  0.2845785987541305  0.4102286715031980
  0.4793630771354955  0.2844927833278632  0.5894546045707472
  0.5629772772971862  0.2225690666275923  0.4115739392067539
  0.5617344981342427  0.2221920314275039  0.5905636001910395
  0.6460218591813245  0.0355719652405924  0.4131764151035640
  0.6479636498212571  0.0357880196465103  0.5900370336344594
  0.6464054867161195  0.1609035883802505  0.4133515083782768
  0.6433848606584576  0.1620948901750623  0.5938149669961277
  0.3117826191672606  0.5335617114343663  0.4127769658342970
  0.3113826978844401  0.5333666558536905  0.5839806409365664
  0.3963527194106362  0.4715051501396346  0.4093108872083349
  0.3958403625479647  0.4713351790959450  0.5885509914835225
  0.4798322719819552  0.4092386201437535  0.4104205923547681
  0.4789061353779971  0.4092274358734400  0.5893643542060261
  0.5636434722693409  0.3469929356036729  0.4129279989946255
  0.5612067863541128  0.3470181368350822  0.5922595629944709
  0.3151615420285552  0.6592532125101442  0.4048297508761181
  0.3146700098172843  0.6591003047349275  0.5926073601167161
  0.3967430072614135  0.5963026752584639  0.4100551022443142
  0.3962339903689127  0.5960687247289300  0.5885853601095477
  0.4794452831278875  0.5339507858321326  0.4106844105733884
  0.4789012759833184  0.5337960854728649  0.5892494150861225
  0.5624644105183236  0.4712211374984250  0.4114014793832155
  0.5615003775558662  0.4716357705051593  0.5904216853534692
  0.3970352801807167  0.7220780216266149  0.4104640579717156
  0.3965094867938461  0.7219701358625628  0.5887937220189698
  0.4797196275145126  0.6591694175162814  0.4110674163766461
  0.4791954499447471  0.6590046442111372  0.5897395662137370
  0.5621558926739496  0.5963161962919798  0.4113603532622463
  0.5618253624511453  0.5964086052095681  0.5909265676436988
  0.5627896909616013  0.7214515291201451  0.4122452347634891
  0.5629839383648445  0.7214955674997654  0.5900594993224502
  0.6484181082122689  0.2868727297265607  0.4150687053100484
  0.6444833394808001  0.2831133446285108  0.5981373364594731
  0.7280183316553490  0.0988137533542641  0.4152221444634208
  0.7252440375189195  0.1021956934888166  0.5913875990537818
  0.6481597595723301  0.4069961080102260  0.4146768126508036
  0.6444076746349978  0.4110983886570452  0.5978202925736298
  0.7447234520268395  0.2253160529366625  0.4702591860087253
  0.6457376902253458  0.5328766155373330  0.4122992604446765
  0.6433127457715031  0.5320152887116194  0.5927821816099268
  0.7340466413537996  0.3471924011367946  0.5717426208886138
  0.6449117142543059  0.6583285269812151  0.4115742901580006
  0.6482909085911075  0.6580809531432905  0.5884446493104107
  0.7443652449156346  0.4686497457318737  0.4686934769879585
  0.7270735137761548  0.5948902854050573  0.4119111060475475
  0.7256574326858001  0.5920580161093909  0.5878883183412356
  0.7481956320319298  0.7210925962893242  0.4995612675363219
  0.2303268429766447  0.1629609468148772  0.4973858531652198
  0.2296968204860832  0.2842722275254133  0.4974396877764491
  0.2288118803879868  0.6584154006526575  0.4980150363789448
  0.2358612348108480  0.0364894540053839  0.4975771570703529
  0.3122349776902809  0.7845541894049362  0.4133317647471628
  0.3117548029651829  0.7845729926353187  0.5842934810991594
  0.3154709343970978  0.9098099230601022  0.4048331556130123
  0.3149331840912382  0.9099748798542109  0.5925783159801767
  0.3972459836952495  0.8469587985256339  0.4104688543967114
  0.3967016657192204  0.8470314667623811  0.5888326485143267
  0.4800693517043229  0.7844086736758129  0.4113608753263165
  0.4796477233689842  0.7843900881205812  0.5897471327706185
  0.3971913781256049  0.9726837481750579  0.4101506995204929
  0.3966298595968780  0.9729048578210779  0.5886282515844172
  0.4800926602469602  0.9097969099844292  0.4111923987998267
  0.4796186874069832  0.9099088503026564  0.5897960302423542
  0.5623602902804521  0.8471637857439021  0.4110490418957511
  0.5626041803913822  0.8469830354075896  0.5907704021891647
  0.5633065540740461  0.9725409837718146  0.4123770398906714
  0.5629629677008552  0.9725009526307815  0.5902365290827731
  0.6446851798039361  0.7836321000757778  0.4108365261759630
  0.6475860891562419  0.7840750452851708  0.5879723117662223
  0.6465895344805617  0.9103160476522447  0.4125757224248616
  0.6461244208608150  0.9097355125061455  0.5897285154566632
  0.7254770615668207  0.8467710572510327  0.4081684174227291
  0.7270576496462766  0.8468496727905332  0.5876539024976992
  0.7484517145484588  0.9727255869359794  0.5046315898274827
  0.2290397176124017  0.9107922223579621  0.4979000054292442
  0.2358662937491474  0.7846510211019293  0.4980957575039966
  0.2355747852421075  0.5324564827586755  0.4977884055958768
  0.2301156815214824  0.4057028900568014  0.4974789038417100
 
  0.00000000E+00  0.00000000E+00  0.00000000E+00
  0.00000000E+00  0.00000000E+00  0.00000000E+00
  0.00000000E+00  0.00000000E+00  0.00000000E+00
  0.00000000E+00  0.00000000E+00  0.00000000E+00
  0.00000000E+00  0.00000000E+00  0.00000000E+00
  0.00000000E+00  0.00000000E+00  0.00000000E+00
  0.00000000E+00  0.00000000E+00  0.00000000E+00
  0.00000000E+00  0.00000000E+00  0.00000000E+00
  0.00000000E+00  0.00000000E+00  0.00000000E+00
  0.00000000E+00  0.00000000E+00  0.00000000E+00
  0.00000000E+00  0.00000000E+00  0.00000000E+00
  0.00000000E+00  0.00000000E+00  0.00000000E+00
  0.00000000E+00  0.00000000E+00  0.00000000E+00
  0.00000000E+00  0.00000000E+00  0.00000000E+00
  0.00000000E+00  0.00000000E+00  0.00000000E+00
  0.00000000E+00  0.00000000E+00  0.00000000E+00
  0.00000000E+00  0.00000000E+00  0.00000000E+00
  0.00000000E+00  0.00000000E+00  0.00000000E+00
  0.00000000E+00  0.00000000E+00  0.00000000E+00
  0.00000000E+00  0.00000000E+00  0.00000000E+00
  0.00000000E+00  0.00000000E+00  0.00000000E+00
  0.00000000E+00  0.00000000E+00  0.00000000E+00
  0.00000000E+00  0.00000000E+00  0.00000000E+00
  0.00000000E+00  0.00000000E+00  0.00000000E+00
  0.00000000E+00  0.00000000E+00  0.00000000E+00
  0.00000000E+00  0.00000000E+00  0.00000000E+00
  0.00000000E+00  0.00000000E+00  0.00000000E+00
  0.00000000E+00  0.00000000E+00  0.00000000E+00
  0.00000000E+00  0.00000000E+00  0.00000000E+00
  0.00000000E+00  0.00000000E+00  0.00000000E+00
  0.00000000E+00  0.00000000E+00  0.00000000E+00
  0.00000000E+00  0.00000000E+00  0.00000000E+00
  0.00000000E+00  0.00000000E+00  0.00000000E+00
  0.00000000E+00  0.00000000E+00  0.00000000E+00
  0.00000000E+00  0.00000000E+00  0.00000000E+00
  0.00000000E+00  0.00000000E+00  0.00000000E+00
  0.00000000E+00  0.00000000E+00  0.00000000E+00
  0.00000000E+00  0.00000000E+00  0.00000000E+00
  0.00000000E+00  0.00000000E+00  0.00000000E+00
  0.00000000E+00  0.00000000E+00  0.00000000E+00
  0.00000000E+00  0.00000000E+00  0.00000000E+00
  0.00000000E+00  0.00000000E+00  0.00000000E+00
  0.00000000E+00  0.00000000E+00  0.00000000E+00
  0.00000000E+00  0.00000000E+00  0.00000000E+00
  0.00000000E+00  0.00000000E+00  0.00000000E+00
  0.00000000E+00  0.00000000E+00  0.00000000E+00
  0.00000000E+00  0.00000000E+00  0.00000000E+00
  0.00000000E+00  0.00000000E+00  0.00000000E+00
  0.00000000E+00  0.00000000E+00  0.00000000E+00
  0.00000000E+00  0.00000000E+00  0.00000000E+00
  0.00000000E+00  0.00000000E+00  0.00000000E+00
  0.00000000E+00  0.00000000E+00  0.00000000E+00
  0.00000000E+00  0.00000000E+00  0.00000000E+00
  0.00000000E+00  0.00000000E+00  0.00000000E+00
  0.00000000E+00  0.00000000E+00  0.00000000E+00
  0.00000000E+00  0.00000000E+00  0.00000000E+00
  0.00000000E+00  0.00000000E+00  0.00000000E+00
  0.00000000E+00  0.00000000E+00  0.00000000E+00
  0.00000000E+00  0.00000000E+00  0.00000000E+00
  0.00000000E+00  0.00000000E+00  0.00000000E+00
  0.00000000E+00  0.00000000E+00  0.00000000E+00
  0.00000000E+00  0.00000000E+00  0.00000000E+00
  0.00000000E+00  0.00000000E+00  0.00000000E+00
  0.00000000E+00  0.00000000E+00  0.00000000E+00
  0.00000000E+00  0.00000000E+00  0.00000000E+00
  0.00000000E+00  0.00000000E+00  0.00000000E+00
  0.00000000E+00  0.00000000E+00  0.00000000E+00
  0.00000000E+00  0.00000000E+00  0.00000000E+00
  0.00000000E+00  0.00000000E+00  0.00000000E+00
  0.00000000E+00  0.00000000E+00  0.00000000E+00
  0.00000000E+00  0.00000000E+00  0.00000000E+00
  0.00000000E+00  0.00000000E+00  0.00000000E+00
  0.00000000E+00  0.00000000E+00  0.00000000E+00
  0.00000000E+00  0.00000000E+00  0.00000000E+00
  0.00000000E+00  0.00000000E+00  0.00000000E+00
  0.00000000E+00  0.00000000E+00  0.00000000E+00
  0.00000000E+00  0.00000000E+00  0.00000000E+00
  0.00000000E+00  0.00000000E+00  0.00000000E+00
  0.00000000E+00  0.00000000E+00  0.00000000E+00
  0.00000000E+00  0.00000000E+00  0.00000000E+00
  0.00000000E+00  0.00000000E+00  0.00000000E+00
  0.00000000E+00  0.00000000E+00  0.00000000E+00
  0.00000000E+00  0.00000000E+00  0.00000000E+00
  0.00000000E+00  0.00000000E+00  0.00000000E+00
  0.00000000E+00  0.00000000E+00  0.00000000E+00
  0.00000000E+00  0.00000000E+00  0.00000000E+00
  0.00000000E+00  0.00000000E+00  0.00000000E+00
  0.00000000E+00  0.00000000E+00  0.00000000E+00
  0.00000000E+00  0.00000000E+00  0.00000000E+00
  0.00000000E+00  0.00000000E+00  0.00000000E+00
  0.00000000E+00  0.00000000E+00  0.00000000E+00
  0.00000000E+00  0.00000000E+00  0.00000000E+00
  0.00000000E+00  0.00000000E+00  0.00000000E+00
  0.00000000E+00  0.00000000E+00  0.00000000E+00
  0.00000000E+00  0.00000000E+00  0.00000000E+00
  0.00000000E+00  0.00000000E+00  0.00000000E+00
  0.00000000E+00  0.00000000E+00  0.00000000E+00
  0.00000000E+00  0.00000000E+00  0.00000000E+00
  0.00000000E+00  0.00000000E+00  0.00000000E+00
  0.00000000E+00  0.00000000E+00  0.00000000E+00
  0.00000000E+00  0.00000000E+00  0.00000000E+00
  0.00000000E+00  0.00000000E+00  0.00000000E+00
  0.00000000E+00  0.00000000E+00  0.00000000E+00
  0.00000000E+00  0.00000000E+00  0.00000000E+00
  0.00000000E+00  0.00000000E+00  0.00000000E+00
  0.00000000E+00  0.00000000E+00  0.00000000E+00
  0.00000000E+00  0.00000000E+00  0.00000000E+00
  0.00000000E+00  0.00000000E+00  0.00000000E+00
  0.00000000E+00  0.00000000E+00  0.00000000E+00
  0.00000000E+00  0.00000000E+00  0.00000000E+00
  0.00000000E+00  0.00000000E+00  0.00000000E+00
  0.00000000E+00  0.00000000E+00  0.00000000E+00
  0.00000000E+00  0.00000000E+00  0.00000000E+00
  0.00000000E+00  0.00000000E+00  0.00000000E+00
  0.00000000E+00  0.00000000E+00  0.00000000E+00
  0.00000000E+00  0.00000000E+00  0.00000000E+00
  0.00000000E+00  0.00000000E+00  0.00000000E+00
  0.00000000E+00  0.00000000E+00  0.00000000E+00
  0.00000000E+00  0.00000000E+00  0.00000000E+00
  0.00000000E+00  0.00000000E+00  0.00000000E+00
  0.00000000E+00  0.00000000E+00  0.00000000E+00
  0.00000000E+00  0.00000000E+00  0.00000000E+00
  0.00000000E+00  0.00000000E+00  0.00000000E+00
  0.00000000E+00  0.00000000E+00  0.00000000E+00
  0.00000000E+00  0.00000000E+00  0.00000000E+00
  0.00000000E+00  0.00000000E+00  0.00000000E+00
  0.00000000E+00  0.00000000E+00  0.00000000E+00
  0.00000000E+00  0.00000000E+00  0.00000000E+00
  0.00000000E+00  0.00000000E+00  0.00000000E+00
  0.00000000E+00  0.00000000E+00  0.00000000E+00
  0.00000000E+00  0.00000000E+00  0.00000000E+00
  0.00000000E+00  0.00000000E+00  0.00000000E+00
  0.00000000E+00  0.00000000E+00  0.00000000E+00
  0.00000000E+00  0.00000000E+00  0.00000000E+00
  0.00000000E+00  0.00000000E+00  0.00000000E+00
  0.00000000E+00  0.00000000E+00  0.00000000E+00
  0.00000000E+00  0.00000000E+00  0.00000000E+00
  0.00000000E+00  0.00000000E+00  0.00000000E+00
  0.00000000E+00  0.00000000E+00  0.00000000E+00
  0.00000000E+00  0.00000000E+00  0.00000000E+00
  0.00000000E+00  0.00000000E+00  0.00000000E+00
  0.00000000E+00  0.00000000E+00  0.00000000E+00
  0.00000000E+00  0.00000000E+00  0.00000000E+00
  0.00000000E+00  0.00000000E+00  0.00000000E+00
  0.00000000E+00  0.00000000E+00  0.00000000E+00
  0.00000000E+00  0.00000000E+00  0.00000000E+00
  0.00000000E+00  0.00000000E+00  0.00000000E+00
