Mo  S                                   
   1.00000000000000     
    33.0000000000000000    0.0000000000000000    0.0000000000000000
     0.0000000000000000   25.5199999999999996    0.0000000000000000
     0.0000000000000000    0.0000000000000000   17.4728999999999992
   Mo   S 
    48   99
Direct
  0.2845504094209816  0.1050685238870201  0.4984074065752161
  0.3693035730080776  0.0353064907886767  0.4988390993929911
  0.2854721244883883  0.2261704316422767  0.4984648205314139
  0.3696958086509969  0.1603395768305675  0.4984738878333681
  0.4518735780417635  0.0975545778847027  0.4988552314714276
  0.5348914863199269  0.0349238141742746  0.4996279913855606
  0.2854331496708165  0.3427337568025626  0.4986578009293199
  0.3699226400711704  0.2844581673730704  0.4985165839302567
  0.4527208311374340  0.2222375844833475  0.4985768373976573
  0.5351752456407688  0.1594071592133228  0.4992423637342097
  0.6170445988978515  0.0970303914533889  0.5009055638029960
  0.2844356914983954  0.4639115688236684  0.4989522574250317
  0.3696087525815172  0.4085734389613926  0.4989524762921052
  0.4526666662839665  0.3467054698220476  0.4988606305178945
  0.5353970920498090  0.2846407980731007  0.4992542318571532
  0.2853191483257524  0.6040394984897439  0.4992598188776543
  0.3691638545064999  0.5336572618490548  0.4995573108910047
  0.4517611194805759  0.4714035564604701  0.4995727162545197
  0.5350822244105954  0.4092553000861014  0.4996554241555740
  0.2852290429771989  0.7145894180295007  0.4993060832907522
  0.3692294823495959  0.6589765559511485  0.4999435382309698
  0.4517365351427554  0.5965004221824098  0.5002838634516978
  0.5347154379342934  0.5343185051793194  0.5002768720509629
  0.4517349399686053  0.7217826337634015  0.5005367703002254
  0.5344785064082541  0.6591054731329373  0.5006377167816594
  0.6186117275596084  0.2219931836185665  0.5007755441227386
  0.7003265070245425  0.0359909067058485  0.4994017656322480
  0.6171737675063105  0.3470007500756307  0.5010078132127779
  0.7003447252723625  0.1580165647252247  0.5072685140089180
  0.6183050579539663  0.4719147924515402  0.5004008943148908
  0.7003940129396941  0.2860064083686983  0.5073164856324058
  0.6165799788215071  0.5968911929135418  0.4997202942225859
  0.7004234337256950  0.4080755829846526  0.4997160953190752
  0.6179004588891321  0.7218786682310422  0.4998068715049728
  0.7000865280396064  0.5360408289363363  0.5020483008621766
  0.6997420323188708  0.6579718387626687  0.4938868497108488
  0.2853193764173749  0.8543584680880276  0.4990329431679343
  0.3692153131299445  0.7844639241141358  0.4999147177806336
  0.2854787131283266  0.9649317421629732  0.4986925956682359
  0.3693738320085015  0.9099361847610407  0.4994555245172903
  0.4518111722503169  0.8471545065738199  0.5002570842835898
  0.5345849123592950  0.7846044484461188  0.5006133244913201
  0.4519067240281101  0.9724685988096684  0.4995600344768629
  0.5346359105492726  0.9095282194176912  0.5002389554587603
  0.6165733935202423  0.8470013271653403  0.4996201967163234
  0.6182100074664683  0.9720680094835579  0.5002704391358769
  0.6997103996754311  0.7858441663933995  0.4937185915187675
  0.7000342920593281  0.9078026714945453  0.5018712550127904
  0.3118546682781089  0.0354352787265204  0.4130080913726185
  0.3116683493724873  0.0356215128039454  0.5842239959406889
  0.3138481612140567  0.1622731240676574  0.4071619398352693
  0.3138007143233211  0.1622719848060912  0.5896905277371877
  0.3965153949673358  0.0973898539367318  0.4090654384321733
  0.3963665511563275  0.0976247363122228  0.5883209683699793
  0.4795923033148975  0.0347396215108952  0.4100469318906425
  0.4793105672937154  0.0351301438099961  0.5885692488017861
  0.3140136835579508  0.2845360962475160  0.4063559079845576
  0.3140203814911413  0.2843870880812727  0.5907062350158687
  0.3975833893583847  0.2222828884934607  0.4090978027189210
  0.3974943259790775  0.2222607438769035  0.5878479052213959
  0.4800303857114004  0.1595513921543786  0.4093558030129790
  0.4796820377352558  0.1597061259336609  0.5882746963864285
  0.5627017339639314  0.0970561225911964  0.4098978968480341
  0.5618833990268092  0.0970480890148935  0.5897824199619263
  0.3137822164341929  0.4068054383545808  0.4076082839035596
  0.3136873205637736  0.4065649507308516  0.5900978282273506
  0.3975502565274807  0.3467860445209162  0.4093488106118141
  0.3974487016530100  0.3465131528111331  0.5881182762324423
  0.4804313683456948  0.2845448254799768  0.4092275064663494
  0.4800763644802882  0.2843787877692542  0.5884185725185088
  0.5635729307518111  0.2219646497998550  0.4104550444161454
  0.5624873199992799  0.2219528632374292  0.5887333745351374
  0.6457070269665642  0.0343589189240778  0.4114288029611349
  0.6464585310799936  0.0343180395853552  0.5897445339966623
  0.6480550899173717  0.1594184853424936  0.4133578678655616
  0.6443856862367611  0.1597971564299617  0.5915819807441504
  0.3117432844457162  0.5335538430437672  0.4136524048207167
  0.3114976779006873  0.5333531438660443  0.5848659884477588
  0.3964061008156132  0.4716280242752761  0.4097560937533214
  0.3962170852371176  0.4712437978157968  0.5889590781220364
  0.4799105872678501  0.4095729264816964  0.4098497888602929
  0.4796154010526331  0.4091765658871036  0.5887792570302337
  0.5629092984922629  0.3470455414069912  0.4099381086574351
  0.5620409430883073  0.3470242052909916  0.5898297096850482
  0.3148708689439233  0.6591322608829560  0.4055741693828141
  0.3144779931077845  0.6590791790279128  0.5934883492035145
  0.3965110590690420  0.5962990910064351  0.4106653880348499
  0.3962159952648664  0.5960548031171962  0.5892422550749721
  0.4793717330220235  0.5341996611154260  0.4108076323716910
  0.4791997065935151  0.5338068392440118  0.5893537578467906
  0.5627989625618851  0.4720772387043830  0.4109448584303317
  0.5625357950054806  0.4717313798997012  0.5892687847444983
  0.3965111150472739  0.7219578375802820  0.4109437239593146
  0.3961826460890697  0.7219738687209778  0.5893927743284918
  0.4791445023515658  0.6592818567681167  0.4111676096201626
  0.4790380794667697  0.6591381076377707  0.5899412748793267
  0.5615835385141961  0.5967883383432463  0.4104299753069774
  0.5619531793726893  0.5968176687211216  0.5901708463135502
  0.5618690913314122  0.7218338678281061  0.4114657614049936
  0.5625398453428271  0.7218553856745539  0.5895685129324725
  0.6481073913652633  0.2845873439402337  0.4134111196160745
  0.6444439923025552  0.2841447476398529  0.5916519366333719
  0.7277161922977320  0.0966670712525138  0.4162404359654051
  0.7261502138188114  0.0971862618958673  0.5921272237477582
  0.6458788552006979  0.4096418288612794  0.4115726394506474
  0.6465222367508716  0.4096844874214320  0.5899415183123202
  0.7495000743165915  0.2219861856062252  0.5037143077621573
  0.6464748111061631  0.5343299458041001  0.4112072860144364
  0.6452201906262888  0.5343933661347490  0.5894925691932357
  0.7261515450105759  0.3468125951114186  0.5923676186284884
  0.6439261159095212  0.6597235972216857  0.4091890085830497
  0.6472362629394607  0.6593864145693569  0.5874651459639960
  0.7494262429882229  0.4722350430227378  0.5007515669444307
  0.7258938356388538  0.5972547322611920  0.4092908705589255
  0.7271353870903319  0.5968285829913031  0.5852711223522730
  0.7488628987479934  0.7219319583316312  0.4975599491497150
  0.2303866058635124  0.1632542435104487  0.4985230859966097
  0.2299144001673845  0.2844271251922841  0.4986877875848115
  0.2285754968416224  0.6581659289345729  0.4988299265376268
  0.2357311476176128  0.0367153008675512  0.4982538972853001
  0.3117863641085659  0.7843889656768057  0.4139120531511917
  0.3113891964951883  0.7845384385821854  0.5849514735576120
  0.3150140720160954  0.9096891652709346  0.4051493289029152
  0.3146410698014659  0.9099574713872317  0.5930074451173126
  0.3966001473136483  0.8467793525992887  0.4106695545134554
  0.3962865216806095  0.8470625976145026  0.5891395130334907
  0.4792641491322540  0.7843618637030848  0.4112715900578281
  0.4791657614492590  0.7845182300994243  0.5897990850285163
  0.3966414066659102  0.9725810193391864  0.4100333772599316
  0.3963909738225889  0.9729613548603445  0.5885389300651001
  0.4793231849829643  0.9095909593180171  0.4106970259281768
  0.4791615166288286  0.9099822488942159  0.5894238447842890
  0.5615634839434464  0.8470601054790731  0.4104112958599845
  0.5619742271235053  0.8470335436979455  0.5900936109936256
  0.5626056343625656  0.9719740876854078  0.4109933662830390
  0.5623992366141697  0.9722980533820056  0.5891049863383356
  0.6438589983188616  0.7840853661708821  0.4091523270344716
  0.6472384610377960  0.7845014230410889  0.5873511564484365
  0.6463912090489141  0.9096125048072589  0.4110644402141015
  0.6451859569312813  0.9095849169745379  0.5893204717116076
  0.7258102134789076  0.8465274772894281  0.4090793506052348
  0.7271068501149676  0.8470594535751246  0.5850753963883901
  0.7492577354940709  0.9717419166113822  0.5006110935838505
  0.2287163184811057  0.9108321944345740  0.4983423181982501
  0.2354970921708289  0.7845168068226779  0.4987752567367261
  0.2355842518216515  0.5322334610602892  0.4988535739453873
  0.2303298851301510  0.4056414934559093  0.4987823465049078
 
  0.00000000E+00  0.00000000E+00  0.00000000E+00
  0.00000000E+00  0.00000000E+00  0.00000000E+00
  0.00000000E+00  0.00000000E+00  0.00000000E+00
  0.00000000E+00  0.00000000E+00  0.00000000E+00
  0.00000000E+00  0.00000000E+00  0.00000000E+00
  0.00000000E+00  0.00000000E+00  0.00000000E+00
  0.00000000E+00  0.00000000E+00  0.00000000E+00
  0.00000000E+00  0.00000000E+00  0.00000000E+00
  0.00000000E+00  0.00000000E+00  0.00000000E+00
  0.00000000E+00  0.00000000E+00  0.00000000E+00
  0.00000000E+00  0.00000000E+00  0.00000000E+00
  0.00000000E+00  0.00000000E+00  0.00000000E+00
  0.00000000E+00  0.00000000E+00  0.00000000E+00
  0.00000000E+00  0.00000000E+00  0.00000000E+00
  0.00000000E+00  0.00000000E+00  0.00000000E+00
  0.00000000E+00  0.00000000E+00  0.00000000E+00
  0.00000000E+00  0.00000000E+00  0.00000000E+00
  0.00000000E+00  0.00000000E+00  0.00000000E+00
  0.00000000E+00  0.00000000E+00  0.00000000E+00
  0.00000000E+00  0.00000000E+00  0.00000000E+00
  0.00000000E+00  0.00000000E+00  0.00000000E+00
  0.00000000E+00  0.00000000E+00  0.00000000E+00
  0.00000000E+00  0.00000000E+00  0.00000000E+00
  0.00000000E+00  0.00000000E+00  0.00000000E+00
  0.00000000E+00  0.00000000E+00  0.00000000E+00
  0.00000000E+00  0.00000000E+00  0.00000000E+00
  0.00000000E+00  0.00000000E+00  0.00000000E+00
  0.00000000E+00  0.00000000E+00  0.00000000E+00
  0.00000000E+00  0.00000000E+00  0.00000000E+00
  0.00000000E+00  0.00000000E+00  0.00000000E+00
  0.00000000E+00  0.00000000E+00  0.00000000E+00
  0.00000000E+00  0.00000000E+00  0.00000000E+00
  0.00000000E+00  0.00000000E+00  0.00000000E+00
  0.00000000E+00  0.00000000E+00  0.00000000E+00
  0.00000000E+00  0.00000000E+00  0.00000000E+00
  0.00000000E+00  0.00000000E+00  0.00000000E+00
  0.00000000E+00  0.00000000E+00  0.00000000E+00
  0.00000000E+00  0.00000000E+00  0.00000000E+00
  0.00000000E+00  0.00000000E+00  0.00000000E+00
  0.00000000E+00  0.00000000E+00  0.00000000E+00
  0.00000000E+00  0.00000000E+00  0.00000000E+00
  0.00000000E+00  0.00000000E+00  0.00000000E+00
  0.00000000E+00  0.00000000E+00  0.00000000E+00
  0.00000000E+00  0.00000000E+00  0.00000000E+00
  0.00000000E+00  0.00000000E+00  0.00000000E+00
  0.00000000E+00  0.00000000E+00  0.00000000E+00
  0.00000000E+00  0.00000000E+00  0.00000000E+00
  0.00000000E+00  0.00000000E+00  0.00000000E+00
  0.00000000E+00  0.00000000E+00  0.00000000E+00
  0.00000000E+00  0.00000000E+00  0.00000000E+00
  0.00000000E+00  0.00000000E+00  0.00000000E+00
  0.00000000E+00  0.00000000E+00  0.00000000E+00
  0.00000000E+00  0.00000000E+00  0.00000000E+00
  0.00000000E+00  0.00000000E+00  0.00000000E+00
  0.00000000E+00  0.00000000E+00  0.00000000E+00
  0.00000000E+00  0.00000000E+00  0.00000000E+00
  0.00000000E+00  0.00000000E+00  0.00000000E+00
  0.00000000E+00  0.00000000E+00  0.00000000E+00
  0.00000000E+00  0.00000000E+00  0.00000000E+00
  0.00000000E+00  0.00000000E+00  0.00000000E+00
  0.00000000E+00  0.00000000E+00  0.00000000E+00
  0.00000000E+00  0.00000000E+00  0.00000000E+00
  0.00000000E+00  0.00000000E+00  0.00000000E+00
  0.00000000E+00  0.00000000E+00  0.00000000E+00
  0.00000000E+00  0.00000000E+00  0.00000000E+00
  0.00000000E+00  0.00000000E+00  0.00000000E+00
  0.00000000E+00  0.00000000E+00  0.00000000E+00
  0.00000000E+00  0.00000000E+00  0.00000000E+00
  0.00000000E+00  0.00000000E+00  0.00000000E+00
  0.00000000E+00  0.00000000E+00  0.00000000E+00
  0.00000000E+00  0.00000000E+00  0.00000000E+00
  0.00000000E+00  0.00000000E+00  0.00000000E+00
  0.00000000E+00  0.00000000E+00  0.00000000E+00
  0.00000000E+00  0.00000000E+00  0.00000000E+00
  0.00000000E+00  0.00000000E+00  0.00000000E+00
  0.00000000E+00  0.00000000E+00  0.00000000E+00
  0.00000000E+00  0.00000000E+00  0.00000000E+00
  0.00000000E+00  0.00000000E+00  0.00000000E+00
  0.00000000E+00  0.00000000E+00  0.00000000E+00
  0.00000000E+00  0.00000000E+00  0.00000000E+00
  0.00000000E+00  0.00000000E+00  0.00000000E+00
  0.00000000E+00  0.00000000E+00  0.00000000E+00
  0.00000000E+00  0.00000000E+00  0.00000000E+00
  0.00000000E+00  0.00000000E+00  0.00000000E+00
  0.00000000E+00  0.00000000E+00  0.00000000E+00
  0.00000000E+00  0.00000000E+00  0.00000000E+00
  0.00000000E+00  0.00000000E+00  0.00000000E+00
  0.00000000E+00  0.00000000E+00  0.00000000E+00
  0.00000000E+00  0.00000000E+00  0.00000000E+00
  0.00000000E+00  0.00000000E+00  0.00000000E+00
  0.00000000E+00  0.00000000E+00  0.00000000E+00
  0.00000000E+00  0.00000000E+00  0.00000000E+00
  0.00000000E+00  0.00000000E+00  0.00000000E+00
  0.00000000E+00  0.00000000E+00  0.00000000E+00
  0.00000000E+00  0.00000000E+00  0.00000000E+00
  0.00000000E+00  0.00000000E+00  0.00000000E+00
  0.00000000E+00  0.00000000E+00  0.00000000E+00
  0.00000000E+00  0.00000000E+00  0.00000000E+00
  0.00000000E+00  0.00000000E+00  0.00000000E+00
  0.00000000E+00  0.00000000E+00  0.00000000E+00
  0.00000000E+00  0.00000000E+00  0.00000000E+00
  0.00000000E+00  0.00000000E+00  0.00000000E+00
  0.00000000E+00  0.00000000E+00  0.00000000E+00
  0.00000000E+00  0.00000000E+00  0.00000000E+00
  0.00000000E+00  0.00000000E+00  0.00000000E+00
  0.00000000E+00  0.00000000E+00  0.00000000E+00
  0.00000000E+00  0.00000000E+00  0.00000000E+00
  0.00000000E+00  0.00000000E+00  0.00000000E+00
  0.00000000E+00  0.00000000E+00  0.00000000E+00
  0.00000000E+00  0.00000000E+00  0.00000000E+00
  0.00000000E+00  0.00000000E+00  0.00000000E+00
  0.00000000E+00  0.00000000E+00  0.00000000E+00
  0.00000000E+00  0.00000000E+00  0.00000000E+00
  0.00000000E+00  0.00000000E+00  0.00000000E+00
  0.00000000E+00  0.00000000E+00  0.00000000E+00
  0.00000000E+00  0.00000000E+00  0.00000000E+00
  0.00000000E+00  0.00000000E+00  0.00000000E+00
  0.00000000E+00  0.00000000E+00  0.00000000E+00
  0.00000000E+00  0.00000000E+00  0.00000000E+00
  0.00000000E+00  0.00000000E+00  0.00000000E+00
  0.00000000E+00  0.00000000E+00  0.00000000E+00
  0.00000000E+00  0.00000000E+00  0.00000000E+00
  0.00000000E+00  0.00000000E+00  0.00000000E+00
  0.00000000E+00  0.00000000E+00  0.00000000E+00
  0.00000000E+00  0.00000000E+00  0.00000000E+00
  0.00000000E+00  0.00000000E+00  0.00000000E+00
  0.00000000E+00  0.00000000E+00  0.00000000E+00
  0.00000000E+00  0.00000000E+00  0.00000000E+00
  0.00000000E+00  0.00000000E+00  0.00000000E+00
  0.00000000E+00  0.00000000E+00  0.00000000E+00
  0.00000000E+00  0.00000000E+00  0.00000000E+00
  0.00000000E+00  0.00000000E+00  0.00000000E+00
  0.00000000E+00  0.00000000E+00  0.00000000E+00
  0.00000000E+00  0.00000000E+00  0.00000000E+00
  0.00000000E+00  0.00000000E+00  0.00000000E+00
  0.00000000E+00  0.00000000E+00  0.00000000E+00
  0.00000000E+00  0.00000000E+00  0.00000000E+00
  0.00000000E+00  0.00000000E+00  0.00000000E+00
  0.00000000E+00  0.00000000E+00  0.00000000E+00
  0.00000000E+00  0.00000000E+00  0.00000000E+00
  0.00000000E+00  0.00000000E+00  0.00000000E+00
  0.00000000E+00  0.00000000E+00  0.00000000E+00
  0.00000000E+00  0.00000000E+00  0.00000000E+00
  0.00000000E+00  0.00000000E+00  0.00000000E+00
  0.00000000E+00  0.00000000E+00  0.00000000E+00
  0.00000000E+00  0.00000000E+00  0.00000000E+00
  0.00000000E+00  0.00000000E+00  0.00000000E+00
