W36 Se72                                
   1.00000000000000     
    19.6919994353999996    0.0000000000000000    0.0000000000000000
    -9.8459997176999998   17.0537717624000003    0.0000000000000000
     0.0000000000000000    0.0000000000000000   25.9200000762999991
   W    Se   O    C 
    36    70     2     1
Direct
  0.1221440775613775  0.0476927470028146  0.5000504308263077
  0.1219998123295661  0.2130162342959962  0.5000302829532007
  0.1207187469197941  0.3791333822993827  0.4998962402585516
  0.1202347934660148  0.5458037183464335  0.4998139557968173
  0.1203653447814857  0.7128340072773436  0.4999489610657005
  0.1210052961888329  0.8802784911091780  0.4999583593108495
  0.2887249132828295  0.0487442751164014  0.4972732380551537
  0.2960823821646389  0.2165970660314646  0.4953584078059788
  0.2891678465396164  0.3817863302526403  0.4990430903509358
  0.2867297274505969  0.5452450288966216  0.4998086946345184
  0.2869985229969771  0.7127462706735432  0.5001629690131904
  0.2873699712752277  0.8801643957585111  0.4995018337998009
  0.4540080144204200  0.0466898521894839  0.4986393266045805
  0.4509166188856846  0.2148835202833613  0.4932625687689700
  0.4531219287876311  0.3652703543491501  0.4958189118579354
  0.4500953412645786  0.5433658760630760  0.5007643508811439
  0.4529771691114984  0.7120538145093172  0.5010737895072737
  0.4535802812925553  0.8793361518781653  0.5004870935845919
  0.6204191681649044  0.0454806129956891  0.5003269090585009
  0.6198876475069243  0.2118485850000149  0.4981075699032175
  0.6200378766523755  0.3774628183909255  0.4959556348264421
  0.6172059825540116  0.5426388518002805  0.4999106033900372
  0.6187008898873310  0.7101475480490737  0.5020616989958325
  0.6202063931131070  0.8785373462212128  0.5016606470973080
  0.7872566906623667  0.0453751766140327  0.5014298044449890
  0.7870938716860538  0.2121800855900307  0.5001045269177771
  0.7869370340747843  0.3784345687483157  0.4986933165975465
  0.7862370817295343  0.5446751863076619  0.4992852510605905
  0.7860364502927812  0.7114181259100636  0.5013056382733251
  0.7866005534564761  0.8783098098835301  0.5020128468408026
  0.9545028517901204  0.0460054475980762  0.5013101026398615
  0.9544311858184287  0.2124545733826719  0.5006951641175258
  0.9539028311505789  0.3788818772984267  0.4998328951580450
  0.9535316022737225  0.5456941818773509  0.4996441531380564
  0.9534770403964542  0.7124592444054277  0.5004552004092390
  0.9540977678194371  0.8793411166338091  0.5012932972158308
  0.0672580471163882  0.1028675622968366  0.5658811516349449
  0.0666157568154398  0.2684621474928271  0.5654896595854277
  0.0649322554995817  0.4346761447882420  0.5650647977358604
  0.0645412129528959  0.6013653823361770  0.5650270736865306
  0.0654016755309316  0.7688868712946496  0.5652651703493962
  0.0670613811958791  0.9366655783161435  0.5656660672350186
  0.2390863722915596  0.1087467876561878  0.5628914191148490
  0.2385610228078967  0.2695188024919963  0.5625659211370875
  0.2314688532698733  0.4340947080152955  0.5650311718244964
  0.2312009409949861  0.6010935403899268  0.5650868080581752
  0.2316216644790618  0.7691372517277197  0.5650298367882216
  0.2336218983787986  0.9385559484597131  0.5639522312888139
  0.3994804219307621  0.1081834787653281  0.5617031539661218
  0.3965692518724315  0.6006401570577176  0.5660385971700481
  0.3974910970154535  0.7683817151804967  0.5658806073377906
  0.3981827409860910  0.9367722930106144  0.5648288213640604
  0.5643028150350538  0.1022683670893284  0.5644128843864560
  0.5592796297527706  0.2669972736694013  0.5609425930888342
  0.5622769111588271  0.4271124887659151  0.5622426528810279
  0.5604207887064427  0.5956484884793244  0.5662318932161364
  0.5636805281879192  0.7668801459890212  0.5668270651620217
  0.5643101062531968  0.9349761749609390  0.5661274003364010
  0.7312760457598023  0.1016722892672108  0.5659086707524046
  0.7299312081532258  0.2678299181665671  0.5642726277942013
  0.7291491878621389  0.4322381119026189  0.5632274769383465
  0.7290110287436345  0.5980347153506969  0.5651264055092953
  0.7303538283186469  0.7662048124065125  0.5670617308622977
  0.7313226275198073  0.9344292638762164  0.5670482714645894
  0.8989889529134010  0.1018132934056165  0.5664286510294564
  0.8982817213407808  0.2681771950268625  0.5654498974944353
  0.8973857782573761  0.4341390210070160  0.5645687584837892
  0.8970509171273422  0.6002718985501976  0.5649591769813990
  0.8979547842994805  0.7673917536950018  0.5662224820019529
  0.8988112438043826  0.9347963426463746  0.5667851575008986
  0.0648575664449552  0.1015899854576885  0.4353316889389097
  0.0650779509968154  0.2675577291698029  0.4349811736854765
  0.0650029456336672  0.4345558529965537  0.4345799648887576
  0.0649044049601087  0.6017092474641776  0.4345780083140603
  0.0645040779044126  0.7684968369427275  0.4350238134272478
  0.0644890010980888  0.9353962295702812  0.4353578849945829
  0.2311162759374684  0.1033324038111609  0.4327680880540201
  0.2329711418385624  0.2694212984436254  0.4340268167514788
  0.2314693836559302  0.4343518808768756  0.4340960609867516
  0.2315320605899564  0.6016804858972515  0.4347082787942458
  0.2315147839878950  0.7682536658642583  0.4347181579053049
  0.2311636113827353  0.9348241205877394  0.4338603929688022
  0.3992808968359565  0.1008595215800595  0.4312303250748372
  0.3972645003592239  0.2652495043484834  0.4242193090243751
  0.4014645331485633  0.4324893969171818  0.4357640657787074
  0.3986870111462121  0.6013585390074659  0.4351383451392553
  0.3984891430772513  0.7680124434428494  0.4353130551825835
  0.3984779883910838  0.9342531294581763  0.4343692139158155
  0.5654808241466257  0.0999749322622893  0.4338457682263145
  0.5649973012261561  0.2657837383628985  0.4307126686094001
  0.5650576482005732  0.4348212827701652  0.4314903520722909
  0.5618410023665920  0.6000424562476525  0.4361472774641354
  0.5649650272754893  0.7672440307285585  0.4365576617365516
  0.5652520191637155  0.9337112164069785  0.4356868733325556
  0.7320681484851272  0.1002928824125718  0.4354971896022622
  0.7323192262267711  0.2669788546743368  0.4336988286105296
  0.7334276816115806  0.4351238050258233  0.4326021044485449
  0.7299212961257815  0.6011715854117486  0.4353775634142314
  0.7300619033037747  0.7670509674977983  0.4367764801828531
  0.7315028666760385  0.9337920335490348  0.4365494045312674
  0.8982571870071654  0.1006012774723712  0.4360336698652046
  0.8985712897516084  0.2672293908770525  0.4350431019868145
  0.8990096584271700  0.4346630003107463  0.4341974122014653
  0.8982214012073021  0.6019376874815473  0.4346434262970288
  0.8973102479441611  0.7680965474083410  0.4359457222558752
  0.8976233674837762  0.9342352687447615  0.4365015315854940
  0.3838794139882653  0.4476184979606246  0.5522656741501286
  0.4007215580893964  0.3697761521209315  0.6082069033234689
  0.4084465403979227  0.3920249631285919  0.5637417506883058
 
  0.00000000E+00  0.00000000E+00  0.00000000E+00
  0.00000000E+00  0.00000000E+00  0.00000000E+00
  0.00000000E+00  0.00000000E+00  0.00000000E+00
  0.00000000E+00  0.00000000E+00  0.00000000E+00
  0.00000000E+00  0.00000000E+00  0.00000000E+00
  0.00000000E+00  0.00000000E+00  0.00000000E+00
  0.00000000E+00  0.00000000E+00  0.00000000E+00
  0.00000000E+00  0.00000000E+00  0.00000000E+00
  0.00000000E+00  0.00000000E+00  0.00000000E+00
  0.00000000E+00  0.00000000E+00  0.00000000E+00
  0.00000000E+00  0.00000000E+00  0.00000000E+00
  0.00000000E+00  0.00000000E+00  0.00000000E+00
  0.00000000E+00  0.00000000E+00  0.00000000E+00
  0.00000000E+00  0.00000000E+00  0.00000000E+00
  0.00000000E+00  0.00000000E+00  0.00000000E+00
  0.00000000E+00  0.00000000E+00  0.00000000E+00
  0.00000000E+00  0.00000000E+00  0.00000000E+00
  0.00000000E+00  0.00000000E+00  0.00000000E+00
  0.00000000E+00  0.00000000E+00  0.00000000E+00
  0.00000000E+00  0.00000000E+00  0.00000000E+00
  0.00000000E+00  0.00000000E+00  0.00000000E+00
  0.00000000E+00  0.00000000E+00  0.00000000E+00
  0.00000000E+00  0.00000000E+00  0.00000000E+00
  0.00000000E+00  0.00000000E+00  0.00000000E+00
  0.00000000E+00  0.00000000E+00  0.00000000E+00
  0.00000000E+00  0.00000000E+00  0.00000000E+00
  0.00000000E+00  0.00000000E+00  0.00000000E+00
  0.00000000E+00  0.00000000E+00  0.00000000E+00
  0.00000000E+00  0.00000000E+00  0.00000000E+00
  0.00000000E+00  0.00000000E+00  0.00000000E+00
  0.00000000E+00  0.00000000E+00  0.00000000E+00
  0.00000000E+00  0.00000000E+00  0.00000000E+00
  0.00000000E+00  0.00000000E+00  0.00000000E+00
  0.00000000E+00  0.00000000E+00  0.00000000E+00
  0.00000000E+00  0.00000000E+00  0.00000000E+00
  0.00000000E+00  0.00000000E+00  0.00000000E+00
  0.00000000E+00  0.00000000E+00  0.00000000E+00
  0.00000000E+00  0.00000000E+00  0.00000000E+00
  0.00000000E+00  0.00000000E+00  0.00000000E+00
  0.00000000E+00  0.00000000E+00  0.00000000E+00
  0.00000000E+00  0.00000000E+00  0.00000000E+00
  0.00000000E+00  0.00000000E+00  0.00000000E+00
  0.00000000E+00  0.00000000E+00  0.00000000E+00
  0.00000000E+00  0.00000000E+00  0.00000000E+00
  0.00000000E+00  0.00000000E+00  0.00000000E+00
  0.00000000E+00  0.00000000E+00  0.00000000E+00
  0.00000000E+00  0.00000000E+00  0.00000000E+00
  0.00000000E+00  0.00000000E+00  0.00000000E+00
  0.00000000E+00  0.00000000E+00  0.00000000E+00
  0.00000000E+00  0.00000000E+00  0.00000000E+00
  0.00000000E+00  0.00000000E+00  0.00000000E+00
  0.00000000E+00  0.00000000E+00  0.00000000E+00
  0.00000000E+00  0.00000000E+00  0.00000000E+00
  0.00000000E+00  0.00000000E+00  0.00000000E+00
  0.00000000E+00  0.00000000E+00  0.00000000E+00
  0.00000000E+00  0.00000000E+00  0.00000000E+00
  0.00000000E+00  0.00000000E+00  0.00000000E+00
  0.00000000E+00  0.00000000E+00  0.00000000E+00
  0.00000000E+00  0.00000000E+00  0.00000000E+00
  0.00000000E+00  0.00000000E+00  0.00000000E+00
  0.00000000E+00  0.00000000E+00  0.00000000E+00
  0.00000000E+00  0.00000000E+00  0.00000000E+00
  0.00000000E+00  0.00000000E+00  0.00000000E+00
  0.00000000E+00  0.00000000E+00  0.00000000E+00
  0.00000000E+00  0.00000000E+00  0.00000000E+00
  0.00000000E+00  0.00000000E+00  0.00000000E+00
  0.00000000E+00  0.00000000E+00  0.00000000E+00
  0.00000000E+00  0.00000000E+00  0.00000000E+00
  0.00000000E+00  0.00000000E+00  0.00000000E+00
  0.00000000E+00  0.00000000E+00  0.00000000E+00
  0.00000000E+00  0.00000000E+00  0.00000000E+00
  0.00000000E+00  0.00000000E+00  0.00000000E+00
  0.00000000E+00  0.00000000E+00  0.00000000E+00
  0.00000000E+00  0.00000000E+00  0.00000000E+00
  0.00000000E+00  0.00000000E+00  0.00000000E+00
  0.00000000E+00  0.00000000E+00  0.00000000E+00
  0.00000000E+00  0.00000000E+00  0.00000000E+00
  0.00000000E+00  0.00000000E+00  0.00000000E+00
  0.00000000E+00  0.00000000E+00  0.00000000E+00
  0.00000000E+00  0.00000000E+00  0.00000000E+00
  0.00000000E+00  0.00000000E+00  0.00000000E+00
  0.00000000E+00  0.00000000E+00  0.00000000E+00
  0.00000000E+00  0.00000000E+00  0.00000000E+00
  0.00000000E+00  0.00000000E+00  0.00000000E+00
  0.00000000E+00  0.00000000E+00  0.00000000E+00
  0.00000000E+00  0.00000000E+00  0.00000000E+00
  0.00000000E+00  0.00000000E+00  0.00000000E+00
  0.00000000E+00  0.00000000E+00  0.00000000E+00
  0.00000000E+00  0.00000000E+00  0.00000000E+00
  0.00000000E+00  0.00000000E+00  0.00000000E+00
  0.00000000E+00  0.00000000E+00  0.00000000E+00
  0.00000000E+00  0.00000000E+00  0.00000000E+00
  0.00000000E+00  0.00000000E+00  0.00000000E+00
  0.00000000E+00  0.00000000E+00  0.00000000E+00
  0.00000000E+00  0.00000000E+00  0.00000000E+00
  0.00000000E+00  0.00000000E+00  0.00000000E+00
  0.00000000E+00  0.00000000E+00  0.00000000E+00
  0.00000000E+00  0.00000000E+00  0.00000000E+00
  0.00000000E+00  0.00000000E+00  0.00000000E+00
  0.00000000E+00  0.00000000E+00  0.00000000E+00
  0.00000000E+00  0.00000000E+00  0.00000000E+00
  0.00000000E+00  0.00000000E+00  0.00000000E+00
  0.00000000E+00  0.00000000E+00  0.00000000E+00
  0.00000000E+00  0.00000000E+00  0.00000000E+00
  0.00000000E+00  0.00000000E+00  0.00000000E+00
  0.00000000E+00  0.00000000E+00  0.00000000E+00
  0.00000000E+00  0.00000000E+00  0.00000000E+00
  0.00000000E+00  0.00000000E+00  0.00000000E+00
  0.00000000E+00  0.00000000E+00  0.00000000E+00
