W36 Se72                                
1.0
  19.6919994354         0.0000000000         0.0000000000
  -9.8459997177        17.0537717624         0.0000000000
   0.0000000000         0.0000000000        25.9200000763
W Se O C
36 70 2 1
Cartesian
     1.941936262         0.831066536        12.969980778
     0.366922293         3.684941903        12.979196379
    -1.317062673         6.476778470        12.967172153
    -2.998794093         9.309499904        12.978437358
    -4.655434154        12.155805324        12.988473682
    -6.292504119        15.012997532        12.979934071
     5.196079625         0.831485624        12.898015301
     3.704047626         3.744654172        12.774666307
     2.086748422         6.544866184        12.773717877
     0.310229223         9.294560032        12.897038300
    -1.360569952        12.151133309        12.969367034
    -3.012125817        15.010667603        12.969808403
     8.466387921         0.807738002        12.961559609
     6.713165933         3.690618383        12.812033142
     5.092253671         6.413141182        12.661397053
     3.544514890         9.179094345        12.812701059
     1.924617243        12.139154769        12.962343223
     0.271228056        14.999296795        12.995317801
    11.758001090         0.793612347        13.019620322
    10.084673371         3.631573699        12.980556572
     8.374784913         6.440277148        12.909634343
     6.756257001         9.243527691        12.910542410
     5.178777996        12.129144718        12.981978969
     3.558320484        14.997548676        13.019830449
    15.055240528         0.797145452        13.046879237
    13.398609135         3.636530945        13.033594769
    11.727518916         6.463575946        13.005255458
    10.074991235         9.291332415        12.987790013
     8.452178756        12.135319645        13.006522563
     6.839997909        14.996933916        13.035163038
    18.352570979         0.812880249        13.036467403
    16.717697694         3.644543671        13.034708096
    15.052238950         6.475646732        13.017512179
    13.385231626         9.307714624        13.005284969
    11.744041488        12.149380508        13.006293621
    10.124762938        15.008570024        13.020027513
     0.349544816         1.801605345        14.687715639
    -1.274117658         4.613222465        14.685430042
    -2.954020100         7.424513429        14.676267543
    -4.641970981        10.257812540        14.678159636
    -6.292999104        13.115837841        14.678952291
    -7.902483784        15.992973679        14.678971512
     3.634348420         1.907584897        14.562306379
     2.231824629         4.762062069        14.544803367
     0.460574278         7.403357985        14.560440565
    -1.313241437        10.233560572        14.633003484
    -3.001811682        13.110275498        14.662533537
    -4.648848124        16.010607048        14.634398518
     6.770267371         1.850050600        14.578078209
     1.978286486        10.148845412        14.578270244
     0.282533959        13.076863320        14.666354052
    -1.388478358        15.971656372        14.665999104
    10.079557151         1.749306301        14.681402228
     8.305533006         4.572132354        14.591691989
     6.539656853         7.249249896        14.526636466
     5.103240597        10.118057625        14.592677080
     3.546127703        13.067847686        14.682170527
     1.901863305        15.941429382        14.703267033
    13.392787171         1.741984908        14.724948828
    11.709080024         4.578188962        14.698773589
    10.005848677         7.377641610        14.649284043
     8.383603179        10.187406437        14.650598172
     6.810719421        13.062780639        14.699967896
     5.196628946        15.939935952        14.726320985
    16.713290744         1.754859563        14.732406578
    15.058026572         4.590677747        14.717795627
    13.380586198         7.414588702        14.696109481
    11.720982958        10.240814130        14.686582754
    10.101951614        13.090466770        14.697741863
     8.495602268        15.956392637        14.720321150
     0.275758917         1.765227903        11.319299287
    -1.340016369         4.565263020        11.317380982
    -3.007280635         7.405589802        11.302952903
    -4.667437065        10.252374521        11.305631074
    -6.310511392        13.096933679        11.306455015
    -7.946425531        15.957187422        11.305287492
     3.541792633         1.752128079        11.202228724
     1.935392846         4.589133382        11.169728491
     0.281476025         7.401418056        11.200188270
    -1.382351116        10.265605613        11.262621518
    -3.016790231        13.101450077        11.290482049
    -4.656413085        15.934189420        11.263650130
     6.863205811         1.742038168        11.208897358
     5.233638218         4.583994060        10.959968413
     3.578981330         7.450886415        10.960629330
     1.932877289        10.283303714        11.209312004
     0.278946077        13.114740529        11.288161325
    -1.357041255        15.947173741        11.288463583
    10.139917512         1.735376053        11.301007623
     8.476964628         4.553031400        11.224011414
     6.816237627         7.409316723        11.134188409
     5.173442532        10.276049067        11.225223258
     3.564837259        13.123767962        11.301804482
     1.927475071        15.955209297        11.325337513
    13.418753073         1.740074004        11.347841409
    11.766116492         4.570400773        11.321470516
    10.099947977         7.404283558        11.292103995
     8.452665444        10.256338367        11.292260023
     6.832250305        13.115666561        11.323030526
     5.208695797        15.961874414        11.348426209
    16.698472491         1.745097327        11.355173989
    15.056211491         4.571334462        11.345460903
    13.392894610         7.406116555        11.326633159
    11.737825699        10.251676189        11.315704552
    10.100651772        13.106956825        11.328618660
     8.478525269        15.964471061        11.347764406
     3.579000000         7.451000000        14.570000000
     4.739000000         5.455000000        14.570000000
     4.159000000         6.453000000        14.570000000
     
     
