H4 W36 C1 S71 O1                        
   1.00000000000000     
    18.9192008971999996    0.0000000000000000    0.0000000000000000
    -9.4596004485999998   16.3845085963000017    0.0000000000000000
     0.0000000000000000    0.0000000000000000   24.6459999084000003
   W    S    O    C    H 
    36    71     1     1     4
Direct
  0.1222352474455945  0.0480492561959833  0.4983253212440481
  0.1230844028284082  0.2151569030656890  0.4978521280282275
  0.1231050474031731  0.3807520461553973  0.4978004035925459
  0.1222589393786977  0.5470190078201068  0.4982457871431630
  0.1219214193985433  0.7138683390014555  0.4986790233307458
  0.1219212174020801  0.8808782609816410  0.4987261266846153
  0.2887549936196003  0.0480852757972094  0.4983813416677725
  0.2895359288507805  0.2163413351188463  0.4962831712596235
  0.2929950220491397  0.3828943517720464  0.4936955617873645
  0.2896372676590170  0.5460873981636835  0.4961834194770326
  0.2887719770666023  0.7135178728889169  0.4982624606995505
  0.2885733346087010  0.8807038968332090  0.4988880278338864
  0.4550742029333437  0.0476869536636354  0.4991635572793656
  0.4550295772949441  0.2152164056188889  0.4979979277255097
  0.4527426135088011  0.3830144656036457  0.4937211166710409
  0.4527657149808433  0.5426404835164433  0.4936852437978306
  0.4550155881829221  0.7126661652691969  0.4977989074318728
  0.4550802559076985  0.8802262505904633  0.4990843423932111
  0.6217389566574323  0.0472784802424221  0.4995675171233817
  0.6215844823376836  0.2141919174702046  0.4991923495877770
  0.6205985287807709  0.3806941050099652  0.4978854189353775
  0.6195067771083631  0.5462054653272960  0.4961299922421861
  0.6205895759037208  0.7127222593488275  0.4978512730775743
  0.6216040681951901  0.8802251545895322  0.4990962522759145
  0.7885315377324644  0.0472679261203046  0.4995305728893195
  0.7885291958720565  0.2140679796159760  0.4995519793613594
  0.7881220363893008  0.3807140073376134  0.4990996670281138
  0.7877021740040665  0.5470031834148984  0.4982674138412765
  0.7877033624786191  0.7135267069889760  0.4982654457979285
  0.7881239963783159  0.8802228074470564  0.4990711514989536
  0.9555635644210410  0.0476644382001839  0.4990735104738328
  0.9555698221052977  0.2141867711169292  0.4990792953019509
  0.9555695117280386  0.3807154223463169  0.4990532826630437
  0.9551001708898212  0.5472337230236228  0.4988305495816523
  0.9549023218637797  0.7138550377965620  0.4986810749734703
  0.9550860941254103  0.8806746854379288  0.4988586891570765
  0.0679553849912407  0.1045292169016598  0.5626224949265074
  0.0680604893539440  0.2704671149314009  0.5625154284933670
  0.0680060149578901  0.4362937025470083  0.5625651054694800
  0.0667700379091422  0.6025912599638182  0.5627088057817564
  0.0662348807623525  0.7695016969764447  0.5628191814473679
  0.0667256692408124  0.9369599407698002  0.5627654343323556
  0.2343007538683521  0.1058043963477619  0.5616808109975898
  0.2382649596050391  0.2751418346281825  0.5601503013209082
  0.2382894023260969  0.4360341751046058  0.5600725106651032
  0.2343780608078558  0.6013593897591016  0.5615754145880364
  0.2331900765838132  0.7689914547083523  0.5627327058200979
  0.2331695008683947  0.9369570072999246  0.5627916502044970
  0.3994688418222550  0.1044986166395822  0.5627182634315434
  0.3995746924442758  0.2751850602312397  0.5602062306171443
  0.3996951424092985  0.5974221526338700  0.5600775505788356
  0.3994990066752236  0.7677597144536565  0.5625804779790647
  0.3994666142965658  0.9361025556291640  0.5632074862698793
  0.5659327950348928  0.1031427429734140  0.5635308229524448
  0.5653626660153341  0.2704652876010377  0.5626523424793710
  0.5608291754880366  0.4362051251021034  0.5600184033045555
  0.5606696465189189  0.5974078437145749  0.5600333700906976
  0.5652799889156159  0.7677242749647496  0.5625297907808164
  0.5659256443679157  0.9355467157582259  0.5634677964626774
  0.7329569600797496  0.1028664430555065  0.5637756930766834
  0.7326656273755358  0.2698851688337240  0.5635022656877975
  0.7312963115766135  0.4363088088545566  0.5626201930740190
  0.7299897664589877  0.6014212822544088  0.5615791275614271
  0.7312643225724467  0.7678132799980514  0.5625973617072942
  0.7326256424263093  0.9355628699253472  0.5634515946136535
  0.9002412270871886  0.1031844079682184  0.5634514066271598
  0.9002647901265597  0.2698868029959667  0.5634503722259446
  0.8996860712417553  0.4363416918669270  0.5631548414807124
  0.8987871331419560  0.6025779610841772  0.5627190885110713
  0.8987711194737580  0.7689985461075147  0.5627282566518382
  0.8996406181352282  0.9361392968428628  0.5631636926470835
  0.0660444540241940  0.1030226835399965  0.4343276529983202
  0.0657964018561359  0.2692809420502673  0.4342076546457784
  0.0660288433371380  0.4358134359740015  0.4342769655317015
  0.0661353631345367  0.6027424121297262  0.4344982607808289
  0.0662724749537349  0.7695710416503582  0.4346152583025797
  0.0661490231674591  0.9362334540067525  0.4345509326559909
  0.2328495244954730  0.1027283885756993  0.4336642146796824
  0.2324540606181778  0.2702809283515860  0.4317042532061915
  0.2324720346017540  0.4349580082871705  0.4316588937377069
  0.2328550351974226  0.6029313603072154  0.4335678504983483
  0.2331009257682816  0.7697058281774806  0.4345285220934768
  0.2331082660517859  0.9362948114983479  0.4345872730288042
  0.3999967975913996  0.1031207202187524  0.4344480266207709
  0.4007212457111511  0.2702714529185609  0.4318343936537472
  0.3995099410531641  0.4361510146103669  0.4275078532809062
  0.4007489449508693  0.6032524923243675  0.4316725690355026
  0.3999822525304967  0.7697852589462462  0.4343025960881455
  0.3999205212894855  0.9364247186057458  0.4349946251989655
  0.5664029563181440  0.1028767164734151  0.4352289591787438
  0.5663917969650004  0.2692474984951096  0.4343328892018506
  0.5654326047943550  0.4349560628468569  0.4317376414276671
  0.5654261506924728  0.6033111573710724  0.4317016925561074
  0.5664819920636027  0.7699995169865493  0.4342129801042704
  0.5664352591393940  0.9364257240428951  0.4351633384154434
  0.7329179273287056  0.1028764086895177  0.4354625997017555
  0.7329033979330478  0.2693649780077387  0.4352045190186378
  0.7326857276141858  0.4357472087938907  0.4343386158206625
  0.7330854037607241  0.6029544646544945  0.4335521822864196
  0.7327045715275355  0.7697508034224800  0.4343130361980420
  0.7329673902255817  0.9363949065131539  0.4351420237564342
  0.8994083134397207  0.1028302878619351  0.4351410285626408
  0.8993829776186887  0.2693709611179401  0.4351422035161547
  0.8994127693584151  0.4358880320036002  0.4349418622332623
  0.8995435691409033  0.6027105762596071  0.4345093683549865
  0.8995576999656872  0.7696610335048989  0.4345199036292882
  0.8994506560505676  0.9363510362922307  0.4349450943789068
  0.3831157164388052  0.4352109200283611  0.6389549633432680
  0.4457997516477610  0.4448256416701967  0.6756523011096147
  0.5033379320141960  0.5026765833313621  0.6689136137991035
  0.4015215103564639  0.4354911551309642  0.6018201140601529
  0.4583503499792101  0.3938681553608212  0.6727768277350972
  0.4237577820365356  0.4455654120877278  0.7167124219373214
 
  0.00000000E+00  0.00000000E+00  0.00000000E+00
  0.00000000E+00  0.00000000E+00  0.00000000E+00
  0.00000000E+00  0.00000000E+00  0.00000000E+00
  0.00000000E+00  0.00000000E+00  0.00000000E+00
  0.00000000E+00  0.00000000E+00  0.00000000E+00
  0.00000000E+00  0.00000000E+00  0.00000000E+00
  0.00000000E+00  0.00000000E+00  0.00000000E+00
  0.00000000E+00  0.00000000E+00  0.00000000E+00
  0.00000000E+00  0.00000000E+00  0.00000000E+00
  0.00000000E+00  0.00000000E+00  0.00000000E+00
  0.00000000E+00  0.00000000E+00  0.00000000E+00
  0.00000000E+00  0.00000000E+00  0.00000000E+00
  0.00000000E+00  0.00000000E+00  0.00000000E+00
  0.00000000E+00  0.00000000E+00  0.00000000E+00
  0.00000000E+00  0.00000000E+00  0.00000000E+00
  0.00000000E+00  0.00000000E+00  0.00000000E+00
  0.00000000E+00  0.00000000E+00  0.00000000E+00
  0.00000000E+00  0.00000000E+00  0.00000000E+00
  0.00000000E+00  0.00000000E+00  0.00000000E+00
  0.00000000E+00  0.00000000E+00  0.00000000E+00
  0.00000000E+00  0.00000000E+00  0.00000000E+00
  0.00000000E+00  0.00000000E+00  0.00000000E+00
  0.00000000E+00  0.00000000E+00  0.00000000E+00
  0.00000000E+00  0.00000000E+00  0.00000000E+00
  0.00000000E+00  0.00000000E+00  0.00000000E+00
  0.00000000E+00  0.00000000E+00  0.00000000E+00
  0.00000000E+00  0.00000000E+00  0.00000000E+00
  0.00000000E+00  0.00000000E+00  0.00000000E+00
  0.00000000E+00  0.00000000E+00  0.00000000E+00
  0.00000000E+00  0.00000000E+00  0.00000000E+00
  0.00000000E+00  0.00000000E+00  0.00000000E+00
  0.00000000E+00  0.00000000E+00  0.00000000E+00
  0.00000000E+00  0.00000000E+00  0.00000000E+00
  0.00000000E+00  0.00000000E+00  0.00000000E+00
  0.00000000E+00  0.00000000E+00  0.00000000E+00
  0.00000000E+00  0.00000000E+00  0.00000000E+00
  0.00000000E+00  0.00000000E+00  0.00000000E+00
  0.00000000E+00  0.00000000E+00  0.00000000E+00
  0.00000000E+00  0.00000000E+00  0.00000000E+00
  0.00000000E+00  0.00000000E+00  0.00000000E+00
  0.00000000E+00  0.00000000E+00  0.00000000E+00
  0.00000000E+00  0.00000000E+00  0.00000000E+00
  0.00000000E+00  0.00000000E+00  0.00000000E+00
  0.00000000E+00  0.00000000E+00  0.00000000E+00
  0.00000000E+00  0.00000000E+00  0.00000000E+00
  0.00000000E+00  0.00000000E+00  0.00000000E+00
  0.00000000E+00  0.00000000E+00  0.00000000E+00
  0.00000000E+00  0.00000000E+00  0.00000000E+00
  0.00000000E+00  0.00000000E+00  0.00000000E+00
  0.00000000E+00  0.00000000E+00  0.00000000E+00
  0.00000000E+00  0.00000000E+00  0.00000000E+00
  0.00000000E+00  0.00000000E+00  0.00000000E+00
  0.00000000E+00  0.00000000E+00  0.00000000E+00
  0.00000000E+00  0.00000000E+00  0.00000000E+00
  0.00000000E+00  0.00000000E+00  0.00000000E+00
  0.00000000E+00  0.00000000E+00  0.00000000E+00
  0.00000000E+00  0.00000000E+00  0.00000000E+00
  0.00000000E+00  0.00000000E+00  0.00000000E+00
  0.00000000E+00  0.00000000E+00  0.00000000E+00
  0.00000000E+00  0.00000000E+00  0.00000000E+00
  0.00000000E+00  0.00000000E+00  0.00000000E+00
  0.00000000E+00  0.00000000E+00  0.00000000E+00
  0.00000000E+00  0.00000000E+00  0.00000000E+00
  0.00000000E+00  0.00000000E+00  0.00000000E+00
  0.00000000E+00  0.00000000E+00  0.00000000E+00
  0.00000000E+00  0.00000000E+00  0.00000000E+00
  0.00000000E+00  0.00000000E+00  0.00000000E+00
  0.00000000E+00  0.00000000E+00  0.00000000E+00
  0.00000000E+00  0.00000000E+00  0.00000000E+00
  0.00000000E+00  0.00000000E+00  0.00000000E+00
  0.00000000E+00  0.00000000E+00  0.00000000E+00
  0.00000000E+00  0.00000000E+00  0.00000000E+00
  0.00000000E+00  0.00000000E+00  0.00000000E+00
  0.00000000E+00  0.00000000E+00  0.00000000E+00
  0.00000000E+00  0.00000000E+00  0.00000000E+00
  0.00000000E+00  0.00000000E+00  0.00000000E+00
  0.00000000E+00  0.00000000E+00  0.00000000E+00
  0.00000000E+00  0.00000000E+00  0.00000000E+00
  0.00000000E+00  0.00000000E+00  0.00000000E+00
  0.00000000E+00  0.00000000E+00  0.00000000E+00
  0.00000000E+00  0.00000000E+00  0.00000000E+00
  0.00000000E+00  0.00000000E+00  0.00000000E+00
  0.00000000E+00  0.00000000E+00  0.00000000E+00
  0.00000000E+00  0.00000000E+00  0.00000000E+00
  0.00000000E+00  0.00000000E+00  0.00000000E+00
  0.00000000E+00  0.00000000E+00  0.00000000E+00
  0.00000000E+00  0.00000000E+00  0.00000000E+00
  0.00000000E+00  0.00000000E+00  0.00000000E+00
  0.00000000E+00  0.00000000E+00  0.00000000E+00
  0.00000000E+00  0.00000000E+00  0.00000000E+00
  0.00000000E+00  0.00000000E+00  0.00000000E+00
  0.00000000E+00  0.00000000E+00  0.00000000E+00
  0.00000000E+00  0.00000000E+00  0.00000000E+00
  0.00000000E+00  0.00000000E+00  0.00000000E+00
  0.00000000E+00  0.00000000E+00  0.00000000E+00
  0.00000000E+00  0.00000000E+00  0.00000000E+00
  0.00000000E+00  0.00000000E+00  0.00000000E+00
  0.00000000E+00  0.00000000E+00  0.00000000E+00
  0.00000000E+00  0.00000000E+00  0.00000000E+00
  0.00000000E+00  0.00000000E+00  0.00000000E+00
  0.00000000E+00  0.00000000E+00  0.00000000E+00
  0.00000000E+00  0.00000000E+00  0.00000000E+00
  0.00000000E+00  0.00000000E+00  0.00000000E+00
  0.00000000E+00  0.00000000E+00  0.00000000E+00
  0.00000000E+00  0.00000000E+00  0.00000000E+00
  0.00000000E+00  0.00000000E+00  0.00000000E+00
  0.00000000E+00  0.00000000E+00  0.00000000E+00
  0.00000000E+00  0.00000000E+00  0.00000000E+00
  0.00000000E+00  0.00000000E+00  0.00000000E+00
  0.00000000E+00  0.00000000E+00  0.00000000E+00
  0.00000000E+00  0.00000000E+00  0.00000000E+00
  0.00000000E+00  0.00000000E+00  0.00000000E+00
  0.00000000E+00  0.00000000E+00  0.00000000E+00
