H4 W36 C1 S71 O1
1.0
  18.9192008971999996    0.0000000000000000    0.0000000000000000
  -9.4596004485999998   16.3845085963000017    0.0000000000000000
  -0.0000000000000000   -0.0000000000000000   24.6459999084000003
W S O C H
36 71 1 1 4
direct
   0.1208154562395317    0.0470477482110191    0.5001770623961787 W
   0.1216528704210549    0.2141785210935444    0.4998063241411288 W
   0.1216528490230150    0.3796965684649753    0.4998062755328351 W
   0.1208154987969252    0.5459900016177575    0.5001770133009905 W
   0.1204909921910476    0.7128424244983164    0.5005687070458531 W
   0.1204909865901990    0.8798708330047519    0.5005687588595349 W
   0.2873433164156866    0.0470477151920245    0.5001772022160282 W
   0.2881734135948494    0.2152357380310064    0.4980118667782962 W
   0.2919720204579173    0.3820971016740630    0.4954499079519277 W
   0.2881733998335875    0.5451599371138351    0.4980117801922372 W
   0.2873433667896371    0.7125178681059934    0.5001770821559774 W
   0.2871270779663436    0.8796746671581469    0.5007851796182716 W
   0.4536218259223220    0.0466567677331885    0.5010417194634189 W
   0.4536372570190770    0.2141788251002207    0.4998062126017305 W
   0.4512360774044307    0.3820971672237859    0.4954501733499649 W
   0.4512361584278092    0.5413612197684730    0.4954500450938580 W
   0.4536367750454727    0.7116804395728547    0.4998064356805271 W
   0.4536218000715866    0.8791873167470516    0.5010416383954969 W
   0.6202626021879752    0.0462424301312947    0.5014853975872784 W
   0.6201672201212661    0.2131661612230906    0.5010518583500913 W
   0.6191545316051159    0.3796960800157824    0.4998062332135945 W
   0.6180975492086338    0.5451598517893353    0.4980120085051489 W
   0.6191547868105708    0.7116803951406402    0.4998065012084020 W
   0.6201673712767169    0.8792236025469281    0.5010519654262906 W
   0.7870908779161904    0.0462423901545083    0.5014852713193236 W
   0.7870908996876831    0.2130707600707879    0.5014853527118420 W
   0.7866766322969698    0.3797116225020586    0.5010416875312593 W
   0.7862856371647897    0.5459900488575020    0.5001772780092607 W
   0.7862855716557535    0.7125178175704527    0.5001771974282330 W
   0.7866766186835239    0.8791872485728983    0.5010415470216426 W
   0.9541459975775461    0.0466566781363604    0.5010414740280532 W
   0.9541096497638906    0.2131659205689400    0.5010518436215349 W
   0.9541460431797016    0.3797115965629224    0.5010415314815956 W
   0.9536587351886027    0.5462063648964708    0.5007851855015792 W
   0.9534625877065159    0.7128424282213454    0.5005687848272377 W
   0.9536586977228314    0.8796746135099099    0.5007851131977569 W
   0.0666015151964641    0.1035100126459079    0.5645553981868568 S
   0.0666131964779928    0.2694177178433563    0.5644998789137462 S
   0.0666015347443714    0.4353137185091202    0.5645553913297604 S
   0.0653546244140727    0.6015949407982794    0.5646278760740044 S
   0.0648148171143283    0.7685185292553429    0.5646764146605681 S
   0.0653547339928657    0.9359819695454968    0.5646279069512260 S
   0.2329410099090772    0.1047709882728892    0.5634580926565269 S
   0.2372194914291094    0.2743110076560337    0.5619090171821336 S
   0.2372195469390358    0.4351307076496626    0.5619090371853797 S
   0.2329410114496445    0.6003922717109410    0.5634581836246356 S
   0.2317383091111741    0.7679785895953889    0.5646279255749378 S
   0.2317383342103028    0.9359820263674634    0.5646278990797662 S
   0.3980196093942785    0.1035100592753198    0.5645553377713733 S
   0.3982026447585590    0.2743110434825583    0.5619089251185124 S
   0.3982025746452616    0.5961137103132662    0.5619090543078338 S
   0.3980196887580632    0.7667318287981433    0.5645554495542189 S
   0.3980033000433509    0.9351127833922291    0.5651238550176639 S
   0.5644678461853674    0.1021494340317263    0.5654029377907535 S
   0.5639156147345756    0.2694177791207510    0.5644995867365155 S
   0.5590222738118321    0.4351306543676252    0.5619089156240711 S
   0.5590223261386387    0.5961137282570451    0.5619090247695717 S
   0.5639156191336925    0.7667200579843366    0.5644998760329542 S
   0.5644678267004928    0.9345407025791300    0.5654030285154150 S
   0.7314814727368316    0.1018519042662562    0.5656696969413025 S
   0.7311839795652149    0.2688656245079454    0.5654029334898527 S
   0.7298233441003842    0.4353138057866844    0.5645552295996615 S
   0.7285623560822378    0.6003922780584002    0.5634580241667109 S
   0.7298233068447044    0.7667317242481662    0.5645553648751631 S
   0.7311839885283093    0.9345406157287988    0.5654030642615808 S
   0.8987926271946615    0.1021493159323651    0.5654030554163321 S
   0.8987926340421787    0.2688655922823833    0.5654029909839695 S
   0.8982205548036468    0.4353301062450369    0.5651237850265900 S
   0.8973513378571299    0.6015950969823960    0.5646277868911752 S
   0.8973513487417930    0.7679785498017022    0.5646278475906805 S
   0.8982205779795753    0.9351126607153732    0.5651238655670432 S
   0.0645792879049099    0.1020826402677530    0.4362666073181052 S
   0.0643376879587121    0.2682799597659362    0.4362013435022334 S
   0.0645793812767074    0.4347189357029883    0.4362666067094872 S
   0.0646423593074830    0.6016533379112827    0.4364275856924761 S
   0.0648148885416207    0.7685185843683782    0.4364795610639263 S
   0.0646423343348184    0.9352112233295956    0.4364275888167154 S
   0.2313644096703278    0.1016177991066504    0.4354356333638685 S
   0.2310003131791899    0.2692853773470115    0.4336173837425689 S
   0.2310003875449511    0.4339372223592697    0.4336174607530374 S
   0.2313645274794935    0.6019688966581082    0.4354357244942754 S
   0.2316800836847306    0.7686910196283918    0.4364276108081137 S
   0.2316800302257163    0.9352112568368562    0.4364275824465133 S
   0.3986144201760173    0.1020826301362316    0.4362665447521714 S
   0.3993960466075919    0.2692852017543177    0.4336172595033409 S
   0.3981481240388899    0.4351850840744887    0.4290598469651011 S
   0.3993961070260723    0.6023329499322690    0.4336174299569648 S
   0.3986144835635627    0.7687540035741071    0.4362666424556530 S
   0.3984747643151443    0.9353484492944016    0.4369086607165801 S
   0.5649451469285365    0.1017946687993218    0.4371017084329512 S
   0.5650534801310392    0.2682798236617627    0.4362004826728866 S
   0.5640480824010772    0.4339372478711731    0.4336172492785580 S
   0.5640479594010177    0.6023329753221058    0.4336173510800677 S
   0.5650533425291668    0.7689955740171104    0.4362013357930716 S
   0.5649451182531673    0.9353725950902718    0.4371017796818357 S
   0.7314814872720454    0.1018518320639077    0.4373931468418896 S
   0.7315386943163058    0.2683882416219084    0.4371016824246740 S
   0.7312507129463592    0.4347189236794358    0.4362664810907250 S
   0.7317154790707312    0.6019689008083700    0.4354355493745799 S
   0.7312506610984356    0.7687540141938947    0.4362665700301070 S
   0.7315386057191300    0.9353726108978866    0.4371018153062780 S
   0.8979606117732154    0.1017946745364484    0.4371018118980169 S
   0.8979606775278810    0.2683882160489717    0.4371017641012140 S
   0.8979849491688622    0.4348587221351867    0.4369085921456150 S
   0.8981221572120401    0.6016533882637235    0.4364275069373026 S
   0.8981221018101859    0.7686910060179746    0.4364275224367752 S
   0.8979848142913667    0.9353484297027247    0.4369086782853540 S
   0.4413811874729938    0.4347602376435392    0.5880934493576792 O
   0.4705334097066750    0.4796571105449406    0.6385352753992466 C
   0.5250356750165922    0.4791002198730983    0.6534672035566662 H
   0.4244106954609828    0.3770837712151593    0.5930750719518655 H
   0.4213490474566823    0.4532837788419940    0.6688315369741528 H
   0.4859264156576006    0.5425568297487701    0.6296206417541691 H
