W36 Se72                                
   1.00000000000000     
    19.6919994353999996    0.0000000000000000    0.0000000000000000
    -9.8459997176999998   17.0537717624000003    0.0000000000000000
     0.0000000000000000    0.0000000000000000   25.9200000762999991
   W    Se   O    C 
    36    71     2     1
Direct
  0.1199732260692459  0.0453747372973243  0.4990626393760814
  0.1215800415449052  0.2130122118534111  0.5009057373154515
  0.1215533480313504  0.3807570939065243  0.5009014016185045
  0.1198949460997468  0.5467736621914685  0.4990493504631153
  0.1195210982159930  0.7128202393645822  0.4979826279453529
  0.1195554917375836  0.8788818021872342  0.4980088169085094
  0.2865923643128366  0.0447204379145020  0.4974903443884636
  0.2871233759862594  0.2108001338808198  0.5009748913056221
  0.2879797029218682  0.3801064234755711  0.5042448465649254
  0.2870809569728086  0.5485083682100154  0.5009672888371789
  0.2865002802026388  0.7140323888449269  0.4974471947171432
  0.2865647221769574  0.8793956939118239  0.4965271124726959
  0.4539761593121047  0.0452780603779213  0.4961220681488301
  0.4545537062143736  0.2087405846889062  0.4981323013873336
  0.4503538002509156  0.3726173425225697  0.5072615495044344
  0.4503584743446167  0.5499682505805095  0.5072780463556388
  0.4545245889851889  0.7180417527473423  0.4981128570061009
  0.4539358736589762  0.8808814226427881  0.4961259365722245
  0.6212309571572144  0.0466898149291890  0.4968589413471798
  0.6210764205846926  0.2125042757924437  0.4978587994185431
  0.6205449298668264  0.3783893130320912  0.5014046589851316
  0.6186998528191061  0.5455131013707510  0.5046171484422407
  0.6205773920470031  0.7144794325730579  0.5013932444529122
  0.6211020656609284  0.8807874158575463  0.4978477070025781
  0.7880471312082817  0.0469924839085928  0.4983635183912542
  0.7880126327857730  0.2132017587344610  0.4983861335903247
  0.7872499029448778  0.3794245532804303  0.4993711626695571
  0.7860487893067402  0.5457983379857244  0.5010074574168678
  0.7860892505460308  0.7125201231350691  0.5009939823982821
  0.7872943134660766  0.8800804078335083  0.4993549043422691
  0.9542914593845256  0.0465272270841443  0.4993398324041275
  0.9548586363916740  0.2135321003948879  0.4996081627262552
  0.9541973735867979  0.3799363422658006  0.4993568091776866
  0.9531264916022619  0.5461604060532346  0.4992550266157352
  0.9527840661672327  0.7124941654197879  0.4994030505748096
  0.9531803101834438  0.8792115677029084  0.4992262331513255
  0.0648297160167904  0.1006865843620053  0.5650458272820504
  0.0652023958175755  0.2687048066194541  0.5656600124680715
  0.0647562050484909  0.4363175893369924  0.5650242571834054
  0.0646443041804912  0.6027698721026986  0.5640629574999358
  0.0649396695260224  0.7685051372068591  0.5637856492423715
  0.0646905261490740  0.9340895482229978  0.5640595926496630
  0.2305800299370095  0.0979881690071245  0.5644387623164063
  0.2318931139393685  0.2660207752816362  0.5671321152479710
  0.2318381957203822  0.4380653046624987  0.5671409103143086
  0.2305068286444794  0.6048025600066342  0.5644159139762921
  0.2313038658953105  0.7696029906287719  0.5626131700520540
  0.2313427466865975  0.9339086278743313  0.5626422715774820
  0.3978172543696064  0.0971654346691312  0.5626395252693354
  0.3970179932535083  0.2543460498819023  0.5657164489757133
  0.3970056304605587  0.6149035802082676  0.5657016312073150
  0.3976860681464921  0.7727942902270802  0.5626186312376799
  0.3980274106832053  0.9351559791992893  0.5615746540832596
  0.5645962134738481  0.1004923693518373  0.5621328987384061
  0.5649813909687778  0.2649673180208918  0.5645177524961911
  0.5665906480376488  0.4328242509114444  0.5686027478476871
  0.5666024973338296  0.6061790650380178  0.5686035414583551
  0.5649837026327448  0.7723019439349652  0.5645054830522670
  0.5645694930270917  0.9362688669799097  0.5621334587752188
  0.7313093871158111  0.1016904900595239  0.5631325415799481
  0.7315167165451788  0.2673064227048838  0.5637782119366010
  0.7324896166122555  0.4341189764101215  0.5658737906085725
  0.7325745325898418  0.6024266124848420  0.5674774555872181
  0.7325365630548233  0.7706001327468220  0.5658563253113913
  0.7315551254309985  0.9364209755713415  0.5637774635836994
  0.8983199898011106  0.1019130290884016  0.5643762002264684
  0.8982807077751634  0.2685142018738480  0.5643924753542884
  0.8983440048948901  0.4351035196640018  0.5645964038080401
  0.8985269645456680  0.6019216317638463  0.5651363618851730
  0.8985547370541320  0.7688244570540582  0.5651105333784320
  0.8984032153439703  0.9354547597091559  0.5645741186379671
  0.0659363041903179  0.1031706654389766  0.4345044168623788
  0.0673389955923646  0.2697595077784400  0.4354703884227696
  0.0658263961836181  0.4349190240601236  0.4345375481323663
  0.0634826170209321  0.6009292705597170  0.4333723342996583
  0.0626208990377649  0.7674041519791269  0.4330770575706456
  0.0636244167236387  0.9348070720600745  0.4333948511474926
  0.2311393463065318  0.1022251226488933  0.4337296364395000
  0.2340773643669563  0.2706708867751264  0.4369230516370311
  0.2340452599276878  0.4355715719159549  0.4369094276142274
  0.2310370303125409  0.6010298971779617  0.4337057236760481
  0.2297049371573296  0.7676533426203064  0.4318296610637366
  0.2297401701897570  0.9343481718300130  0.4318544991659732
  0.3974409924004255  0.1005494792224770  0.4314148317769809
  0.3992282579481353  0.2694935666897549  0.4365795799384386
  0.4009348112013285  0.4365824791404417  0.4428393310144347
  0.3992469435529632  0.6019041177669915  0.4365949790409923
  0.3973388639907730  0.7690720066297818  0.4313940997210075
  0.3975331666257012  0.9348642046699938  0.4305980659304254
  0.5662380843859536  0.1026317175473512  0.4314684349426318
  0.5663072278541973  0.2701120100943664  0.4334934122270203
  0.5604452074506137  0.4336094192382779  0.4400781058936273
  0.5604834765804673  0.5991745381389102  0.4400856458686722
  0.5662697825202179  0.7684142415601530  0.4334725834203533
  0.5662295057851406  0.9357135648515890  0.4314618590883282
  0.7335653615657189  0.1028713823767893  0.4324932589783150
  0.7329334160397807  0.2694247755266819  0.4332059584649738
  0.7303222521073971  0.4353525092313609  0.4353340873563438
  0.7270712036064153  0.5997034408131768  0.4371021555113759
  0.7303752341277320  0.7672437118287446  0.4353240365680394
  0.7329419566340556  0.9357255024463644  0.4331691376897123
  0.9000572927891588  0.1030204844672951  0.4338138455012426
  0.9000111291337419  0.2692739840422530  0.4338245471959714
  0.8981213119934702  0.4351757873059072  0.4339886493819559
  0.8957969950781348  0.6008970678955947  0.4346648320089616
  0.8958330816694269  0.7671430421729628  0.4346343024843320
  0.8981818012912512  0.9352837396778706  0.4339724347155356
  0.4082683452225739  0.3852313051395831  0.5827895442919258
  0.4082599383313084  0.4952754503129542  0.5828096394321520
  0.3796110699560738  0.4259363762513375  0.5632258958152870
 
  0.00000000E+00  0.00000000E+00  0.00000000E+00
  0.00000000E+00  0.00000000E+00  0.00000000E+00
  0.00000000E+00  0.00000000E+00  0.00000000E+00
  0.00000000E+00  0.00000000E+00  0.00000000E+00
  0.00000000E+00  0.00000000E+00  0.00000000E+00
  0.00000000E+00  0.00000000E+00  0.00000000E+00
  0.00000000E+00  0.00000000E+00  0.00000000E+00
  0.00000000E+00  0.00000000E+00  0.00000000E+00
  0.00000000E+00  0.00000000E+00  0.00000000E+00
  0.00000000E+00  0.00000000E+00  0.00000000E+00
  0.00000000E+00  0.00000000E+00  0.00000000E+00
  0.00000000E+00  0.00000000E+00  0.00000000E+00
  0.00000000E+00  0.00000000E+00  0.00000000E+00
  0.00000000E+00  0.00000000E+00  0.00000000E+00
  0.00000000E+00  0.00000000E+00  0.00000000E+00
  0.00000000E+00  0.00000000E+00  0.00000000E+00
  0.00000000E+00  0.00000000E+00  0.00000000E+00
  0.00000000E+00  0.00000000E+00  0.00000000E+00
  0.00000000E+00  0.00000000E+00  0.00000000E+00
  0.00000000E+00  0.00000000E+00  0.00000000E+00
  0.00000000E+00  0.00000000E+00  0.00000000E+00
  0.00000000E+00  0.00000000E+00  0.00000000E+00
  0.00000000E+00  0.00000000E+00  0.00000000E+00
  0.00000000E+00  0.00000000E+00  0.00000000E+00
  0.00000000E+00  0.00000000E+00  0.00000000E+00
  0.00000000E+00  0.00000000E+00  0.00000000E+00
  0.00000000E+00  0.00000000E+00  0.00000000E+00
  0.00000000E+00  0.00000000E+00  0.00000000E+00
  0.00000000E+00  0.00000000E+00  0.00000000E+00
  0.00000000E+00  0.00000000E+00  0.00000000E+00
  0.00000000E+00  0.00000000E+00  0.00000000E+00
  0.00000000E+00  0.00000000E+00  0.00000000E+00
  0.00000000E+00  0.00000000E+00  0.00000000E+00
  0.00000000E+00  0.00000000E+00  0.00000000E+00
  0.00000000E+00  0.00000000E+00  0.00000000E+00
  0.00000000E+00  0.00000000E+00  0.00000000E+00
  0.00000000E+00  0.00000000E+00  0.00000000E+00
  0.00000000E+00  0.00000000E+00  0.00000000E+00
  0.00000000E+00  0.00000000E+00  0.00000000E+00
  0.00000000E+00  0.00000000E+00  0.00000000E+00
  0.00000000E+00  0.00000000E+00  0.00000000E+00
  0.00000000E+00  0.00000000E+00  0.00000000E+00
  0.00000000E+00  0.00000000E+00  0.00000000E+00
  0.00000000E+00  0.00000000E+00  0.00000000E+00
  0.00000000E+00  0.00000000E+00  0.00000000E+00
  0.00000000E+00  0.00000000E+00  0.00000000E+00
  0.00000000E+00  0.00000000E+00  0.00000000E+00
  0.00000000E+00  0.00000000E+00  0.00000000E+00
  0.00000000E+00  0.00000000E+00  0.00000000E+00
  0.00000000E+00  0.00000000E+00  0.00000000E+00
  0.00000000E+00  0.00000000E+00  0.00000000E+00
  0.00000000E+00  0.00000000E+00  0.00000000E+00
  0.00000000E+00  0.00000000E+00  0.00000000E+00
  0.00000000E+00  0.00000000E+00  0.00000000E+00
  0.00000000E+00  0.00000000E+00  0.00000000E+00
  0.00000000E+00  0.00000000E+00  0.00000000E+00
  0.00000000E+00  0.00000000E+00  0.00000000E+00
  0.00000000E+00  0.00000000E+00  0.00000000E+00
  0.00000000E+00  0.00000000E+00  0.00000000E+00
  0.00000000E+00  0.00000000E+00  0.00000000E+00
  0.00000000E+00  0.00000000E+00  0.00000000E+00
  0.00000000E+00  0.00000000E+00  0.00000000E+00
  0.00000000E+00  0.00000000E+00  0.00000000E+00
  0.00000000E+00  0.00000000E+00  0.00000000E+00
  0.00000000E+00  0.00000000E+00  0.00000000E+00
  0.00000000E+00  0.00000000E+00  0.00000000E+00
  0.00000000E+00  0.00000000E+00  0.00000000E+00
  0.00000000E+00  0.00000000E+00  0.00000000E+00
  0.00000000E+00  0.00000000E+00  0.00000000E+00
  0.00000000E+00  0.00000000E+00  0.00000000E+00
  0.00000000E+00  0.00000000E+00  0.00000000E+00
  0.00000000E+00  0.00000000E+00  0.00000000E+00
  0.00000000E+00  0.00000000E+00  0.00000000E+00
  0.00000000E+00  0.00000000E+00  0.00000000E+00
  0.00000000E+00  0.00000000E+00  0.00000000E+00
  0.00000000E+00  0.00000000E+00  0.00000000E+00
  0.00000000E+00  0.00000000E+00  0.00000000E+00
  0.00000000E+00  0.00000000E+00  0.00000000E+00
  0.00000000E+00  0.00000000E+00  0.00000000E+00
  0.00000000E+00  0.00000000E+00  0.00000000E+00
  0.00000000E+00  0.00000000E+00  0.00000000E+00
  0.00000000E+00  0.00000000E+00  0.00000000E+00
  0.00000000E+00  0.00000000E+00  0.00000000E+00
  0.00000000E+00  0.00000000E+00  0.00000000E+00
  0.00000000E+00  0.00000000E+00  0.00000000E+00
  0.00000000E+00  0.00000000E+00  0.00000000E+00
  0.00000000E+00  0.00000000E+00  0.00000000E+00
  0.00000000E+00  0.00000000E+00  0.00000000E+00
  0.00000000E+00  0.00000000E+00  0.00000000E+00
  0.00000000E+00  0.00000000E+00  0.00000000E+00
  0.00000000E+00  0.00000000E+00  0.00000000E+00
  0.00000000E+00  0.00000000E+00  0.00000000E+00
  0.00000000E+00  0.00000000E+00  0.00000000E+00
  0.00000000E+00  0.00000000E+00  0.00000000E+00
  0.00000000E+00  0.00000000E+00  0.00000000E+00
  0.00000000E+00  0.00000000E+00  0.00000000E+00
  0.00000000E+00  0.00000000E+00  0.00000000E+00
  0.00000000E+00  0.00000000E+00  0.00000000E+00
  0.00000000E+00  0.00000000E+00  0.00000000E+00
  0.00000000E+00  0.00000000E+00  0.00000000E+00
  0.00000000E+00  0.00000000E+00  0.00000000E+00
  0.00000000E+00  0.00000000E+00  0.00000000E+00
  0.00000000E+00  0.00000000E+00  0.00000000E+00
  0.00000000E+00  0.00000000E+00  0.00000000E+00
  0.00000000E+00  0.00000000E+00  0.00000000E+00
  0.00000000E+00  0.00000000E+00  0.00000000E+00
  0.00000000E+00  0.00000000E+00  0.00000000E+00
  0.00000000E+00  0.00000000E+00  0.00000000E+00
  0.00000000E+00  0.00000000E+00  0.00000000E+00
  0.00000000E+00  0.00000000E+00  0.00000000E+00
