W36 Se72                                
1.0
  19.6919994354         0.0000000000         0.0000000000
  -9.8459997177        17.0537717624         0.0000000000
   0.0000000000         0.0000000000        25.9200000763
W Se O C
36 71 2 1
Cartesian
     1.915982799         0.804604834        12.966323214
     0.287920781         3.655523881        12.955637155
    -1.338994615         6.474742743        12.955040757
    -2.993500461         9.310695891        12.965151099
    -4.645762504        12.156532592        12.976159722
    -6.290885841        15.004931349        12.976718697
     5.193613783         0.803990198        12.965746211
     3.555596382         3.673648528        12.906874092
     2.029751268         6.540241792        12.836225930
     0.310473332         9.295069855        12.905957127
    -1.355058304        12.148576356        12.965139514
    -3.007010650        15.001589709        12.980477533
     8.471528643         0.796710645        12.986636786
     6.823098005         3.655190248        12.954478306
     5.082543628         6.539901845        12.837098037
     3.555871781         9.183542931        12.836249297
     1.928211272        12.133705994        12.955039788
     0.276274964        14.991451926        12.987581832
    11.758676453         0.788531165        12.998917938
    10.112340707         3.635954505        12.987147151
     8.451065754         6.474895846        12.954477404
     6.801346515         9.295390010        12.906897880
     5.183194162        12.134367401        12.955639165
     3.555031956        14.992574698        12.989322461
    15.043203648         0.789121084        13.000535004
    13.401427987         3.633892108        12.998908183
    11.750786993         6.476553845        12.986631856
    10.105534860         9.311669661        12.965758091
     8.466176600        12.149921067        12.966341732
     6.833585791        14.991787129        12.989144199
    18.330526786         0.797530894        12.989163418
    16.690566954         3.636448327        12.989328046
    15.052151654         6.476490367        12.987582619
    13.401731153         9.314821108        12.980474477
    11.756888157        12.157068397        12.976735179
    10.117487226        15.002180919        12.982295151
     0.294220877         1.769959953        14.662654101
    -1.338560102         4.596666374        14.661654567
    -2.969599226         7.423613187        14.660807134
    -4.634717511        10.258180076        14.662548586
    -6.290632879        13.106205886        14.666816995
    -7.929320813        15.963683488        14.664531397
     3.555032416         1.793589352        14.632783477
     1.976224665         4.693984119        14.588392442
     0.404280059         7.417211468        14.588404095
    -1.317648746        10.235070333        14.631706560
    -2.996214798        13.096149828        14.662538485
    -4.652083065        15.962923663        14.663845673
     6.816432041         1.769190238        14.660685929
     5.136146312         4.693039681        14.588879120
     1.983653402        10.152755814        14.588408463
     0.291151118        13.071410092        14.660800840
    -1.370357105        15.948067528        14.675111979
    10.108608347         1.742510613        14.682575870
     8.449666150         4.595933100        14.659900636
     6.708789621         7.416911722        14.588879784
     5.128030691        10.153019567        14.588409655
     3.554896362        13.072365672        14.661657753
     1.912799950        15.937259783        14.683988384
    13.399643106         1.738023685        14.691192634
    11.750236138         4.585912611        14.682581484
    10.081051128         7.423671462        14.660680884
     8.429223291        10.235949805        14.632780899
     6.819286088        13.071715783        14.662656935
     5.195700012        15.937300187        14.685171758
    16.692732989         1.743228286        14.685180222
    15.051237215         4.586299576        14.683997691
    13.400381089         7.424196744        14.675108225
    11.746647476        10.258837700        14.663848652
    10.107380496        13.096675937        14.664542750
     8.478453110        15.948463061        14.676960938
     0.266684382         1.742109100        11.281136830
    -1.373456877         4.575417305        11.278738981
    -3.005932134         7.413537692        11.280523455
    -4.649251686        10.260308432        11.285517011
    -6.290091425        13.105884018        11.287664958
    -7.935164038        15.949305603        11.286522028
     3.554711207         1.734148530        11.259075321
     1.898807763         4.599420723        11.217130362
     0.283880235         7.397476635        11.216235315
    -1.369145932        10.264791484        11.257444186
    -3.005330040        13.107686640        11.285516693
    -4.646541436        15.948588981        11.285900878
     6.842445173         1.741334932        11.280100055
     5.212078128         4.599417603        11.217234787
     3.557076875         7.420641148        11.037619037
     1.940547604        10.266891111        11.216236444
     0.281720292        13.107922230        11.280520746
    -1.361808572        15.950761732        11.297084048
    10.122789363         1.735927875        11.302072633
     8.484691650         4.575669127        11.277664503
     6.827828255         7.397961526        11.217234623
     5.171255686        10.267344765        11.217164023
     3.555872107        13.113249491        11.278765236
     1.916096028        15.950415259        11.302971651
    13.401750203         1.736815832        11.310386386
    11.763026723         4.576911071        11.302047167
    10.118184022         7.415066688        11.280092115
     8.480561447        10.265958855        11.259142430
     6.829623108        13.109462186        11.281126428
     5.195275970        15.951425969        11.304368354
    16.680314368         1.736514099        11.304392946
    15.041577501         4.576878903        11.302971441
    13.402327660         7.415450469        11.297075018
    11.761842312        10.261209048        11.285901248
    10.116902919        13.108877433        11.286541568
     8.473055004        15.951594747        11.299663512
     4.137000000         6.423000000        14.580000000
     2.977000000         8.419000000        14.580000000
     3.557000000         7.421000000        14.580000000
     
