H4 W36 C1 S69 O1                        
   1.00000000000000     
    18.9192008971999996    0.0000000000000000    0.0000000000000000
    -9.4596004485999998   16.3845085963000017    0.0000000000000000
     0.0000000000000000    0.0000000000000000   24.6459999084000003
   W    S    O    C    H 
    36    69     1     1     4
Direct
  0.1238404590298856  0.0491213201498549  0.4991411105443391
  0.1275452935701922  0.2169965032476343  0.4994113364042485
  0.1275338082405130  0.3828047859893807  0.4993379611210932
  0.1238432377675344  0.5469775569420319  0.4990950494222129
  0.1216881272620751  0.7132476116361159  0.4994593090951719
  0.1216874320200413  0.8806780741323403  0.4994714792159933
  0.2894756289376700  0.0491303838499369  0.4959758378270259
  0.2958694222414872  0.2186919543502440  0.4909001712933553
  0.2977897227921730  0.3850039247522564  0.4890867140328038
  0.2958207719502294  0.5493751826479009  0.4908259721226341
  0.2894943436278850  0.7125856319690282  0.4959477014870401
  0.2885869199178333  0.8804071539103139  0.4980953350108588
  0.4549653516617758  0.0475832309606656  0.4985897591258819
  0.4519235256331373  0.2157038140253797  0.4931133234536373
  0.4496269043136283  0.3775527110760781  0.4870310932901674
  0.4497123522909121  0.5444287230651963  0.4872080326247313
  0.4519325468047326  0.7084607448615042  0.4931181526315440
  0.4549755684164230  0.8796144612162770  0.4985779466531084
  0.6217635914602466  0.0470015185014100  0.5014593442991350
  0.6203033810430922  0.2136821423544245  0.5003855862063126
  0.6162043040754843  0.3784034234987564  0.4974280286218176
  0.6136572308447527  0.5430137962605736  0.4966555547456961
  0.6163537142642501  0.7101677957971698  0.4973953426454004
  0.6203370150907110  0.8788880551095186  0.5003428024745263
  0.7889247238317482  0.0471082345136238  0.5031437184405243
  0.7889106334335305  0.2140576929954720  0.5031601908952122
  0.7870619167312568  0.3799314071644723  0.5020040090535778
  0.7849274223469425  0.5455206957188399  0.5010324691328457
  0.7849742856671648  0.7117070357118502  0.5010127188694391
  0.7871146572885152  0.8794190497956086  0.5019632242223613
  0.9567007710856712  0.0481271233003381  0.5025149944132022
  0.9580706353815160  0.2151582325627906  0.5031098512465552
  0.9566868719991336  0.3808244100130567  0.5024985261997978
  0.9546673434611529  0.5466166049030358  0.5016311665547050
  0.9536282413410888  0.7129324093023791  0.5013050305544096
  0.9546950911676038  0.8803145567396017  0.5016311421267684
  0.0720122147620475  0.1064611011181203  0.5645323926108965
  0.0746181363379576  0.2734782447516921  0.5648902888012891
  0.0720435710952970  0.4378194626232660  0.5644856905112446
  0.0687477061671081  0.6028307932469340  0.5641021782463693
  0.0670649041085785  0.7696438216782917  0.5640624680263678
  0.0687418292043305  0.9381407160898020  0.5641235710096051
  0.2413913701149084  0.1119633820469871  0.5591143383776066
  0.2527659427925839  0.2807209243448255  0.5573031051470456
  0.2526442727715810  0.4442978817749453  0.5571515675062593
  0.2414110752902574  0.6016435656188797  0.5590624037892833
  0.2349396000122292  0.7683760147930458  0.5617100891157896
  0.2349304498881249  0.9387638629047812  0.5617249162258435
  0.3989943416887085  0.1078670755585787  0.5598973787871809
  0.3990009840625202  0.7633413632465166  0.5598897185852659
  0.3989199716495838  0.9355619513522940  0.5625642546487205
  0.5639545210840267  0.1024324713260811  0.5644179424686006
  0.5575266642520756  0.2687525940492682  0.5611826153217260
  0.5476901015694337  0.4272274170201044  0.5580111493541721
  0.5479394117393601  0.5930246492319412  0.5579830221305471
  0.5575911162005386  0.7610695269400305  0.5611403000159048
  0.5639701319994486  0.9337362287059430  0.5643972231175457
  0.7319953621381965  0.1021095209920174  0.5668717015789361
  0.7302685757485473  0.2690298807341807  0.5660834304196473
  0.7259930488048920  0.4335198071841747  0.5640878216548346
  0.7235689724536600  0.5979458432343591  0.5634498192480584
  0.7260779801771410  0.7648035703513804  0.5640621977577148
  0.7302861211096870  0.9334858211545617  0.5660477650025199
  0.9015345499477252  0.1034593932338904  0.5671550502531734
  0.9015443388321664  0.2703384364001888  0.5671518731202407
  0.8993661974976178  0.4360852146905227  0.5661433913484213
  0.8970516202574207  0.6014337078263143  0.5652941307749239
  0.8970735234293802  0.7678788513297407  0.5652908696144719
  0.8993707439068074  0.9355309568232024  0.5661355737310871
  0.0660601013945845  0.1037971204141388  0.4368692912016073
  0.0672268315345611  0.2697084344483839  0.4373491447895522
  0.0660118793318503  0.4345162658358531  0.4368192088478918
  0.0645839958920483  0.6010974145659365  0.4362615327942992
  0.0639956504704662  0.7681205379008792  0.4362380201268284
  0.0646189977855797  0.9357675815034019  0.4362779525930099
  0.2314702186668145  0.1022227793987220  0.4314089014517645
  0.2323411101655474  0.2686190931705142  0.4293122927497596
  0.2323328797748232  0.4359291370132016  0.4292368938936061
  0.2314706110840397  0.6015222391178299  0.4313526391476152
  0.2314545515287743  0.7689430258166726  0.4339487185437172
  0.2314502413665089  0.9347559778858981  0.4339612773016101
  0.4011134050577565  0.1024514017301978  0.4317978535219604
  0.4013940682328045  0.2686038170695709  0.4239076620942609
  0.4027070148031075  0.4375733125767774  0.4216420397997160
  0.4014673596511646  0.6050164916325141  0.4239509780577341
  0.4011454997898759  0.7709034735324869  0.4317841690970791
  0.4002954813049755  0.9362672681733262  0.4344186754982813
  0.5679843191924108  0.1030009277937831  0.4362699040464579
  0.5665971658494637  0.2679798566900936  0.4330723706413104
  0.5656185188926312  0.4353266869130999  0.4294423272309026
  0.5655328337152592  0.6025636057634627  0.4294635450978116
  0.5666112013740586  0.7708790407220870  0.4330389443609918
  0.5679864772225227  0.9372463079565594  0.4362535749686457
  0.7346200218302558  0.1034425047190547  0.4387684692007933
  0.7337981797362482  0.2690616846151274  0.4380629174740178
  0.7322982348986832  0.4350870978412509  0.4366385770473485
  0.7307877615845692  0.6015343931865356  0.4362181455473355
  0.7324032557702924  0.7695190925320416  0.4365874166409670
  0.7338408928892440  0.9370218239227915  0.4380233253796519
  0.9005849547047690  0.1036750928871149  0.4392429479819527
  0.9005585713588606  0.2691422811103371  0.4392488264921864
  0.8991911850850679  0.4348714481504545  0.4383419968196149
  0.8976895659251585  0.6013305500100624  0.4376454296952750
  0.8977400151604543  0.7686267589548641  0.4376358052986193
  0.8992663757224811  0.9366143129928031  0.4383263359309924
  0.3900310274852759  0.4460530705172881  0.6375284458999317
  0.4516612883988068  0.4539501294742432  0.6745576078096255
  0.5125808149787984  0.5051984512744050  0.6637935878132188
  0.4030845053789398  0.4348577017545303  0.6013147261522765
  0.4552801844554824  0.3976066847423276  0.6771300214677384
  0.4347882657396137  0.4663730674740824  0.7145632711847676
 
  0.00000000E+00  0.00000000E+00  0.00000000E+00
  0.00000000E+00  0.00000000E+00  0.00000000E+00
  0.00000000E+00  0.00000000E+00  0.00000000E+00
  0.00000000E+00  0.00000000E+00  0.00000000E+00
  0.00000000E+00  0.00000000E+00  0.00000000E+00
  0.00000000E+00  0.00000000E+00  0.00000000E+00
  0.00000000E+00  0.00000000E+00  0.00000000E+00
  0.00000000E+00  0.00000000E+00  0.00000000E+00
  0.00000000E+00  0.00000000E+00  0.00000000E+00
  0.00000000E+00  0.00000000E+00  0.00000000E+00
  0.00000000E+00  0.00000000E+00  0.00000000E+00
  0.00000000E+00  0.00000000E+00  0.00000000E+00
  0.00000000E+00  0.00000000E+00  0.00000000E+00
  0.00000000E+00  0.00000000E+00  0.00000000E+00
  0.00000000E+00  0.00000000E+00  0.00000000E+00
  0.00000000E+00  0.00000000E+00  0.00000000E+00
  0.00000000E+00  0.00000000E+00  0.00000000E+00
  0.00000000E+00  0.00000000E+00  0.00000000E+00
  0.00000000E+00  0.00000000E+00  0.00000000E+00
  0.00000000E+00  0.00000000E+00  0.00000000E+00
  0.00000000E+00  0.00000000E+00  0.00000000E+00
  0.00000000E+00  0.00000000E+00  0.00000000E+00
  0.00000000E+00  0.00000000E+00  0.00000000E+00
  0.00000000E+00  0.00000000E+00  0.00000000E+00
  0.00000000E+00  0.00000000E+00  0.00000000E+00
  0.00000000E+00  0.00000000E+00  0.00000000E+00
  0.00000000E+00  0.00000000E+00  0.00000000E+00
  0.00000000E+00  0.00000000E+00  0.00000000E+00
  0.00000000E+00  0.00000000E+00  0.00000000E+00
  0.00000000E+00  0.00000000E+00  0.00000000E+00
  0.00000000E+00  0.00000000E+00  0.00000000E+00
  0.00000000E+00  0.00000000E+00  0.00000000E+00
  0.00000000E+00  0.00000000E+00  0.00000000E+00
  0.00000000E+00  0.00000000E+00  0.00000000E+00
  0.00000000E+00  0.00000000E+00  0.00000000E+00
  0.00000000E+00  0.00000000E+00  0.00000000E+00
  0.00000000E+00  0.00000000E+00  0.00000000E+00
  0.00000000E+00  0.00000000E+00  0.00000000E+00
  0.00000000E+00  0.00000000E+00  0.00000000E+00
  0.00000000E+00  0.00000000E+00  0.00000000E+00
  0.00000000E+00  0.00000000E+00  0.00000000E+00
  0.00000000E+00  0.00000000E+00  0.00000000E+00
  0.00000000E+00  0.00000000E+00  0.00000000E+00
  0.00000000E+00  0.00000000E+00  0.00000000E+00
  0.00000000E+00  0.00000000E+00  0.00000000E+00
  0.00000000E+00  0.00000000E+00  0.00000000E+00
  0.00000000E+00  0.00000000E+00  0.00000000E+00
  0.00000000E+00  0.00000000E+00  0.00000000E+00
  0.00000000E+00  0.00000000E+00  0.00000000E+00
  0.00000000E+00  0.00000000E+00  0.00000000E+00
  0.00000000E+00  0.00000000E+00  0.00000000E+00
  0.00000000E+00  0.00000000E+00  0.00000000E+00
  0.00000000E+00  0.00000000E+00  0.00000000E+00
  0.00000000E+00  0.00000000E+00  0.00000000E+00
  0.00000000E+00  0.00000000E+00  0.00000000E+00
  0.00000000E+00  0.00000000E+00  0.00000000E+00
  0.00000000E+00  0.00000000E+00  0.00000000E+00
  0.00000000E+00  0.00000000E+00  0.00000000E+00
  0.00000000E+00  0.00000000E+00  0.00000000E+00
  0.00000000E+00  0.00000000E+00  0.00000000E+00
  0.00000000E+00  0.00000000E+00  0.00000000E+00
  0.00000000E+00  0.00000000E+00  0.00000000E+00
  0.00000000E+00  0.00000000E+00  0.00000000E+00
  0.00000000E+00  0.00000000E+00  0.00000000E+00
  0.00000000E+00  0.00000000E+00  0.00000000E+00
  0.00000000E+00  0.00000000E+00  0.00000000E+00
  0.00000000E+00  0.00000000E+00  0.00000000E+00
  0.00000000E+00  0.00000000E+00  0.00000000E+00
  0.00000000E+00  0.00000000E+00  0.00000000E+00
  0.00000000E+00  0.00000000E+00  0.00000000E+00
  0.00000000E+00  0.00000000E+00  0.00000000E+00
  0.00000000E+00  0.00000000E+00  0.00000000E+00
  0.00000000E+00  0.00000000E+00  0.00000000E+00
  0.00000000E+00  0.00000000E+00  0.00000000E+00
  0.00000000E+00  0.00000000E+00  0.00000000E+00
  0.00000000E+00  0.00000000E+00  0.00000000E+00
  0.00000000E+00  0.00000000E+00  0.00000000E+00
  0.00000000E+00  0.00000000E+00  0.00000000E+00
  0.00000000E+00  0.00000000E+00  0.00000000E+00
  0.00000000E+00  0.00000000E+00  0.00000000E+00
  0.00000000E+00  0.00000000E+00  0.00000000E+00
  0.00000000E+00  0.00000000E+00  0.00000000E+00
  0.00000000E+00  0.00000000E+00  0.00000000E+00
  0.00000000E+00  0.00000000E+00  0.00000000E+00
  0.00000000E+00  0.00000000E+00  0.00000000E+00
  0.00000000E+00  0.00000000E+00  0.00000000E+00
  0.00000000E+00  0.00000000E+00  0.00000000E+00
  0.00000000E+00  0.00000000E+00  0.00000000E+00
  0.00000000E+00  0.00000000E+00  0.00000000E+00
  0.00000000E+00  0.00000000E+00  0.00000000E+00
  0.00000000E+00  0.00000000E+00  0.00000000E+00
  0.00000000E+00  0.00000000E+00  0.00000000E+00
  0.00000000E+00  0.00000000E+00  0.00000000E+00
  0.00000000E+00  0.00000000E+00  0.00000000E+00
  0.00000000E+00  0.00000000E+00  0.00000000E+00
  0.00000000E+00  0.00000000E+00  0.00000000E+00
  0.00000000E+00  0.00000000E+00  0.00000000E+00
  0.00000000E+00  0.00000000E+00  0.00000000E+00
  0.00000000E+00  0.00000000E+00  0.00000000E+00
  0.00000000E+00  0.00000000E+00  0.00000000E+00
  0.00000000E+00  0.00000000E+00  0.00000000E+00
  0.00000000E+00  0.00000000E+00  0.00000000E+00
  0.00000000E+00  0.00000000E+00  0.00000000E+00
  0.00000000E+00  0.00000000E+00  0.00000000E+00
  0.00000000E+00  0.00000000E+00  0.00000000E+00
  0.00000000E+00  0.00000000E+00  0.00000000E+00
  0.00000000E+00  0.00000000E+00  0.00000000E+00
  0.00000000E+00  0.00000000E+00  0.00000000E+00
  0.00000000E+00  0.00000000E+00  0.00000000E+00
  0.00000000E+00  0.00000000E+00  0.00000000E+00
  0.00000000E+00  0.00000000E+00  0.00000000E+00
