H4 W36 C1 S69 O1
1.0
  18.9192008971999996    0.0000000000000000    0.0000000000000000
  -9.4596004485999998   16.3845085963000017    0.0000000000000000
  -0.0000000000000000   -0.0000000000000000   24.6459999084000003
W S O C H
36 69 1 1 4
direct
   0.1225118244989052    0.0483976030980307    0.5007050324541338 W
   0.1262810694662206    0.2163413512932858    0.5009307132145279 W
   0.1262810527044724    0.3821618536923346    0.5009306844066076 W
   0.1225118489712148    0.5463364533264943    0.5007050305065560 W
   0.1203205213312624    0.7125742038205848    0.5011434052140199 W
   0.1203205096361266    0.8799685109418467    0.5011434077702157 W
   0.2881442044252587    0.0483958205605913    0.4976245566251079 W
   0.2945834595109286    0.2179251066343438    0.4923825718210761 W
   0.2967252132578151    0.3844737207085083    0.4903798181010627 W
   0.2945834679817850    0.5488805682601221    0.4923825687374115 W
   0.2881442386798357    0.7119705951165536    0.4976245544746575 W
   0.2872110366432070    0.8797166103751778    0.4998157538660684 W
   0.4536352037176523    0.0468949064589896    0.5002561207832290 W
   0.4505489672879419    0.2149631294889957    0.4947687615158978 W
   0.4481590674887578    0.3769359590921550    0.4885733847988851 W
   0.4481590746723344    0.5434453273753200    0.4885733830541801 W
   0.4505490110581242    0.7078080818132616    0.4947687836695943 W
   0.4536352182318093    0.8789624964554725    0.5002561348220183 W
   0.6204448688727792    0.0463335579787504    0.5030777261252097 W
   0.6189966181232471    0.2130206383356640    0.5019996722787945 W
   0.6147920083258809    0.3777259270014107    0.4990994007026497 W
   0.6121976809417735    0.5422099442156096    0.4982464090984083 W
   0.6147920149569259    0.7092882869019559    0.4990994634308817 W
   0.6189965848136005    0.8781981871125101    0.5019997645047140 W
   0.7875908195056460    0.0464314441613340    0.5046466986620806 W
   0.7875907740167278    0.2133816754070678    0.5046466260336618 W
   0.7857116958215951    0.3792504864261371    0.5035158204220583 W
   0.7835666811333051    0.5448174202194763    0.5025928155091091 W
   0.7835667022176812    0.7109715173655310    0.5025928776287231 W
   0.7857117716439004    0.8786834182046281    0.5035159437686465 W
   0.9553800138175643    0.0474392746313750    0.5039869668167332 W
   0.9567754013840025    0.2144988191952028    0.5045664151269287 W
   0.9553800054763639    0.3801629764719707    0.5039869143944332 W
   0.9533329368775316    0.5459420036570388    0.5031682109506698 W
   0.9522784093079439    0.7122503086015851    0.5028843940624933 W
   0.9533328955257521    0.8796131257946037    0.5031682660103146 W
   0.0706970093383245    0.1058078820497240    0.5660331925606037 S
   0.0733031811886390    0.2727627070859617    0.5663932838140723 S
   0.0706969942508710    0.4371113530141094    0.5660332009595326 S
   0.0673242779205485    0.6020732942352430    0.5657196913827771 S
   0.0656208050283222    0.7689215010601543    0.5657264475298444 S
   0.0673242796307493    0.9374731912599839    0.5657196854183204 S
   0.2400410948326837    0.1112963302672255    0.5606784581821856 S
   0.2519290380209243    0.2803840513738337    0.5587028118224936 S
   0.2519289755660073    0.4437671825960003    0.5587027993255367 S
   0.2400411317000848    0.6009670005741629    0.5606784617933193 S
   0.2335357579159298    0.7676691043294623    0.5634218918124420 S
   0.2335357404592090    0.9380888244320570    0.5634218970059826 S
   0.3976577647646137    0.1071558708447610    0.5615714525050696 S
   0.3976577968379778    0.7627241053065258    0.5615714396023673 S
   0.3975929427336277    0.9349075609419959    0.5642647050104134 S
   0.5626814258799671    0.1018012429360661    0.5660514082143272 S
   0.5561968891479333    0.2680765685576852    0.5628267831110498 S
   0.5459449289660325    0.4265321575514427    0.5596527915793311 S
   0.5459449300158361    0.5916349736109295    0.5596527833832750 S
   0.5561969218642486    0.7603425132208887    0.5628268018564853 S
   0.5626813919731229    0.9331024510831212    0.5660514527651673 S
   0.7307645455571857    0.1014934699582950    0.5684008486596412 S
   0.7290352794220665    0.2683776519237810    0.5676317135841542 S
   0.7246743540039806    0.4328245785535155    0.5656678574947325 S
   0.7221588351611694    0.5971905255193068    0.5650062399478443 S
   0.7246743056465483    0.7640719646500149    0.5656679247673124 S
   0.7290352997663432    0.9328798746183730    0.5676317432847143 S
   0.9002460831807930    0.1028047282651112    0.5686062959946578 S
   0.9002460131656274    0.2696635637884041    0.5686062788722038 S
   0.8980205037436160    0.4353681919768324    0.5676362303820286 S
   0.8957251595745077    0.6007303378767612    0.5668568548618067 S
   0.8957251639481507    0.7672170105753858    0.5668568650054406 S
   0.8980205862640955    0.9348746078023380    0.5676363026452765 S
   0.0648099555336748    0.1031073553454937    0.4383977747365591 S
   0.0660578409594412    0.2691400307846777    0.4388917857340943 S
   0.0648099576947860    0.4339248326681900    0.4383977778607984 S
   0.0633130916508498    0.6005112080823646    0.4378731631546369 S
   0.0627065036586599    0.7674643556804392    0.4378869900637202 S
   0.0633130432497660    0.9350240774666618    0.4378731720404602 S
   0.2301561092347330    0.1013856626969653    0.4329789309689552 S
   0.2310336456045041    0.2678539289235113    0.4307898508666863 S
   0.2310336521105430    0.4354019437367189    0.4307898449428041 S
   0.2301561208318105    0.6009926695771438    0.4329789118177744 S
   0.2300793216921055    0.7683030437569986    0.4356470668629908 S
   0.2300793094203346    0.9339984662375406    0.4356470757488141 S
   0.3998117162343544    0.1017481928250487    0.4334596678043052 S
   0.4001559969260987    0.2679067656012127    0.4254981401028819 S
   0.4014491480627973    0.4368356778558675    0.4228806807082638 S
   0.4001560263388538    0.6044714537997522    0.4254981232644497 S
   0.3998117660562198    0.7702857437451652    0.4334596415120061 S
   0.3989091193132362    0.9355656578837885    0.4361246457416627 S
   0.5666241058260000    0.1023104356867040    0.4379191091501010 S
   0.5652481185139913    0.2673107503504285    0.4347497161333714 S
   0.5641596572260619    0.4345321216778981    0.4310672220029927 S
   0.5641596807380921    0.6018497477688677    0.4310672093843121 S
   0.5652482661547203    0.7701597450929709    0.4347497931032654 S
   0.5666242204815646    0.9365358430990833    0.4379191740287834 S
   0.7332072871611574    0.1027147275799315    0.4402823949659120 S
   0.7324088234535359    0.2683721126059879    0.4395874572452410 S
   0.7308519334553139    0.4343887993447199    0.4382243419273452 S
   0.7293866556739925    0.6008044599044597    0.4378078284144769 S
   0.7308520500565733    0.7686856016447228    0.4382244720498808 S
   0.7324088810941969    0.9362590306470440    0.4395875462657721 S
   0.8992515940546209    0.1029896646629403    0.4407109522587488 S
   0.8992516401268996    0.2684841691250594    0.4407109136723655 S
   0.8978660885372066    0.4342207802684186    0.4398453489527644 S
   0.8963480259049219    0.6006727728912472    0.4392116457125613 S
   0.8963480150163321    0.7678974635736845    0.4392116481064589 S
   0.8978658905119581    0.9358674640057687    0.4398454687287935 S
   0.4446822114969012    0.4364108314249180    0.5932937301122172 O
   0.4738344337305823    0.4813077043263194    0.6437355561537846 C
   0.5283366990404996    0.4807508136544771    0.6586674843112043 H
   0.4277117194848901    0.3787343649965380    0.5982753527064035 H
   0.4246500714805897    0.4549343726233728    0.6740318177286908 H
   0.4892274396815081    0.5442074235301488    0.6348209225087071 H
