W48 S97                                 
   1.00000000000000     
    33.0000000000000000    0.0000000000000000    0.0000000000000000
     0.0000000000000000   25.2255992888999998    0.0000000000000000
     0.0000000000000000    0.0000000000000000   17.4930000304999993
   W    S    O    C 
    48    97     1     1
Direct
  0.2890254555968013  0.0385639068137658  0.5000046956050053
  0.2905391085780261  0.2851685235445848  0.5000044146873133
  0.2891518427569962  0.5386199744881270  0.5000056752446136
  0.2906837716589239  0.7850814318101026  0.5000076474770979
  0.4560147845050321  0.0354576360149847  0.4999922782483027
  0.4561161420429545  0.2856538383637857  0.4999961925210173
  0.4561099771911470  0.5355230276979702  0.5000014130197722
  0.4563353325554891  0.7857545206090427  0.4999973119183543
  0.6228837385589026  0.0357774426979605  0.4999944450741459
  0.6236427423558482  0.2845951583153221  0.4999992558270955
  0.6236590211049029  0.5356736235863718  0.5000007231537775
  0.6230629492924928  0.7851068310492957  0.4999980677500970
  0.2905166462974502  0.1607687099394980  0.5000020278913786
  0.2890922334603153  0.4073336879792362  0.5000033879072208
  0.2906937627784852  0.6607826839367018  0.5000049744666112
  0.2890981604639506  0.9072283457456564  0.5000069319992009
  0.4560064727412934  0.1602697595604841  0.4999923616749245
  0.4562320476467617  0.4102586817754859  0.5000002591783274
  0.4562529203479416  0.6601647032731482  0.5000009156350246
  0.4561866727307454  0.9102895971072442  0.4999937978051229
  0.6216924093799897  0.1606099033166438  0.4999960799385228
  0.6229515663023470  0.4099890260229976  0.5000002564986429
  0.6219650398756139  0.6603085743342334  0.4999999000512688
  0.6234209605608644  0.9104491475381236  0.4999962343523880
  0.3723303977672706  0.2229694255907165  0.4999974360713171
  0.3719686625004245  0.4729194284351705  0.5000027452589059
  0.3725248872759578  0.7229704388286888  0.5000020558019975
  0.3719011676820407  0.9729088285403188  0.4999971919355169
  0.5394428619862162  0.2230641418004614  0.4999959475793376
  0.5397405610697206  0.4728349990566449  0.5000002794367929
  0.5392951696507586  0.7230254018481579  0.4999982489084600
  0.5398187255176827  0.9729491549162581  0.4999918906383530
  0.7053822244230245  0.2191228851203849  0.5000014023553578
  0.7053742600684393  0.4696257844895407  0.5000027169448977
  0.7069690505368484  0.7245927737066477  0.5000019052157941
  0.7086923508958014  0.9803025052541831  0.5000001902970140
  0.3734579393969942  0.0979972889045845  0.4999952413582145
  0.3735424159422211  0.3478883122634905  0.5000012209674083
  0.3736215038030916  0.5980192398727033  0.5000032292596290
  0.3736309130878424  0.8478586117822762  0.5000004227721269
  0.5390874889615113  0.0977679369381317  0.4999919086023495
  0.5397629677923667  0.3478156161701829  0.4999991737530290
  0.5397330268776207  0.5977528103466943  0.5000006575745819
  0.5399743371487635  0.8479402205906608  0.4999943367745408
  0.7064295017955293  0.0955626199290660  0.5000001118538212
  0.7018662644350061  0.3492125882046508  0.5000020808112575
  0.7052874098291044  0.6027735799799383  0.5000029343177893
  0.7088473922503680  0.8406862047610243  0.5000008627390053
  0.2624313879034714  0.0992061340918380  0.5888459993558997
  0.2624602634864680  0.3467180707432502  0.5888479466940169
  0.2625782991458313  0.5992608037664715  0.5888705733640016
  0.2625323449680645  0.8465963294400152  0.5888741950808811
  0.4284074321759714  0.0978319759625279  0.5907141703540846
  0.4285303054737620  0.3480307691490431  0.5907294701439192
  0.4285670049572579  0.5978490957102325  0.5907595149585136
  0.4286020493629168  0.8480264551911145  0.5907448477041984
  0.5944058911250397  0.0979564184962406  0.5901394691731774
  0.5954291161788351  0.3471731786456443  0.5902993771126758
  0.5951744411075603  0.5973342688766405  0.5905068865950112
  0.5957471712624031  0.8480877944146434  0.5900742433532570
  0.4280978102787167  0.2229862403530229  0.5899710215581914
  0.4279041744778165  0.4728736263238169  0.5897659088402792
  0.4283425761509539  0.7229805644631050  0.5899087561856022
  0.4278095835295692  0.9728451022576060  0.5897859506706885
  0.5948237461548698  0.2233826953180821  0.5905177455165399
  0.5954821837406484  0.4730157853052057  0.5897268320039791
  0.5946145594915606  0.7229259915760602  0.5901009766395817
  0.5955940252079672  0.9727689763499204  0.5900310493047515
  0.3437983642169253  0.0354114436287968  0.5897852249744243
  0.3445725986936983  0.2852089420060029  0.5906012150797604
  0.3439271281852476  0.5354507926164374  0.5897846629242066
  0.3447173265372601  0.7851726916764572  0.5906354600576561
  0.5115277089909938  0.0351155139448994  0.5902463497143813
  0.5116244949499523  0.2855060699531911  0.5901195618401366
  0.5117006143864973  0.5352630799322742  0.5900745538931875
  0.5118047625587590  0.7856720366915277  0.5902664268977547
  0.6784577529616260  0.0361528805793408  0.5926087528593067
  0.6810809511810909  0.2836418719259763  0.5906146730032634
  0.6817591116549366  0.5367687111252697  0.5889538095608678
  0.6788105597539503  0.7845105544675721  0.5924428757444923
  0.3445412254770058  0.1607217471521565  0.5906066682570730
  0.3438664952535581  0.4104640400834197  0.5897893739460732
  0.3447250699920509  0.6607403694752528  0.5906143399471847
  0.3438788602930781  0.9104023488901271  0.5897853308201989
  0.5114314457168687  0.1604964934319498  0.5901706502649791
  0.5118889924662560  0.4104297720705865  0.5901334475476764
  0.5116998269402030  0.6602872410337519  0.5901824008032664
  0.5118840526280484  0.9104579238656519  0.5900189131759818
  0.6780234206163379  0.1583832271064686  0.5904324671065218
  0.6786352245908367  0.4103794238597968  0.5932037565730445
  0.6780160922751490  0.6625510352113094  0.5910300656724760
  0.6814401769010421  0.9104647870558227  0.5860560628114632
  0.2624271469281326  0.0992070490120068  0.4111654003510716
  0.2624597228263326  0.3467187387747917  0.4111612806366877
  0.2625770979522046  0.5992603803671571  0.4111407407553151
  0.2625261128248307  0.8465959046919569  0.4111486513346971
  0.4284055094674836  0.0978320160563265  0.4092706400163597
  0.4285288319193804  0.3480328809061571  0.4092679809915933
  0.4285657895768148  0.5978487612870312  0.4092432477969977
  0.4285994276054438  0.8480242950308275  0.4092471482664888
  0.5944076798399037  0.0979572879630855  0.4098458718742741
  0.5954296790286837  0.3471739740492462  0.4096993728191212
  0.5951744104945130  0.5973335552156235  0.4094931104680419
  0.5957487791270245  0.8480867120439248  0.4099169789239513
  0.2390922902166732  0.2229808621652274  0.5000059564304454
  0.2400936897087833  0.4729987914566370  0.5000046589990690
  0.2392227645265636  0.7229287791261203  0.5000053966753523
  0.2400472799635932  0.9728516222068064  0.5000019173426448
  0.4280959393985157  0.2229886253231708  0.4100146338307886
  0.4279030925067290  0.4728744648033057  0.4102359622088015
  0.4283408377264938  0.7229784943367586  0.4100898947937215
  0.4278063286760182  0.9728422771948130  0.4101991964757412
  0.5948248510766929  0.2233848703673982  0.4094753943180045
  0.5954825163276218  0.4730160228044084  0.4102733029644041
  0.5946151310063085  0.7229247807667118  0.4098952229205375
  0.5955959924569060  0.9727680781471650  0.4099556460564103
  0.3437921250236289  0.0354099153683511  0.4102106637229752
  0.3445698754925851  0.2852109124356248  0.4094010888260159
  0.3439251332761774  0.5354513703009903  0.4102238487313143
  0.3447133469666828  0.7851719734858701  0.4093709776890315
  0.5115271764003464  0.0351156102703993  0.4097344148296416
  0.5116252689362877  0.2855083078598942  0.4098729292649291
  0.5117002319556689  0.5352632455313928  0.4099259482745525
  0.5118042322353419  0.7856698442051214  0.4097243190406268
  0.6784610369422868  0.0361526710645412  0.4073866272068779
  0.6810823610687046  0.2836424527392098  0.4093873892504692
  0.6817602787151459  0.5367688086947511  0.4110505038791807
  0.6788125034224544  0.7845096255772678  0.4075570970561747
  0.3445380829534375  0.1607231344683830  0.4093896882933523
  0.3438658218681505  0.4104651354990476  0.4102154156793348
  0.3447236431168653  0.6607397255308781  0.4093919823259000
  0.3438744536802624  0.9104002291317723  0.4102169183541008
  0.5114316199354777  0.1604997066481514  0.4098127265540569
  0.5118888890916780  0.4104303556789007  0.4098654441957163
  0.5116991745297389  0.6602852061851144  0.4098166799779716
  0.5118836432607172  0.9104562976573249  0.4099652075871320
  0.6780264172835903  0.1583841711849571  0.4095654346362247
  0.6786365251461168  0.4103799456444637  0.4067996401067029
  0.6780177552795349  0.6625503714420099  0.4089727218531535
  0.6814428300105182  0.9104643518201989  0.4139420929453216
  0.7594709505514582  0.9106557131163886  0.5000035366233020
  0.7643460685793209  0.7808889942665209  0.5000039525690084
  0.7633449352990668  0.6490390715225141  0.5000051262445392
  0.7639474824900990  0.1752650729770636  0.5000051009626371
  0.7642234099862777  0.0408757123651760  0.5000019428150738
  0.8010268781744720  0.4582566452493628  0.5000055630193641
  0.7655552897219188  0.4628166783128930  0.5000023652749922
 
  0.00000000E+00  0.00000000E+00  0.00000000E+00
  0.00000000E+00  0.00000000E+00  0.00000000E+00
  0.00000000E+00  0.00000000E+00  0.00000000E+00
  0.00000000E+00  0.00000000E+00  0.00000000E+00
  0.00000000E+00  0.00000000E+00  0.00000000E+00
  0.00000000E+00  0.00000000E+00  0.00000000E+00
  0.00000000E+00  0.00000000E+00  0.00000000E+00
  0.00000000E+00  0.00000000E+00  0.00000000E+00
  0.00000000E+00  0.00000000E+00  0.00000000E+00
  0.00000000E+00  0.00000000E+00  0.00000000E+00
  0.00000000E+00  0.00000000E+00  0.00000000E+00
  0.00000000E+00  0.00000000E+00  0.00000000E+00
  0.00000000E+00  0.00000000E+00  0.00000000E+00
  0.00000000E+00  0.00000000E+00  0.00000000E+00
  0.00000000E+00  0.00000000E+00  0.00000000E+00
  0.00000000E+00  0.00000000E+00  0.00000000E+00
  0.00000000E+00  0.00000000E+00  0.00000000E+00
  0.00000000E+00  0.00000000E+00  0.00000000E+00
  0.00000000E+00  0.00000000E+00  0.00000000E+00
  0.00000000E+00  0.00000000E+00  0.00000000E+00
  0.00000000E+00  0.00000000E+00  0.00000000E+00
  0.00000000E+00  0.00000000E+00  0.00000000E+00
  0.00000000E+00  0.00000000E+00  0.00000000E+00
  0.00000000E+00  0.00000000E+00  0.00000000E+00
  0.00000000E+00  0.00000000E+00  0.00000000E+00
  0.00000000E+00  0.00000000E+00  0.00000000E+00
  0.00000000E+00  0.00000000E+00  0.00000000E+00
  0.00000000E+00  0.00000000E+00  0.00000000E+00
  0.00000000E+00  0.00000000E+00  0.00000000E+00
  0.00000000E+00  0.00000000E+00  0.00000000E+00
  0.00000000E+00  0.00000000E+00  0.00000000E+00
  0.00000000E+00  0.00000000E+00  0.00000000E+00
  0.00000000E+00  0.00000000E+00  0.00000000E+00
  0.00000000E+00  0.00000000E+00  0.00000000E+00
  0.00000000E+00  0.00000000E+00  0.00000000E+00
  0.00000000E+00  0.00000000E+00  0.00000000E+00
  0.00000000E+00  0.00000000E+00  0.00000000E+00
  0.00000000E+00  0.00000000E+00  0.00000000E+00
  0.00000000E+00  0.00000000E+00  0.00000000E+00
  0.00000000E+00  0.00000000E+00  0.00000000E+00
  0.00000000E+00  0.00000000E+00  0.00000000E+00
  0.00000000E+00  0.00000000E+00  0.00000000E+00
  0.00000000E+00  0.00000000E+00  0.00000000E+00
  0.00000000E+00  0.00000000E+00  0.00000000E+00
  0.00000000E+00  0.00000000E+00  0.00000000E+00
  0.00000000E+00  0.00000000E+00  0.00000000E+00
  0.00000000E+00  0.00000000E+00  0.00000000E+00
  0.00000000E+00  0.00000000E+00  0.00000000E+00
  0.00000000E+00  0.00000000E+00  0.00000000E+00
  0.00000000E+00  0.00000000E+00  0.00000000E+00
  0.00000000E+00  0.00000000E+00  0.00000000E+00
  0.00000000E+00  0.00000000E+00  0.00000000E+00
  0.00000000E+00  0.00000000E+00  0.00000000E+00
  0.00000000E+00  0.00000000E+00  0.00000000E+00
  0.00000000E+00  0.00000000E+00  0.00000000E+00
  0.00000000E+00  0.00000000E+00  0.00000000E+00
  0.00000000E+00  0.00000000E+00  0.00000000E+00
  0.00000000E+00  0.00000000E+00  0.00000000E+00
  0.00000000E+00  0.00000000E+00  0.00000000E+00
  0.00000000E+00  0.00000000E+00  0.00000000E+00
  0.00000000E+00  0.00000000E+00  0.00000000E+00
  0.00000000E+00  0.00000000E+00  0.00000000E+00
  0.00000000E+00  0.00000000E+00  0.00000000E+00
  0.00000000E+00  0.00000000E+00  0.00000000E+00
  0.00000000E+00  0.00000000E+00  0.00000000E+00
  0.00000000E+00  0.00000000E+00  0.00000000E+00
  0.00000000E+00  0.00000000E+00  0.00000000E+00
  0.00000000E+00  0.00000000E+00  0.00000000E+00
  0.00000000E+00  0.00000000E+00  0.00000000E+00
  0.00000000E+00  0.00000000E+00  0.00000000E+00
  0.00000000E+00  0.00000000E+00  0.00000000E+00
  0.00000000E+00  0.00000000E+00  0.00000000E+00
  0.00000000E+00  0.00000000E+00  0.00000000E+00
  0.00000000E+00  0.00000000E+00  0.00000000E+00
  0.00000000E+00  0.00000000E+00  0.00000000E+00
  0.00000000E+00  0.00000000E+00  0.00000000E+00
  0.00000000E+00  0.00000000E+00  0.00000000E+00
  0.00000000E+00  0.00000000E+00  0.00000000E+00
  0.00000000E+00  0.00000000E+00  0.00000000E+00
  0.00000000E+00  0.00000000E+00  0.00000000E+00
  0.00000000E+00  0.00000000E+00  0.00000000E+00
  0.00000000E+00  0.00000000E+00  0.00000000E+00
  0.00000000E+00  0.00000000E+00  0.00000000E+00
  0.00000000E+00  0.00000000E+00  0.00000000E+00
  0.00000000E+00  0.00000000E+00  0.00000000E+00
  0.00000000E+00  0.00000000E+00  0.00000000E+00
  0.00000000E+00  0.00000000E+00  0.00000000E+00
  0.00000000E+00  0.00000000E+00  0.00000000E+00
  0.00000000E+00  0.00000000E+00  0.00000000E+00
  0.00000000E+00  0.00000000E+00  0.00000000E+00
  0.00000000E+00  0.00000000E+00  0.00000000E+00
  0.00000000E+00  0.00000000E+00  0.00000000E+00
  0.00000000E+00  0.00000000E+00  0.00000000E+00
  0.00000000E+00  0.00000000E+00  0.00000000E+00
  0.00000000E+00  0.00000000E+00  0.00000000E+00
  0.00000000E+00  0.00000000E+00  0.00000000E+00
  0.00000000E+00  0.00000000E+00  0.00000000E+00
  0.00000000E+00  0.00000000E+00  0.00000000E+00
  0.00000000E+00  0.00000000E+00  0.00000000E+00
  0.00000000E+00  0.00000000E+00  0.00000000E+00
  0.00000000E+00  0.00000000E+00  0.00000000E+00
  0.00000000E+00  0.00000000E+00  0.00000000E+00
  0.00000000E+00  0.00000000E+00  0.00000000E+00
  0.00000000E+00  0.00000000E+00  0.00000000E+00
  0.00000000E+00  0.00000000E+00  0.00000000E+00
  0.00000000E+00  0.00000000E+00  0.00000000E+00
  0.00000000E+00  0.00000000E+00  0.00000000E+00
  0.00000000E+00  0.00000000E+00  0.00000000E+00
  0.00000000E+00  0.00000000E+00  0.00000000E+00
  0.00000000E+00  0.00000000E+00  0.00000000E+00
  0.00000000E+00  0.00000000E+00  0.00000000E+00
  0.00000000E+00  0.00000000E+00  0.00000000E+00
  0.00000000E+00  0.00000000E+00  0.00000000E+00
  0.00000000E+00  0.00000000E+00  0.00000000E+00
  0.00000000E+00  0.00000000E+00  0.00000000E+00
  0.00000000E+00  0.00000000E+00  0.00000000E+00
  0.00000000E+00  0.00000000E+00  0.00000000E+00
  0.00000000E+00  0.00000000E+00  0.00000000E+00
  0.00000000E+00  0.00000000E+00  0.00000000E+00
  0.00000000E+00  0.00000000E+00  0.00000000E+00
  0.00000000E+00  0.00000000E+00  0.00000000E+00
  0.00000000E+00  0.00000000E+00  0.00000000E+00
  0.00000000E+00  0.00000000E+00  0.00000000E+00
  0.00000000E+00  0.00000000E+00  0.00000000E+00
  0.00000000E+00  0.00000000E+00  0.00000000E+00
  0.00000000E+00  0.00000000E+00  0.00000000E+00
  0.00000000E+00  0.00000000E+00  0.00000000E+00
  0.00000000E+00  0.00000000E+00  0.00000000E+00
  0.00000000E+00  0.00000000E+00  0.00000000E+00
  0.00000000E+00  0.00000000E+00  0.00000000E+00
  0.00000000E+00  0.00000000E+00  0.00000000E+00
  0.00000000E+00  0.00000000E+00  0.00000000E+00
  0.00000000E+00  0.00000000E+00  0.00000000E+00
  0.00000000E+00  0.00000000E+00  0.00000000E+00
  0.00000000E+00  0.00000000E+00  0.00000000E+00
  0.00000000E+00  0.00000000E+00  0.00000000E+00
  0.00000000E+00  0.00000000E+00  0.00000000E+00
  0.00000000E+00  0.00000000E+00  0.00000000E+00
  0.00000000E+00  0.00000000E+00  0.00000000E+00
  0.00000000E+00  0.00000000E+00  0.00000000E+00
  0.00000000E+00  0.00000000E+00  0.00000000E+00
  0.00000000E+00  0.00000000E+00  0.00000000E+00
  0.00000000E+00  0.00000000E+00  0.00000000E+00
  0.00000000E+00  0.00000000E+00  0.00000000E+00
  0.00000000E+00  0.00000000E+00  0.00000000E+00
  0.00000000E+00  0.00000000E+00  0.00000000E+00
  0.00000000E+00  0.00000000E+00  0.00000000E+00
