Mo48 Se98                               
   1.00000000000000     
    33.0000000000000000    0.0000000000000000    0.0000000000000000
     0.0000000000000000   26.3120002747000008    0.0000000000000000
     0.0000000000000000    0.0000000000000000   18.0970001220999990
   Mo   Se   O    C 
    48    98     1     1
Direct
  0.2811760885169415  0.0409773557136963  0.5039733760479610
  0.2850754523776325  0.2782899526321768  0.5069522315294316
  0.2886089096046036  0.5301683627335441  0.5062350532983891
  0.2862584722496581  0.7825750614622463  0.5057396157542223
  0.4544865376726044  0.0359011881664494  0.5018672707324577
  0.4532464453244417  0.2854003129625409  0.5008147932712189
  0.4544012446485992  0.5351273072428411  0.5023700607754420
  0.4552150326893185  0.7854869179665593  0.5015269772057127
  0.6270793479655794  0.0367053260785330  0.4996277684436619
  0.6262666092509535  0.2853354622384947  0.4995132283123141
  0.6269263836107311  0.5339144561205087  0.4999170072778942
  0.6274179058519697  0.7853781158385105  0.4998797965722626
  0.2864100203689182  0.1669545967671788  0.5040673273436324
  0.2860277889538107  0.4211171671674862  0.4959772083635049
  0.2871509162211935  0.6636373662132781  0.5060137095777256
  0.2822345443497254  0.9081988042877609  0.4976789905171733
  0.4541693580521417  0.1604325422632083  0.5010025624080222
  0.4536271002226738  0.4102038239629466  0.5014852025687069
  0.4551279505531629  0.6599486395217204  0.5018706178262184
  0.4548844361310534  0.9105095744397497  0.5017586114084767
  0.6266319626779440  0.1617449953204637  0.4994948680669211
  0.6264803913512339  0.4089209752718052  0.4997283340047388
  0.6276972543558661  0.6594854455158460  0.4999315293689456
  0.6277690242159574  0.9111649791608921  0.4997252641871777
  0.3678765124072954  0.2230886413665021  0.5018692862757176
  0.3674620937307208  0.4730742826384408  0.5024957153518597
  0.3689122399515909  0.7218807536581535  0.5018950099026722
  0.3672906730399135  0.9728677538505195  0.5032965622156863
  0.5397106042932390  0.2233329795440087  0.5001819068183900
  0.5408795070240551  0.4719118901515345  0.5007903150161734
  0.5415807979641616  0.7224968160848648  0.5008156040914181
  0.5412648745931418  0.9733816388075156  0.5007048298944747
  0.7139052810404517  0.2271657162367502  0.4988441532685737
  0.7149422710026181  0.4613904376939688  0.4990167762025156
  0.7146550499645753  0.7140887645800653  0.4988730889031001
  0.7146118169369025  0.9656869722241471  0.4987358616954329
  0.3688440072782049  0.0984893903798225  0.5029894432819153
  0.3659692056324441  0.3484347433071607  0.5018889228958034
  0.3681467401873316  0.5973851346622069  0.5047780826353189
  0.3693836910089373  0.8472646491961209  0.5026703130026449
  0.5411438613517316  0.0986892050220687  0.5004371339366604
  0.5395530932524141  0.3474822249568917  0.5003299710551391
  0.5413109943618061  0.5972912268454774  0.5010308560430754
  0.5415184638617234  0.8482968444101888  0.5007093239264142
  0.7150779865212937  0.1092489913163206  0.4987116124256804
  0.7138284084870041  0.3435473309574444  0.4990083021546664
  0.7144931277202610  0.6049516234889073  0.4989194394643808
  0.7147161745615825  0.8565794412359368  0.4987920026057763
  0.2542903858414607  0.1029626480153740  0.5931271223119262
  0.2464432298138037  0.3479408541404478  0.5615804345916815
  0.2468790499378705  0.5987524155433455  0.5636936077054290
  0.2539005828275871  0.8430934748246166  0.5895886418052425
  0.4263470993594360  0.0980983627833060  0.5951486557357035
  0.4242311567680150  0.3477726347974875  0.5935785533274381
  0.4266221447321314  0.5978376603123756  0.5956029175043022
  0.4269124705486583  0.8480725847918377  0.5950206410860742
  0.5990896752844455  0.0986642558095861  0.5928501470328310
  0.5972791879285694  0.3472904192480852  0.5924203025902564
  0.5993807605698078  0.5967925950501294  0.5928670733886913
  0.5995855642085410  0.8481033553899222  0.5925828954390649
  0.4257008818991082  0.2228295404264372  0.5940304959447840
  0.4257299256153618  0.4724780232825156  0.5949429305818412
  0.4270113042589477  0.7227587928219030  0.5942291756575324
  0.4257468053842106  0.9730185971664067  0.5944292401965414
  0.5973775722603554  0.2232670194541448  0.5923408345484183
  0.5989348804697090  0.4719373843051316  0.5931076088694621
  0.5996538509031513  0.7227352734780096  0.5927032669884151
  0.5993594915052258  0.9738631706030397  0.5925191447471538
  0.3381910029220864  0.0356742853992993  0.5953887522980796
  0.3383398370843903  0.2835583029350795  0.5989293718790910
  0.3392256863315219  0.5342912192553892  0.6023778548734727
  0.3426396302729751  0.7834541499843186  0.5975398186114940
  0.5127418873238746  0.0359050434995286  0.5934321887397985
  0.5108704274025304  0.2853986705760094  0.5933301990362064
  0.5127514858109204  0.5347353585819548  0.5937818456849884
  0.5132838843577644  0.7854521694940391  0.5934230889135580
  0.6881936418857646  0.0374915558023288  0.5865221165106769
  0.6846797509879803  0.2852680517916372  0.5950423549065310
  0.6880790263874299  0.5332119214075088  0.5867781497108520
  0.6884013755576617  0.7853803463985163  0.5871039551895902
  0.3407208177844042  0.1615996222141132  0.5982129710632262
  0.3371361707405041  0.4106542754020726  0.5965552067526203
  0.3399081283247060  0.6616449188717203  0.6000133576565734
  0.3368048747233716  0.9092394757747807  0.5940295820486168
  0.5119762354653354  0.1605533892035267  0.5932819159666529
  0.5115990421644105  0.4100282093553532  0.5935420708204817
  0.5132344220459752  0.6601022849931747  0.5938686793280039
  0.5130256849010835  0.9107554765695057  0.5936699454364656
  0.6848148066269754  0.1640349884528661  0.5947612665417663
  0.6846586494275626  0.4065712974963839  0.5950065473175986
  0.6845180091684095  0.6594892420837579  0.5973630531359208
  0.6845711640450259  0.9112552168036941  0.5971976611399239
  0.2543968029896499  0.1024469826039383  0.4137503657119682
  0.2538825574693186  0.8476875610887162  0.4123086328142794
  0.4254530752212186  0.0976582202377741  0.4087420450084439
  0.4239737146793860  0.3478762302838571  0.4090810178842411
  0.4254054575477398  0.5977164281948227  0.4103374972583128
  0.4263878579493247  0.8479155257003885  0.4089029710075073
  0.5985177874575366  0.0985549690935642  0.4068327336705243
  0.5968115427402898  0.3474461253846560  0.4072715546018115
  0.5986842163290755  0.5968098152343703  0.4077253284942965
  0.5989782836132554  0.8480043881441138  0.4076135687423398
  0.2280000059682186  0.2216419732284730  0.4874811792385231
  0.2284418562777321  0.4805720897285556  0.4821378209337339
  0.2343196318070848  0.7221270522385429  0.4677308339711788
  0.2304113265603661  0.9735963097322804  0.5072585201625719
  0.4248763528601824  0.2228030273327013  0.4080777741138468
  0.4253577162460104  0.4733455472902736  0.4095708950110887
  0.4263829711701673  0.7225191814518011  0.4092081045935290
  0.4251033402333113  0.9731016879075053  0.4101594460358570
  0.5969017520430013  0.2232602740267859  0.4071112263506398
  0.5983062259476624  0.4720811110738216  0.4071511625802739
  0.5990380291808014  0.7227118133259891  0.4077107336627220
  0.5986977168607602  0.9737962541587678  0.4075159033551395
  0.3375892030106111  0.0356009663133667  0.4115909239512632
  0.3345075839714042  0.2856775584020460  0.4084495760207608
  0.3380018229135173  0.5368987650320716  0.4081923464981713
  0.3390085352167355  0.7850244015450756  0.4092048424230795
  0.5119574565537480  0.0357394459466587  0.4086738436502760
  0.5104744297604622  0.2854455481025562  0.4075356672866781
  0.5119051296896217  0.5349536624474533  0.4090924767645814
  0.5127651203282720  0.7853595638041543  0.4086285261892567
  0.6876384505235877  0.0373679677536257  0.4114397659517334
  0.6842935421565638  0.2853578936096826  0.4031877880842216
  0.6874966996447811  0.5332051683975922  0.4117227270465634
  0.6877664534339100  0.7853044271988352  0.4113018934169680
  0.3393265060259731  0.1606907056413976  0.4083678297588431
  0.3402741422647829  0.4122085303645006  0.4050518927717842
  0.3377613660199877  0.6585053497693768  0.4088285780632847
  0.3401511561104256  0.9105117842915019  0.4096679102418550
  0.5114633789035996  0.1604115352143516  0.4077440644311227
  0.5110073145741298  0.4103043159706872  0.4081101610861900
  0.5125834050486801  0.6599850580900462  0.4085858088106574
  0.5123477772731464  0.9107505093218846  0.4083817858668317
  0.6843315449350039  0.1640959779650649  0.4032434826876248
  0.7754680516032270  0.9120900133223947  0.4977723815073788
  0.7676484165729446  0.7852277084658527  0.4981004462543118
  0.7753575625574208  0.6584187216044802  0.4976985608276535
  0.7672494055732276  0.5320789340058315  0.4984105937135705
  0.7738441954802914  0.4053583863599162  0.4991455349587895
  0.7735192944954771  0.2853697662656846  0.4985317781075569
  0.7739533019007725  0.1653085289782620  0.4984199217507852
  0.7673924383424506  0.0385501722835385  0.4984907329429058
  0.6842014402789451  0.4066491884202471  0.4034972091077050
  0.6837988969049651  0.6594497942066457  0.4011863192390469
  0.6838966907118493  0.9111382798466567  0.4009887884294197
  0.2365749207353141  0.3656003727623202  0.3681414606146188
  0.2536608285677502  0.3850120573605534  0.4166273912906259
 
  0.00000000E+00  0.00000000E+00  0.00000000E+00
  0.00000000E+00  0.00000000E+00  0.00000000E+00
  0.00000000E+00  0.00000000E+00  0.00000000E+00
  0.00000000E+00  0.00000000E+00  0.00000000E+00
  0.00000000E+00  0.00000000E+00  0.00000000E+00
  0.00000000E+00  0.00000000E+00  0.00000000E+00
  0.00000000E+00  0.00000000E+00  0.00000000E+00
  0.00000000E+00  0.00000000E+00  0.00000000E+00
  0.00000000E+00  0.00000000E+00  0.00000000E+00
  0.00000000E+00  0.00000000E+00  0.00000000E+00
  0.00000000E+00  0.00000000E+00  0.00000000E+00
  0.00000000E+00  0.00000000E+00  0.00000000E+00
  0.00000000E+00  0.00000000E+00  0.00000000E+00
  0.00000000E+00  0.00000000E+00  0.00000000E+00
  0.00000000E+00  0.00000000E+00  0.00000000E+00
  0.00000000E+00  0.00000000E+00  0.00000000E+00
  0.00000000E+00  0.00000000E+00  0.00000000E+00
  0.00000000E+00  0.00000000E+00  0.00000000E+00
  0.00000000E+00  0.00000000E+00  0.00000000E+00
  0.00000000E+00  0.00000000E+00  0.00000000E+00
  0.00000000E+00  0.00000000E+00  0.00000000E+00
  0.00000000E+00  0.00000000E+00  0.00000000E+00
  0.00000000E+00  0.00000000E+00  0.00000000E+00
  0.00000000E+00  0.00000000E+00  0.00000000E+00
  0.00000000E+00  0.00000000E+00  0.00000000E+00
  0.00000000E+00  0.00000000E+00  0.00000000E+00
  0.00000000E+00  0.00000000E+00  0.00000000E+00
  0.00000000E+00  0.00000000E+00  0.00000000E+00
  0.00000000E+00  0.00000000E+00  0.00000000E+00
  0.00000000E+00  0.00000000E+00  0.00000000E+00
  0.00000000E+00  0.00000000E+00  0.00000000E+00
  0.00000000E+00  0.00000000E+00  0.00000000E+00
  0.00000000E+00  0.00000000E+00  0.00000000E+00
  0.00000000E+00  0.00000000E+00  0.00000000E+00
  0.00000000E+00  0.00000000E+00  0.00000000E+00
  0.00000000E+00  0.00000000E+00  0.00000000E+00
  0.00000000E+00  0.00000000E+00  0.00000000E+00
  0.00000000E+00  0.00000000E+00  0.00000000E+00
  0.00000000E+00  0.00000000E+00  0.00000000E+00
  0.00000000E+00  0.00000000E+00  0.00000000E+00
  0.00000000E+00  0.00000000E+00  0.00000000E+00
  0.00000000E+00  0.00000000E+00  0.00000000E+00
  0.00000000E+00  0.00000000E+00  0.00000000E+00
  0.00000000E+00  0.00000000E+00  0.00000000E+00
  0.00000000E+00  0.00000000E+00  0.00000000E+00
  0.00000000E+00  0.00000000E+00  0.00000000E+00
  0.00000000E+00  0.00000000E+00  0.00000000E+00
  0.00000000E+00  0.00000000E+00  0.00000000E+00
  0.00000000E+00  0.00000000E+00  0.00000000E+00
  0.00000000E+00  0.00000000E+00  0.00000000E+00
  0.00000000E+00  0.00000000E+00  0.00000000E+00
  0.00000000E+00  0.00000000E+00  0.00000000E+00
  0.00000000E+00  0.00000000E+00  0.00000000E+00
  0.00000000E+00  0.00000000E+00  0.00000000E+00
  0.00000000E+00  0.00000000E+00  0.00000000E+00
  0.00000000E+00  0.00000000E+00  0.00000000E+00
  0.00000000E+00  0.00000000E+00  0.00000000E+00
  0.00000000E+00  0.00000000E+00  0.00000000E+00
  0.00000000E+00  0.00000000E+00  0.00000000E+00
  0.00000000E+00  0.00000000E+00  0.00000000E+00
  0.00000000E+00  0.00000000E+00  0.00000000E+00
  0.00000000E+00  0.00000000E+00  0.00000000E+00
  0.00000000E+00  0.00000000E+00  0.00000000E+00
  0.00000000E+00  0.00000000E+00  0.00000000E+00
  0.00000000E+00  0.00000000E+00  0.00000000E+00
  0.00000000E+00  0.00000000E+00  0.00000000E+00
  0.00000000E+00  0.00000000E+00  0.00000000E+00
  0.00000000E+00  0.00000000E+00  0.00000000E+00
  0.00000000E+00  0.00000000E+00  0.00000000E+00
  0.00000000E+00  0.00000000E+00  0.00000000E+00
  0.00000000E+00  0.00000000E+00  0.00000000E+00
  0.00000000E+00  0.00000000E+00  0.00000000E+00
  0.00000000E+00  0.00000000E+00  0.00000000E+00
  0.00000000E+00  0.00000000E+00  0.00000000E+00
  0.00000000E+00  0.00000000E+00  0.00000000E+00
  0.00000000E+00  0.00000000E+00  0.00000000E+00
  0.00000000E+00  0.00000000E+00  0.00000000E+00
  0.00000000E+00  0.00000000E+00  0.00000000E+00
  0.00000000E+00  0.00000000E+00  0.00000000E+00
  0.00000000E+00  0.00000000E+00  0.00000000E+00
  0.00000000E+00  0.00000000E+00  0.00000000E+00
  0.00000000E+00  0.00000000E+00  0.00000000E+00
  0.00000000E+00  0.00000000E+00  0.00000000E+00
  0.00000000E+00  0.00000000E+00  0.00000000E+00
  0.00000000E+00  0.00000000E+00  0.00000000E+00
  0.00000000E+00  0.00000000E+00  0.00000000E+00
  0.00000000E+00  0.00000000E+00  0.00000000E+00
  0.00000000E+00  0.00000000E+00  0.00000000E+00
  0.00000000E+00  0.00000000E+00  0.00000000E+00
  0.00000000E+00  0.00000000E+00  0.00000000E+00
  0.00000000E+00  0.00000000E+00  0.00000000E+00
  0.00000000E+00  0.00000000E+00  0.00000000E+00
  0.00000000E+00  0.00000000E+00  0.00000000E+00
  0.00000000E+00  0.00000000E+00  0.00000000E+00
  0.00000000E+00  0.00000000E+00  0.00000000E+00
  0.00000000E+00  0.00000000E+00  0.00000000E+00
  0.00000000E+00  0.00000000E+00  0.00000000E+00
  0.00000000E+00  0.00000000E+00  0.00000000E+00
  0.00000000E+00  0.00000000E+00  0.00000000E+00
  0.00000000E+00  0.00000000E+00  0.00000000E+00
  0.00000000E+00  0.00000000E+00  0.00000000E+00
  0.00000000E+00  0.00000000E+00  0.00000000E+00
  0.00000000E+00  0.00000000E+00  0.00000000E+00
  0.00000000E+00  0.00000000E+00  0.00000000E+00
  0.00000000E+00  0.00000000E+00  0.00000000E+00
  0.00000000E+00  0.00000000E+00  0.00000000E+00
  0.00000000E+00  0.00000000E+00  0.00000000E+00
  0.00000000E+00  0.00000000E+00  0.00000000E+00
  0.00000000E+00  0.00000000E+00  0.00000000E+00
  0.00000000E+00  0.00000000E+00  0.00000000E+00
  0.00000000E+00  0.00000000E+00  0.00000000E+00
  0.00000000E+00  0.00000000E+00  0.00000000E+00
  0.00000000E+00  0.00000000E+00  0.00000000E+00
  0.00000000E+00  0.00000000E+00  0.00000000E+00
  0.00000000E+00  0.00000000E+00  0.00000000E+00
  0.00000000E+00  0.00000000E+00  0.00000000E+00
  0.00000000E+00  0.00000000E+00  0.00000000E+00
  0.00000000E+00  0.00000000E+00  0.00000000E+00
  0.00000000E+00  0.00000000E+00  0.00000000E+00
  0.00000000E+00  0.00000000E+00  0.00000000E+00
  0.00000000E+00  0.00000000E+00  0.00000000E+00
  0.00000000E+00  0.00000000E+00  0.00000000E+00
  0.00000000E+00  0.00000000E+00  0.00000000E+00
  0.00000000E+00  0.00000000E+00  0.00000000E+00
  0.00000000E+00  0.00000000E+00  0.00000000E+00
  0.00000000E+00  0.00000000E+00  0.00000000E+00
  0.00000000E+00  0.00000000E+00  0.00000000E+00
  0.00000000E+00  0.00000000E+00  0.00000000E+00
  0.00000000E+00  0.00000000E+00  0.00000000E+00
  0.00000000E+00  0.00000000E+00  0.00000000E+00
  0.00000000E+00  0.00000000E+00  0.00000000E+00
  0.00000000E+00  0.00000000E+00  0.00000000E+00
  0.00000000E+00  0.00000000E+00  0.00000000E+00
  0.00000000E+00  0.00000000E+00  0.00000000E+00
  0.00000000E+00  0.00000000E+00  0.00000000E+00
  0.00000000E+00  0.00000000E+00  0.00000000E+00
  0.00000000E+00  0.00000000E+00  0.00000000E+00
  0.00000000E+00  0.00000000E+00  0.00000000E+00
  0.00000000E+00  0.00000000E+00  0.00000000E+00
  0.00000000E+00  0.00000000E+00  0.00000000E+00
  0.00000000E+00  0.00000000E+00  0.00000000E+00
  0.00000000E+00  0.00000000E+00  0.00000000E+00
  0.00000000E+00  0.00000000E+00  0.00000000E+00
  0.00000000E+00  0.00000000E+00  0.00000000E+00
  0.00000000E+00  0.00000000E+00  0.00000000E+00
  0.00000000E+00  0.00000000E+00  0.00000000E+00
  0.00000000E+00  0.00000000E+00  0.00000000E+00
  0.00000000E+00  0.00000000E+00  0.00000000E+00
