Mo36 Se72                               
   1.00000000000000     
    19.7339992522999985    0.0000000000000000    0.0000000000000000
    -9.8669996262000002   17.0901446708000009    0.0000000000000000
     0.0000000000000000    0.0000000000000000   25.8540000915999997
   Mo   Se   O    C 
    36    71     2     1
Direct
  0.1199149369324508  0.0453352899375027  0.4989806766005609
  0.1215860229076819  0.2129700957617820  0.5008993743213157
  0.1215551773258287  0.3807710240295762  0.5008277730550935
  0.1199259563126275  0.5467803644835798  0.4988219013570603
  0.1194416724478745  0.7128152371627043  0.4977509517085039
  0.1194602496235281  0.8788781504632032  0.4978247896429914
  0.2864901880484366  0.0446968707497924  0.4974108332981751
  0.2870233630916204  0.2105638402135292  0.5010289177639071
  0.2877027580563414  0.3800042007920776  0.5047687364675524
  0.2870104506242304  0.5487316163321637  0.5009402329832605
  0.2864967145370617  0.7140139070288808  0.4972730423595522
  0.2865334677606601  0.8793669638017094  0.4963743151021615
  0.4538476577287747  0.0452132132955264  0.4960449303388981
  0.4544560260711824  0.2088298859521032  0.4982359356263843
  0.4507026653782254  0.3724922328282577  0.5078030830484880
  0.4506802669343181  0.5504832933664762  0.5077607492491403
  0.4544611630120748  0.7178678174637939  0.4981373068791686
  0.4538850088378386  0.8808754577687351  0.4959820856502882
  0.6213004785829713  0.0467789037009498  0.4967222355710654
  0.6212188440986571  0.2125807865595253  0.4978006310890892
  0.6206304066929857  0.3783900178945265  0.5015825746830231
  0.6185358137571453  0.5454467386748243  0.5048705308105508
  0.6206383582750524  0.7145365886956070  0.5015502761955192
  0.6212141688779129  0.8808983945579465  0.4977607433128425
  0.7881024870351415  0.0470254476839949  0.4982311567355105
  0.7881319904108042  0.2132840830564829  0.4982115261741195
  0.7873351763882580  0.3794494914164072  0.4992096684404373
  0.7859634708880207  0.5456901959610568  0.5009867731896114
  0.7859873096508102  0.7125450901282834  0.5009978208788698
  0.7873787691977191  0.8801428142458898  0.4992485861563707
  0.9543323207504479  0.0465191853254877  0.4992377777981267
  0.9549881606385264  0.2135310384963827  0.4994537715571114
  0.9543200930973277  0.3799225132595989  0.4991588468525664
  0.9530663903909347  0.5461269098708164  0.4990035116284248
  0.9526035811192984  0.7123959277929494  0.4992059706480561
  0.9531031362128102  0.8791207249110566  0.4991238287898263
  0.0647827450610800  0.1006171118209560  0.5646203779473169
  0.0652101587161640  0.2686823261743497  0.5651925365249177
  0.0647786281421432  0.4364097699416309  0.5645020922404196
  0.0645632767305888  0.6026903732873855  0.5633927697393848
  0.0647727213128395  0.7684938188933476  0.5631624767836835
  0.0645678680342174  0.9340221761466786  0.5635553597364913
  0.2303940682835783  0.0977339252786665  0.5640677900187268
  0.2317214361125262  0.2657561107065042  0.5668917557066513
  0.2316215687156090  0.4382516004328871  0.5668359105679015
  0.2303507741738657  0.6049158964849435  0.5639448918052935
  0.2311691890664858  0.7695101646272399  0.5619949584833186
  0.2311922153274806  0.9337829415078653  0.5620768541542198
  0.3976663958623075  0.0970512779825918  0.5622097430627977
  0.3966675348234910  0.2540714822936009  0.5655184849725535
  0.3966271206886245  0.6148902028827935  0.5654331993098435
  0.3976433454951924  0.7728197536078103  0.5620865490502100
  0.3979948952946171  0.9350399971029150  0.5610576450981641
  0.5645756342661565  0.1004693935518323  0.5615590440938687
  0.5650709673976834  0.2648141133405816  0.5641769069455879
  0.5669023339447887  0.4327143211916498  0.5685104681569888
  0.5668677033622509  0.6065152751375346  0.5685080517776806
  0.5650311854819207  0.7725408170253872  0.5641343749366816
  0.5645750148385835  0.9363268767573140  0.5615458731180031
  0.7313822477387241  0.1018260676503325  0.5625671451670684
  0.7317144551004001  0.2674355391874239  0.5632420079739844
  0.7327520636722956  0.4340998718685456  0.5654831558276532
  0.7326782849283205  0.6024889220777017  0.5671792112674386
  0.7327076456550522  0.7708805669503890  0.5654774378152859
  0.7316198846906906  0.9364424741075317  0.5632517064052117
  0.8983588933727805  0.1019640117324036  0.5638305559345832
  0.8984069775527180  0.2685550075831270  0.5637951604019917
  0.8984908887478936  0.4351371069250265  0.5639743354861659
  0.8985742845586456  0.6018904032360904  0.5645973758282474
  0.8985597898773450  0.7687464513982996  0.5646359186034311
  0.8984726688702069  0.9354910294978064  0.5640687572699534
  0.0660203084353295  0.1032716427256024  0.4348385193838489
  0.0675771666594442  0.2697938998681970  0.4357510115424003
  0.0659660903762092  0.4348407373362955  0.4347326049162554
  0.0634699922538263  0.6009317435284859  0.4335624715761844
  0.0624608803736532  0.7673920037754876  0.4333295721477441
  0.0634847959112294  0.9348009884635541  0.4336699583427971
  0.2310577042786079  0.1022473449783508  0.4340802085023047
  0.2343303776531565  0.2710217729555718  0.4375154314925275
  0.2343735724097511  0.4355543044431365  0.4374700278651283
  0.2311122650023871  0.6010595976738946  0.4339252999027026
  0.2297348126555505  0.7676471995339319  0.4320598456353678
  0.2297559603138355  0.9343679805481437  0.4321361627328116
  0.3974566393437692  0.1007098921838344  0.4318156391011786
  0.3993512864080488  0.2698539885833598  0.4372709564704046
  0.4009356715637348  0.4365536450999883  0.4442836372991888
  0.3993232997245557  0.6017290712621211  0.4371623225930930
  0.3975346398221377  0.7690317956304963  0.4317025637817416
  0.3975134458427681  0.9348909738293838  0.4308748904965737
  0.5661894951339765  0.1027124024783460  0.4318336867536142
  0.5662515613656913  0.2701300175478565  0.4340096033262089
  0.5602660347029047  0.4334496097786324  0.4407488199658020
  0.5602757423022959  0.5991848281493904  0.4406807269135105
  0.5663077276920913  0.7683994037950850  0.4339638939347884
  0.5662683163041049  0.9358300635245743  0.4317885933969384
  0.7336130844569516  0.1029269032721858  0.4327571021667839
  0.7329692022087119  0.2694318719481854  0.4334621326558180
  0.7301379415019930  0.4352852039276645  0.4356883832350796
  0.7267801155154066  0.5995487258504697  0.4377090790698454
  0.7302547666459862  0.7672208342341899  0.4357012224034053
  0.7330049173030027  0.9357468498667619  0.4334763067236212
  0.9001331708801422  0.1029632738150256  0.4340863833977110
  0.9001316670572630  0.2691773800555792  0.4340473750348983
  0.8982024734810428  0.4350405383765809  0.4342245834840567
  0.8955099546299894  0.6007562748196664  0.4348832565791763
  0.8955619469102574  0.7670711995404829  0.4349189386023538
  0.8983058350379929  0.9352767018904887  0.4342853325585346
  0.4081905762419188  0.3853832691019223  0.5835895245880774
  0.4081273555657595  0.4952064434889660  0.5836447272526424
  0.3796872296928704  0.4260676621754884  0.5643120876541147
 
  0.00000000E+00  0.00000000E+00  0.00000000E+00
  0.00000000E+00  0.00000000E+00  0.00000000E+00
  0.00000000E+00  0.00000000E+00  0.00000000E+00
  0.00000000E+00  0.00000000E+00  0.00000000E+00
  0.00000000E+00  0.00000000E+00  0.00000000E+00
  0.00000000E+00  0.00000000E+00  0.00000000E+00
  0.00000000E+00  0.00000000E+00  0.00000000E+00
  0.00000000E+00  0.00000000E+00  0.00000000E+00
  0.00000000E+00  0.00000000E+00  0.00000000E+00
  0.00000000E+00  0.00000000E+00  0.00000000E+00
  0.00000000E+00  0.00000000E+00  0.00000000E+00
  0.00000000E+00  0.00000000E+00  0.00000000E+00
  0.00000000E+00  0.00000000E+00  0.00000000E+00
  0.00000000E+00  0.00000000E+00  0.00000000E+00
  0.00000000E+00  0.00000000E+00  0.00000000E+00
  0.00000000E+00  0.00000000E+00  0.00000000E+00
  0.00000000E+00  0.00000000E+00  0.00000000E+00
  0.00000000E+00  0.00000000E+00  0.00000000E+00
  0.00000000E+00  0.00000000E+00  0.00000000E+00
  0.00000000E+00  0.00000000E+00  0.00000000E+00
  0.00000000E+00  0.00000000E+00  0.00000000E+00
  0.00000000E+00  0.00000000E+00  0.00000000E+00
  0.00000000E+00  0.00000000E+00  0.00000000E+00
  0.00000000E+00  0.00000000E+00  0.00000000E+00
  0.00000000E+00  0.00000000E+00  0.00000000E+00
  0.00000000E+00  0.00000000E+00  0.00000000E+00
  0.00000000E+00  0.00000000E+00  0.00000000E+00
  0.00000000E+00  0.00000000E+00  0.00000000E+00
  0.00000000E+00  0.00000000E+00  0.00000000E+00
  0.00000000E+00  0.00000000E+00  0.00000000E+00
  0.00000000E+00  0.00000000E+00  0.00000000E+00
  0.00000000E+00  0.00000000E+00  0.00000000E+00
  0.00000000E+00  0.00000000E+00  0.00000000E+00
  0.00000000E+00  0.00000000E+00  0.00000000E+00
  0.00000000E+00  0.00000000E+00  0.00000000E+00
  0.00000000E+00  0.00000000E+00  0.00000000E+00
  0.00000000E+00  0.00000000E+00  0.00000000E+00
  0.00000000E+00  0.00000000E+00  0.00000000E+00
  0.00000000E+00  0.00000000E+00  0.00000000E+00
  0.00000000E+00  0.00000000E+00  0.00000000E+00
  0.00000000E+00  0.00000000E+00  0.00000000E+00
  0.00000000E+00  0.00000000E+00  0.00000000E+00
  0.00000000E+00  0.00000000E+00  0.00000000E+00
  0.00000000E+00  0.00000000E+00  0.00000000E+00
  0.00000000E+00  0.00000000E+00  0.00000000E+00
  0.00000000E+00  0.00000000E+00  0.00000000E+00
  0.00000000E+00  0.00000000E+00  0.00000000E+00
  0.00000000E+00  0.00000000E+00  0.00000000E+00
  0.00000000E+00  0.00000000E+00  0.00000000E+00
  0.00000000E+00  0.00000000E+00  0.00000000E+00
  0.00000000E+00  0.00000000E+00  0.00000000E+00
  0.00000000E+00  0.00000000E+00  0.00000000E+00
  0.00000000E+00  0.00000000E+00  0.00000000E+00
  0.00000000E+00  0.00000000E+00  0.00000000E+00
  0.00000000E+00  0.00000000E+00  0.00000000E+00
  0.00000000E+00  0.00000000E+00  0.00000000E+00
  0.00000000E+00  0.00000000E+00  0.00000000E+00
  0.00000000E+00  0.00000000E+00  0.00000000E+00
  0.00000000E+00  0.00000000E+00  0.00000000E+00
  0.00000000E+00  0.00000000E+00  0.00000000E+00
  0.00000000E+00  0.00000000E+00  0.00000000E+00
  0.00000000E+00  0.00000000E+00  0.00000000E+00
  0.00000000E+00  0.00000000E+00  0.00000000E+00
  0.00000000E+00  0.00000000E+00  0.00000000E+00
  0.00000000E+00  0.00000000E+00  0.00000000E+00
  0.00000000E+00  0.00000000E+00  0.00000000E+00
  0.00000000E+00  0.00000000E+00  0.00000000E+00
  0.00000000E+00  0.00000000E+00  0.00000000E+00
  0.00000000E+00  0.00000000E+00  0.00000000E+00
  0.00000000E+00  0.00000000E+00  0.00000000E+00
  0.00000000E+00  0.00000000E+00  0.00000000E+00
  0.00000000E+00  0.00000000E+00  0.00000000E+00
  0.00000000E+00  0.00000000E+00  0.00000000E+00
  0.00000000E+00  0.00000000E+00  0.00000000E+00
  0.00000000E+00  0.00000000E+00  0.00000000E+00
  0.00000000E+00  0.00000000E+00  0.00000000E+00
  0.00000000E+00  0.00000000E+00  0.00000000E+00
  0.00000000E+00  0.00000000E+00  0.00000000E+00
  0.00000000E+00  0.00000000E+00  0.00000000E+00
  0.00000000E+00  0.00000000E+00  0.00000000E+00
  0.00000000E+00  0.00000000E+00  0.00000000E+00
  0.00000000E+00  0.00000000E+00  0.00000000E+00
  0.00000000E+00  0.00000000E+00  0.00000000E+00
  0.00000000E+00  0.00000000E+00  0.00000000E+00
  0.00000000E+00  0.00000000E+00  0.00000000E+00
  0.00000000E+00  0.00000000E+00  0.00000000E+00
  0.00000000E+00  0.00000000E+00  0.00000000E+00
  0.00000000E+00  0.00000000E+00  0.00000000E+00
  0.00000000E+00  0.00000000E+00  0.00000000E+00
  0.00000000E+00  0.00000000E+00  0.00000000E+00
  0.00000000E+00  0.00000000E+00  0.00000000E+00
  0.00000000E+00  0.00000000E+00  0.00000000E+00
  0.00000000E+00  0.00000000E+00  0.00000000E+00
  0.00000000E+00  0.00000000E+00  0.00000000E+00
  0.00000000E+00  0.00000000E+00  0.00000000E+00
  0.00000000E+00  0.00000000E+00  0.00000000E+00
  0.00000000E+00  0.00000000E+00  0.00000000E+00
  0.00000000E+00  0.00000000E+00  0.00000000E+00
  0.00000000E+00  0.00000000E+00  0.00000000E+00
  0.00000000E+00  0.00000000E+00  0.00000000E+00
  0.00000000E+00  0.00000000E+00  0.00000000E+00
  0.00000000E+00  0.00000000E+00  0.00000000E+00
  0.00000000E+00  0.00000000E+00  0.00000000E+00
  0.00000000E+00  0.00000000E+00  0.00000000E+00
  0.00000000E+00  0.00000000E+00  0.00000000E+00
  0.00000000E+00  0.00000000E+00  0.00000000E+00
  0.00000000E+00  0.00000000E+00  0.00000000E+00
  0.00000000E+00  0.00000000E+00  0.00000000E+00
  0.00000000E+00  0.00000000E+00  0.00000000E+00
  0.00000000E+00  0.00000000E+00  0.00000000E+00
