W36 Se72                                
   1.00000000000000     
    19.6919994353999996    0.0000000000000000    0.0000000000000000
    -9.8459997176999998   17.0537717624000003    0.0000000000000000
     0.0000000000000000    0.0000000000000000   25.9200000762999991
   W    Se   O    C 
    36    69     1     1
Direct
  0.1224342127702158  0.0482294563562959  0.5009607966994380
  0.1252253359193887  0.2155841821273299  0.5009448888648436
  0.1252040251002029  0.3818354123535386  0.5009351206964254
  0.1224276157616089  0.5464127628145192  0.5009726557917062
  0.1206452774421862  0.7127262175523938  0.5013473800721471
  0.1206815953034166  0.8801810454414749  0.5013454475236117
  0.2883116118219320  0.0486110438006975  0.4982867051310649
  0.2962544211569380  0.2188963612761867  0.4939083431298101
  0.2932040641688758  0.3827119761876432  0.4934072978319222
  0.2962536198840553  0.5495925870987932  0.4938782994285589
  0.2882728583603367  0.7118775730485964  0.4982605660742152
  0.2874543870820787  0.8798446389727630  0.5001652881812078
  0.4536388454127049  0.0469238987364093  0.5004853095835387
  0.4495681874970430  0.2167414957597771  0.4954080811378532
  0.4483018670114092  0.3746541877311031  0.4923559751376985
  0.4482714440830762  0.5458313694281500  0.4923114208843913
  0.4495536789388765  0.7050524288326088  0.4953388663999405
  0.4536065289972200  0.8788929540408645  0.5004821325291644
  0.6202218308686653  0.0462107858592589  0.5027884248254466
  0.6188414769564758  0.2129656897688221  0.5018566511936058
  0.6158121406260690  0.3780383726479428  0.4994452422219737
  0.6145390667518598  0.5433947775751022  0.4998107327695536
  0.6157465748782087  0.7099801249217563  0.4994338831401564
  0.6188201725229447  0.8780477784114353  0.5018248717182203
  0.7872129357320361  0.0461745532685782  0.5041696765491963
  0.7872081564000766  0.2132557582610630  0.5041734808002261
  0.7859546960784272  0.3793182663394887  0.5032386101351136
  0.7843953103021946  0.5452695233021529  0.5026717143949924
  0.7843727021670048  0.7114019548012749  0.5026868238950470
  0.7859147656414294  0.8788578081361891  0.5032471573985049
  0.9549343629970295  0.0471096036113394  0.5035905349653973
  0.9562061953156800  0.2141868095875381  0.5040263451907450
  0.9549449363643987  0.3800400493622362  0.5035887020100844
  0.9537404866652892  0.5461573297267037  0.5030882685421858
  0.9528774836149623  0.7125809440656283  0.5029149038735383
  0.9537074775438441  0.8797988383001680  0.5030762420258483
  0.0695823325852203  0.1051039795451700  0.5670199355006105
  0.0719751455153599  0.2720962569620013  0.5672505525092433
  0.0695751438216448  0.4366635588881493  0.5670154836058430
  0.0674214937630282  0.6021629734877934  0.5669891419890618
  0.0660124385509562  0.7691416052846165  0.5669474722124548
  0.0674130133650763  0.9374847453078132  0.5669649169279438
  0.2399052801077133  0.1112605082935758  0.5625955312933684
  0.2464108070606343  0.2761553407039301  0.5615239817164053
  0.2464167169021891  0.4425514600786187  0.5615085798305728
  0.2398993246105334  0.6008477034119579  0.5625932972988750
  0.2337028727830486  0.7677465940989094  0.5648723868426870
  0.2337468319848739  0.9381789225367072  0.5648969850696517
  0.3981752102238332  0.1080204224065824  0.5630649156179786
  0.3981347502658963  0.7623016315535338  0.5630192367041360
  0.3977961399089409  0.9350032811340370  0.5656610303976919
  0.5628688688311172  0.1018368069367028  0.5670696206948875
  0.5562457445018509  0.2679968327563245  0.5641059612502843
  0.5505804457424830  0.4270214387679374  0.5626692923800718
  0.5504854862010262  0.5957378266910283  0.5626456210563546
  0.5561736065247871  0.7604611058176403  0.5640776987733531
  0.5628470236134433  0.9331978568658172  0.5670294569584868
  0.7305806475669456  0.1013805387327480  0.5690302173893258
  0.7289332084950502  0.2682974139121228  0.5683767749052464
  0.7257914593732622  0.4330549952618412  0.5667836676331817
  0.7243407216059268  0.5982984599161298  0.5668023762228671
  0.7256734607050745  0.7649615048659371  0.5667948770100324
  0.7288654744777929  0.9328395813067658  0.5683784757378447
  0.8997270934412214  0.1025398784299227  0.5691630383453585
  0.8997335405786941  0.2693128372001468  0.5691577352076180
  0.8980503805855449  0.4352672924519254  0.5684605561473504
  0.8964286310397895  0.6010386709519793  0.5679473491974036
  0.8963994743035144  0.7676704889720298  0.5679557653271132
  0.8980255860490587  0.9349394448419730  0.5684551438955339
  0.0646350269304534  0.1025276708798089  0.4371572750457844
  0.0655939538972419  0.2688749854088428  0.4373229052471643
  0.0646487489973637  0.4343312047685544  0.4371393431146302
  0.0638457612118515  0.6008414206686723  0.4368331028059629
  0.0632959150767789  0.7677952003458728  0.4369046235976981
  0.0637895763444902  0.9351874030228231  0.4368294943557913
  0.2309539941587175  0.1023980728821314  0.4330189667178601
  0.2310751369605342  0.2668309039809813  0.4311581050514519
  0.2310351281434322  0.4364423285409984  0.4311603386710985
  0.2308792004805511  0.6007047382238966  0.4329907283744419
  0.2305849769566990  0.7683376728693077  0.4349710840454151
  0.2306067920237211  0.9345063712541517  0.4349471088461243
  0.3998145650283078  0.1025903119269316  0.4332731155355702
  0.3992204346978312  0.2683153641698226  0.4245809708306041
  0.4004899446641090  0.4362882453240218  0.4258034610428822
  0.3992134904862112  0.6031072222840237  0.4245218197137532
  0.3997627097593437  0.7694652324742890  0.4332320278920889
  0.3988209275567343  0.9354969879518222  0.4352510959254587
  0.5661248552550333  0.1021546993948590  0.4366864648739153
  0.5644419027375420  0.2673394974403962  0.4341401537879719
  0.5642606685690907  0.4352490924152690  0.4321910153612620
  0.5642555278521328  0.6012480873202293  0.4321702090192119
  0.5644351447005533  0.7692930971803236  0.4340601662073382
  0.5660977587128642  0.9361106614079446  0.4366901175492615
  0.7327863959494323  0.1025146910947186  0.4387582001935968
  0.7321125612608697  0.2684149012103845  0.4381353274899169
  0.7313197825220428  0.4348315350939913  0.4370775455625093
  0.7298939082645006  0.6011077741977786  0.4369950860555960
  0.7312757269039309  0.7687153517580185  0.4370862652688814
  0.7321187296472829  0.9359334864712991  0.4381421991889027
  0.8987929468827502  0.1026053416529464  0.4391025595153764
  0.8988003333760020  0.2684218155099245  0.4391187869951452
  0.8979775111181212  0.4345803576519742  0.4384376763822644
  0.8969424277770699  0.6010570914620530  0.4380817742083067
  0.8969309974457360  0.7681183131110885  0.4380685970509646
  0.8979329465254366  0.9356199364797106  0.4384484679560501
  0.4021231441622390  0.4371837916646584  0.5883626824108887
  0.3997605756389078  0.4359731410428935  0.5406941021919991
 
  0.00000000E+00  0.00000000E+00  0.00000000E+00
  0.00000000E+00  0.00000000E+00  0.00000000E+00
  0.00000000E+00  0.00000000E+00  0.00000000E+00
  0.00000000E+00  0.00000000E+00  0.00000000E+00
  0.00000000E+00  0.00000000E+00  0.00000000E+00
  0.00000000E+00  0.00000000E+00  0.00000000E+00
  0.00000000E+00  0.00000000E+00  0.00000000E+00
  0.00000000E+00  0.00000000E+00  0.00000000E+00
  0.00000000E+00  0.00000000E+00  0.00000000E+00
  0.00000000E+00  0.00000000E+00  0.00000000E+00
  0.00000000E+00  0.00000000E+00  0.00000000E+00
  0.00000000E+00  0.00000000E+00  0.00000000E+00
  0.00000000E+00  0.00000000E+00  0.00000000E+00
  0.00000000E+00  0.00000000E+00  0.00000000E+00
  0.00000000E+00  0.00000000E+00  0.00000000E+00
  0.00000000E+00  0.00000000E+00  0.00000000E+00
  0.00000000E+00  0.00000000E+00  0.00000000E+00
  0.00000000E+00  0.00000000E+00  0.00000000E+00
  0.00000000E+00  0.00000000E+00  0.00000000E+00
  0.00000000E+00  0.00000000E+00  0.00000000E+00
  0.00000000E+00  0.00000000E+00  0.00000000E+00
  0.00000000E+00  0.00000000E+00  0.00000000E+00
  0.00000000E+00  0.00000000E+00  0.00000000E+00
  0.00000000E+00  0.00000000E+00  0.00000000E+00
  0.00000000E+00  0.00000000E+00  0.00000000E+00
  0.00000000E+00  0.00000000E+00  0.00000000E+00
  0.00000000E+00  0.00000000E+00  0.00000000E+00
  0.00000000E+00  0.00000000E+00  0.00000000E+00
  0.00000000E+00  0.00000000E+00  0.00000000E+00
  0.00000000E+00  0.00000000E+00  0.00000000E+00
  0.00000000E+00  0.00000000E+00  0.00000000E+00
  0.00000000E+00  0.00000000E+00  0.00000000E+00
  0.00000000E+00  0.00000000E+00  0.00000000E+00
  0.00000000E+00  0.00000000E+00  0.00000000E+00
  0.00000000E+00  0.00000000E+00  0.00000000E+00
  0.00000000E+00  0.00000000E+00  0.00000000E+00
  0.00000000E+00  0.00000000E+00  0.00000000E+00
  0.00000000E+00  0.00000000E+00  0.00000000E+00
  0.00000000E+00  0.00000000E+00  0.00000000E+00
  0.00000000E+00  0.00000000E+00  0.00000000E+00
  0.00000000E+00  0.00000000E+00  0.00000000E+00
  0.00000000E+00  0.00000000E+00  0.00000000E+00
  0.00000000E+00  0.00000000E+00  0.00000000E+00
  0.00000000E+00  0.00000000E+00  0.00000000E+00
  0.00000000E+00  0.00000000E+00  0.00000000E+00
  0.00000000E+00  0.00000000E+00  0.00000000E+00
  0.00000000E+00  0.00000000E+00  0.00000000E+00
  0.00000000E+00  0.00000000E+00  0.00000000E+00
  0.00000000E+00  0.00000000E+00  0.00000000E+00
  0.00000000E+00  0.00000000E+00  0.00000000E+00
  0.00000000E+00  0.00000000E+00  0.00000000E+00
  0.00000000E+00  0.00000000E+00  0.00000000E+00
  0.00000000E+00  0.00000000E+00  0.00000000E+00
  0.00000000E+00  0.00000000E+00  0.00000000E+00
  0.00000000E+00  0.00000000E+00  0.00000000E+00
  0.00000000E+00  0.00000000E+00  0.00000000E+00
  0.00000000E+00  0.00000000E+00  0.00000000E+00
  0.00000000E+00  0.00000000E+00  0.00000000E+00
  0.00000000E+00  0.00000000E+00  0.00000000E+00
  0.00000000E+00  0.00000000E+00  0.00000000E+00
  0.00000000E+00  0.00000000E+00  0.00000000E+00
  0.00000000E+00  0.00000000E+00  0.00000000E+00
  0.00000000E+00  0.00000000E+00  0.00000000E+00
  0.00000000E+00  0.00000000E+00  0.00000000E+00
  0.00000000E+00  0.00000000E+00  0.00000000E+00
  0.00000000E+00  0.00000000E+00  0.00000000E+00
  0.00000000E+00  0.00000000E+00  0.00000000E+00
  0.00000000E+00  0.00000000E+00  0.00000000E+00
  0.00000000E+00  0.00000000E+00  0.00000000E+00
  0.00000000E+00  0.00000000E+00  0.00000000E+00
  0.00000000E+00  0.00000000E+00  0.00000000E+00
  0.00000000E+00  0.00000000E+00  0.00000000E+00
  0.00000000E+00  0.00000000E+00  0.00000000E+00
  0.00000000E+00  0.00000000E+00  0.00000000E+00
  0.00000000E+00  0.00000000E+00  0.00000000E+00
  0.00000000E+00  0.00000000E+00  0.00000000E+00
  0.00000000E+00  0.00000000E+00  0.00000000E+00
  0.00000000E+00  0.00000000E+00  0.00000000E+00
  0.00000000E+00  0.00000000E+00  0.00000000E+00
  0.00000000E+00  0.00000000E+00  0.00000000E+00
  0.00000000E+00  0.00000000E+00  0.00000000E+00
  0.00000000E+00  0.00000000E+00  0.00000000E+00
  0.00000000E+00  0.00000000E+00  0.00000000E+00
  0.00000000E+00  0.00000000E+00  0.00000000E+00
  0.00000000E+00  0.00000000E+00  0.00000000E+00
  0.00000000E+00  0.00000000E+00  0.00000000E+00
  0.00000000E+00  0.00000000E+00  0.00000000E+00
  0.00000000E+00  0.00000000E+00  0.00000000E+00
  0.00000000E+00  0.00000000E+00  0.00000000E+00
  0.00000000E+00  0.00000000E+00  0.00000000E+00
  0.00000000E+00  0.00000000E+00  0.00000000E+00
  0.00000000E+00  0.00000000E+00  0.00000000E+00
  0.00000000E+00  0.00000000E+00  0.00000000E+00
  0.00000000E+00  0.00000000E+00  0.00000000E+00
  0.00000000E+00  0.00000000E+00  0.00000000E+00
  0.00000000E+00  0.00000000E+00  0.00000000E+00
  0.00000000E+00  0.00000000E+00  0.00000000E+00
  0.00000000E+00  0.00000000E+00  0.00000000E+00
  0.00000000E+00  0.00000000E+00  0.00000000E+00
  0.00000000E+00  0.00000000E+00  0.00000000E+00
  0.00000000E+00  0.00000000E+00  0.00000000E+00
  0.00000000E+00  0.00000000E+00  0.00000000E+00
  0.00000000E+00  0.00000000E+00  0.00000000E+00
  0.00000000E+00  0.00000000E+00  0.00000000E+00
  0.00000000E+00  0.00000000E+00  0.00000000E+00
  0.00000000E+00  0.00000000E+00  0.00000000E+00
  0.00000000E+00  0.00000000E+00  0.00000000E+00
