W48 Se97                                
   1.00000000000000     
    33.0000000000000000    0.0000000000000000    0.0000000000000000
     0.0000000000000000   26.2560005188000005    0.0000000000000000
     0.0000000000000000    0.0000000000000000   18.1299991608000006
   W    Se   O    C 
    48    97     2     1
Direct
  0.2792013457732426  0.0427561789494751  0.5122985300661479
  0.2864394692558991  0.2772634768454069  0.5096870122038656
  0.2882061145156274  0.5228955489966873  0.4977620747220276
  0.2867378871687973  0.7772023843153650  0.5107643533385841
  0.4541046272163800  0.0356712565336026  0.5042754206607717
  0.4547508466623000  0.2858300016594615  0.5026392545446372
  0.4545508253383641  0.5354297922067232  0.5022847774335276
  0.4547305075222514  0.7855227390331222  0.5035407060180603
  0.6273410913267424  0.0353974224351705  0.4996520919370600
  0.6273434123826568  0.2854176142136262  0.4992494548272768
  0.6273402614414154  0.5354654840791823  0.4998319108198835
  0.6272429187642199  0.7854605142748959  0.4993237429508678
  0.2867490306581776  0.1689880789081611  0.5101889920218170
  0.2882956697616129  0.4228248102377818  0.4977661142333037
  0.2864085354338915  0.6688655934163042  0.5102074552744900
  0.2792711020354405  0.9034765581919877  0.5126661230981973
  0.4546435175558420  0.1605744507187588  0.5032108266048769
  0.4547679722555547  0.4104628153147064  0.5022252440271765
  0.4545687665527481  0.6602402660992591  0.5027964527714474
  0.4542855219805502  0.9102623636125946  0.5044015613268599
  0.6275857781011899  0.1599428024220940  0.4989847007713208
  0.6276974218821110  0.4109019269631324  0.4989959919665700
  0.6276519107049916  0.6600192110795933  0.4989876530844305
  0.6275360330410904  0.9108447236766679  0.4991338144432378
  0.3685998938041280  0.2241415658167214  0.5051710245979960
  0.3694573832640303  0.4729389731827484  0.5017294299447024
  0.3685499201563985  0.7219507676793224  0.5055620999376291
  0.3673552809366198  0.9730204689199692  0.5084791096358238
  0.5417139659571673  0.2227786651966428  0.5008929600403973
  0.5408017269343185  0.4731016964926172  0.5008335843165233
  0.5416543298324961  0.7226817522788422  0.5010789206894033
  0.5405364450062635  0.9730811033482367  0.5014187735685818
  0.7152888457284224  0.2139994217152038  0.4972741300437080
  0.7141068969648605  0.4759478803345732  0.4982484205940924
  0.7152771958498850  0.7139588055239471  0.4970549557453890
  0.7141437074019678  0.9762182414372119  0.4979175017107800
  0.3688404321618814  0.0993802267363338  0.5076040207973124
  0.3675733376479958  0.3484830811930114  0.5038205805632431
  0.3673853510631723  0.5974750852860031  0.5039973980361119
  0.3689373329854869  0.8466682868619120  0.5078907771348020
  0.5406003083027993  0.0978183767546705  0.5011006696247394
  0.5418382094626512  0.3482347145751596  0.5008852561806717
  0.5408168817874693  0.5979003303056161  0.5009238437079809
  0.5415997119006831  0.8482226187830169  0.5013627160370743
  0.7141683112410463  0.0945244834017088  0.4979045441104344
  0.7153094454670937  0.3568663524995839  0.4972316483635260
  0.7140808469729568  0.5948954403810772  0.4981687572568679
  0.7152603903833276  0.8567600804594736  0.4972310376693194
  0.2543636705039799  0.1053805240985897  0.6029326366586589
  0.2453812931018083  0.3501228855532426  0.5499556863293676
  0.2454567396015446  0.5958288120111779  0.5499583577172175
  0.2544471125040300  0.8409125669748477  0.6034484242923811
  0.4268880889030938  0.0985102990018735  0.5987030523363424
  0.4257585918196760  0.3484813912482120  0.5959213257892613
  0.4255600208789241  0.5974624874233264  0.5959844940522253
  0.4270394780792942  0.8476153430027168  0.5989529329607846
  0.5987056411066014  0.0979251675975594  0.5927880139037065
  0.6000424161815062  0.3480855902421314  0.5931780621545673
  0.5987655103578680  0.5980275453606992  0.5928939147352221
  0.5999484328531361  0.8480392648027766  0.5933920820512438
  0.4270083404787939  0.2236776816916015  0.5968941665294187
  0.4263889126454021  0.4728778571271756  0.5961520508350272
  0.4270007659963942  0.7224464322194178  0.5971732291013071
  0.4261694784346973  0.9729934370124700  0.5986645765647138
  0.5999498443070427  0.2227800522590762  0.5931032319859463
  0.5987461993652418  0.4729024023519540  0.5928488265389490
  0.5999587760561705  0.7227650451718928  0.5931822846767306
  0.5987507709300003  0.9729336676911147  0.5929064515122048
  0.3382521354244534  0.0363437971425275  0.6009406758660814
  0.3392098801924160  0.2858378108353459  0.6024909425779610
  0.3374728776504272  0.5335535557965672  0.5986916202475865
  0.3417884258046197  0.7831300494158714  0.6039045080684461
  0.5125637415309413  0.0355437454538031  0.5954919398364585
  0.5132370964159673  0.2856559073483627  0.5942243199805312
  0.5124598906156754  0.5355023014252506  0.5946946244212546
  0.5133588752571671  0.7853351033743996  0.5947239214972115
  0.6857457301329835  0.0353807302125729  0.5952244666178576
  0.6882893444585573  0.2853817331534170  0.5864953054518737
  0.6855318964453303  0.5354504901897322  0.5954736938726923
  0.6882828350771261  0.7853744263745746  0.5864225938809988
  0.3417138346648537  0.1630185198880598  0.6034816383302298
  0.3375952018753430  0.4122398501051530  0.5986552785911914
  0.3392273884855889  0.6601333527095351  0.6028633810322663
  0.3383773043150792  0.9097995511567986  0.6011623136004844
  0.5129794076965734  0.1607497512001658  0.5947953392232989
  0.5128327583725503  0.4103347200469162  0.5944572183042943
  0.5127999479649048  0.6604300768325068  0.5947067916588147
  0.5129248958447817  0.9103176813738585  0.5954050753789318
  0.6861902909999038  0.1579368111716645  0.5940261371211086
  0.6862682412458885  0.4127703513845921  0.5941842430285540
  0.6862618317287655  0.6581050493449643  0.5940648512057284
  0.6862110176020180  0.9127720855310539  0.5940760094824257
  0.2518046264103097  0.1035203467728720  0.4221560531103082
  0.2517805285842871  0.8427237304718773  0.4227451705268417
  0.4245433800638200  0.0978396033146729  0.4113167974903689
  0.4251072651656752  0.3477349977938359  0.4099302186852294
  0.4248556018917608  0.5982959265051936  0.4100891788880062
  0.4246661085914978  0.8481591098504099  0.4115395459928306
  0.5976069619810109  0.0976430857565343  0.4069864710444533
  0.5988368396001116  0.3479776276004628  0.4062959264533745
  0.5978594145006833  0.5977652977288946  0.4069233831812934
  0.5985002412860223  0.8480309421525877  0.4064988419195644
  0.2270838957712260  0.2227023352798729  0.4949862174570403
  0.2270697650154042  0.7234580262037940  0.4957666287496439
  0.2295990239583453  0.9730879383616852  0.5146556832887176
  0.4253120427596349  0.2232277211551870  0.4101190682375729
  0.4267206483321391  0.4729050600000007  0.4083443004046374
  0.4252267144229091  0.7229518703444114  0.4104529381882768
  0.4236199808508718  0.9728597830920827  0.4128543898082057
  0.5987365139623327  0.2228483282074991  0.4062872860809265
  0.5978803266962829  0.4732138625231707  0.4068990202146814
  0.5986329464113156  0.7229451874931242  0.4064056964878859
  0.5974879918721172  0.9730991658441236  0.4071558982405598
  0.3355935112339617  0.0355936222736082  0.4181982069985551
  0.3353473220014317  0.2862758878171374  0.4103390927431877
  0.3403409829477580  0.5352793378821072  0.4050629989781480
  0.3388036442901267  0.7849414644316541  0.4129429192783851
  0.5106474365180739  0.0353210096765932  0.4089604870042873
  0.5120859113440864  0.2855293580257733  0.4087959498258713
  0.5115893804266319  0.5356547821376501  0.4080793106643685
  0.5117994128672163  0.7855738643344323  0.4092458634047049
  0.6852905093616365  0.0353671888005315  0.4024463049307188
  0.6872286104195827  0.2854301271122023  0.4095288635565706
  0.6854493486187382  0.5354139867342337  0.4030446368270044
  0.6870997908840960  0.7854216168634339  0.4094920495559957
  0.3389047732030376  0.1611241667744839  0.4125372973515247
  0.3404460020737280  0.4106495224348987  0.4050260254762524
  0.3352036515201749  0.6598606495335295  0.4107146159740899
  0.3356309166641679  0.9103561855674170  0.4184266513727098
  0.5115047384396555  0.1605535049249839  0.4085222158124107
  0.5120009510882725  0.4102540387716416  0.4081441883577935
  0.5116407708175935  0.6606447469705062  0.4084508366277225
  0.5110403794823588  0.9103899111676034  0.4092695390065139
  0.6848171879133768  0.1579467594609542  0.4015963294302710
  0.6848308077197992  0.4127990662728359  0.4014560451589965
  0.6847223906335317  0.6580346899530261  0.4013774606201237
  0.6847183219399916  0.9127902824166847  0.4016327447939489
  0.7738202202106088  0.9132652533055446  0.4897762006678346
  0.7682365743525688  0.7854514125883943  0.4983809819503415
  0.7738191225066541  0.6575234345387186  0.4873401783951075
  0.7730435452427435  0.5354511166387869  0.5112232152667685
  0.7738584293800422  0.4132754169586180  0.4877136441207044
  0.7682359597155550  0.2853027111540197  0.4986118500509313
  0.7738412602920546  0.1574774698848506  0.4898038925375757
  0.7733811358366393  0.0353531087799894  0.5068384340681732
  0.2359341603815003  0.5176011391219901  0.4213390963058125
  0.2360809288554737  0.4281565991169724  0.4207614120885379
  0.2473881938743973  0.4728343429199915  0.4374468649835195
 
  0.00000000E+00  0.00000000E+00  0.00000000E+00
  0.00000000E+00  0.00000000E+00  0.00000000E+00
  0.00000000E+00  0.00000000E+00  0.00000000E+00
  0.00000000E+00  0.00000000E+00  0.00000000E+00
  0.00000000E+00  0.00000000E+00  0.00000000E+00
  0.00000000E+00  0.00000000E+00  0.00000000E+00
  0.00000000E+00  0.00000000E+00  0.00000000E+00
  0.00000000E+00  0.00000000E+00  0.00000000E+00
  0.00000000E+00  0.00000000E+00  0.00000000E+00
  0.00000000E+00  0.00000000E+00  0.00000000E+00
  0.00000000E+00  0.00000000E+00  0.00000000E+00
  0.00000000E+00  0.00000000E+00  0.00000000E+00
  0.00000000E+00  0.00000000E+00  0.00000000E+00
  0.00000000E+00  0.00000000E+00  0.00000000E+00
  0.00000000E+00  0.00000000E+00  0.00000000E+00
  0.00000000E+00  0.00000000E+00  0.00000000E+00
  0.00000000E+00  0.00000000E+00  0.00000000E+00
  0.00000000E+00  0.00000000E+00  0.00000000E+00
  0.00000000E+00  0.00000000E+00  0.00000000E+00
  0.00000000E+00  0.00000000E+00  0.00000000E+00
  0.00000000E+00  0.00000000E+00  0.00000000E+00
  0.00000000E+00  0.00000000E+00  0.00000000E+00
  0.00000000E+00  0.00000000E+00  0.00000000E+00
  0.00000000E+00  0.00000000E+00  0.00000000E+00
  0.00000000E+00  0.00000000E+00  0.00000000E+00
  0.00000000E+00  0.00000000E+00  0.00000000E+00
  0.00000000E+00  0.00000000E+00  0.00000000E+00
  0.00000000E+00  0.00000000E+00  0.00000000E+00
  0.00000000E+00  0.00000000E+00  0.00000000E+00
  0.00000000E+00  0.00000000E+00  0.00000000E+00
  0.00000000E+00  0.00000000E+00  0.00000000E+00
  0.00000000E+00  0.00000000E+00  0.00000000E+00
  0.00000000E+00  0.00000000E+00  0.00000000E+00
  0.00000000E+00  0.00000000E+00  0.00000000E+00
  0.00000000E+00  0.00000000E+00  0.00000000E+00
  0.00000000E+00  0.00000000E+00  0.00000000E+00
  0.00000000E+00  0.00000000E+00  0.00000000E+00
  0.00000000E+00  0.00000000E+00  0.00000000E+00
  0.00000000E+00  0.00000000E+00  0.00000000E+00
  0.00000000E+00  0.00000000E+00  0.00000000E+00
  0.00000000E+00  0.00000000E+00  0.00000000E+00
  0.00000000E+00  0.00000000E+00  0.00000000E+00
  0.00000000E+00  0.00000000E+00  0.00000000E+00
  0.00000000E+00  0.00000000E+00  0.00000000E+00
  0.00000000E+00  0.00000000E+00  0.00000000E+00
  0.00000000E+00  0.00000000E+00  0.00000000E+00
  0.00000000E+00  0.00000000E+00  0.00000000E+00
  0.00000000E+00  0.00000000E+00  0.00000000E+00
  0.00000000E+00  0.00000000E+00  0.00000000E+00
  0.00000000E+00  0.00000000E+00  0.00000000E+00
  0.00000000E+00  0.00000000E+00  0.00000000E+00
  0.00000000E+00  0.00000000E+00  0.00000000E+00
  0.00000000E+00  0.00000000E+00  0.00000000E+00
  0.00000000E+00  0.00000000E+00  0.00000000E+00
  0.00000000E+00  0.00000000E+00  0.00000000E+00
  0.00000000E+00  0.00000000E+00  0.00000000E+00
  0.00000000E+00  0.00000000E+00  0.00000000E+00
  0.00000000E+00  0.00000000E+00  0.00000000E+00
  0.00000000E+00  0.00000000E+00  0.00000000E+00
  0.00000000E+00  0.00000000E+00  0.00000000E+00
  0.00000000E+00  0.00000000E+00  0.00000000E+00
  0.00000000E+00  0.00000000E+00  0.00000000E+00
  0.00000000E+00  0.00000000E+00  0.00000000E+00
  0.00000000E+00  0.00000000E+00  0.00000000E+00
  0.00000000E+00  0.00000000E+00  0.00000000E+00
  0.00000000E+00  0.00000000E+00  0.00000000E+00
  0.00000000E+00  0.00000000E+00  0.00000000E+00
  0.00000000E+00  0.00000000E+00  0.00000000E+00
  0.00000000E+00  0.00000000E+00  0.00000000E+00
  0.00000000E+00  0.00000000E+00  0.00000000E+00
  0.00000000E+00  0.00000000E+00  0.00000000E+00
  0.00000000E+00  0.00000000E+00  0.00000000E+00
  0.00000000E+00  0.00000000E+00  0.00000000E+00
  0.00000000E+00  0.00000000E+00  0.00000000E+00
  0.00000000E+00  0.00000000E+00  0.00000000E+00
  0.00000000E+00  0.00000000E+00  0.00000000E+00
  0.00000000E+00  0.00000000E+00  0.00000000E+00
  0.00000000E+00  0.00000000E+00  0.00000000E+00
  0.00000000E+00  0.00000000E+00  0.00000000E+00
  0.00000000E+00  0.00000000E+00  0.00000000E+00
  0.00000000E+00  0.00000000E+00  0.00000000E+00
  0.00000000E+00  0.00000000E+00  0.00000000E+00
  0.00000000E+00  0.00000000E+00  0.00000000E+00
  0.00000000E+00  0.00000000E+00  0.00000000E+00
  0.00000000E+00  0.00000000E+00  0.00000000E+00
  0.00000000E+00  0.00000000E+00  0.00000000E+00
  0.00000000E+00  0.00000000E+00  0.00000000E+00
  0.00000000E+00  0.00000000E+00  0.00000000E+00
  0.00000000E+00  0.00000000E+00  0.00000000E+00
  0.00000000E+00  0.00000000E+00  0.00000000E+00
  0.00000000E+00  0.00000000E+00  0.00000000E+00
  0.00000000E+00  0.00000000E+00  0.00000000E+00
  0.00000000E+00  0.00000000E+00  0.00000000E+00
  0.00000000E+00  0.00000000E+00  0.00000000E+00
  0.00000000E+00  0.00000000E+00  0.00000000E+00
  0.00000000E+00  0.00000000E+00  0.00000000E+00
  0.00000000E+00  0.00000000E+00  0.00000000E+00
  0.00000000E+00  0.00000000E+00  0.00000000E+00
  0.00000000E+00  0.00000000E+00  0.00000000E+00
  0.00000000E+00  0.00000000E+00  0.00000000E+00
  0.00000000E+00  0.00000000E+00  0.00000000E+00
  0.00000000E+00  0.00000000E+00  0.00000000E+00
  0.00000000E+00  0.00000000E+00  0.00000000E+00
  0.00000000E+00  0.00000000E+00  0.00000000E+00
  0.00000000E+00  0.00000000E+00  0.00000000E+00
  0.00000000E+00  0.00000000E+00  0.00000000E+00
  0.00000000E+00  0.00000000E+00  0.00000000E+00
  0.00000000E+00  0.00000000E+00  0.00000000E+00
  0.00000000E+00  0.00000000E+00  0.00000000E+00
  0.00000000E+00  0.00000000E+00  0.00000000E+00
  0.00000000E+00  0.00000000E+00  0.00000000E+00
  0.00000000E+00  0.00000000E+00  0.00000000E+00
  0.00000000E+00  0.00000000E+00  0.00000000E+00
  0.00000000E+00  0.00000000E+00  0.00000000E+00
  0.00000000E+00  0.00000000E+00  0.00000000E+00
  0.00000000E+00  0.00000000E+00  0.00000000E+00
  0.00000000E+00  0.00000000E+00  0.00000000E+00
  0.00000000E+00  0.00000000E+00  0.00000000E+00
  0.00000000E+00  0.00000000E+00  0.00000000E+00
  0.00000000E+00  0.00000000E+00  0.00000000E+00
  0.00000000E+00  0.00000000E+00  0.00000000E+00
  0.00000000E+00  0.00000000E+00  0.00000000E+00
  0.00000000E+00  0.00000000E+00  0.00000000E+00
  0.00000000E+00  0.00000000E+00  0.00000000E+00
  0.00000000E+00  0.00000000E+00  0.00000000E+00
  0.00000000E+00  0.00000000E+00  0.00000000E+00
  0.00000000E+00  0.00000000E+00  0.00000000E+00
  0.00000000E+00  0.00000000E+00  0.00000000E+00
  0.00000000E+00  0.00000000E+00  0.00000000E+00
  0.00000000E+00  0.00000000E+00  0.00000000E+00
  0.00000000E+00  0.00000000E+00  0.00000000E+00
  0.00000000E+00  0.00000000E+00  0.00000000E+00
  0.00000000E+00  0.00000000E+00  0.00000000E+00
  0.00000000E+00  0.00000000E+00  0.00000000E+00
  0.00000000E+00  0.00000000E+00  0.00000000E+00
  0.00000000E+00  0.00000000E+00  0.00000000E+00
  0.00000000E+00  0.00000000E+00  0.00000000E+00
  0.00000000E+00  0.00000000E+00  0.00000000E+00
  0.00000000E+00  0.00000000E+00  0.00000000E+00
  0.00000000E+00  0.00000000E+00  0.00000000E+00
  0.00000000E+00  0.00000000E+00  0.00000000E+00
  0.00000000E+00  0.00000000E+00  0.00000000E+00
  0.00000000E+00  0.00000000E+00  0.00000000E+00
  0.00000000E+00  0.00000000E+00  0.00000000E+00
  0.00000000E+00  0.00000000E+00  0.00000000E+00
  0.00000000E+00  0.00000000E+00  0.00000000E+00
  0.00000000E+00  0.00000000E+00  0.00000000E+00
  0.00000000E+00  0.00000000E+00  0.00000000E+00
