W48 Se97
1.0
  33.0000000000         0.0000000000         0.0000000000
   0.0000000000        26.2560005188         0.0000000000
   0.0000000000         0.0000000000        18.1299991608
W Se O C
48 97 2 1
Cartesian
     9.216011640         1.135067907         9.141723743
     9.446643360         7.298764589         9.107010777
     9.585595140        13.681717255         9.154209873
     9.452000910        20.337815295         9.125351809
    14.962293060         0.939084455         9.091045318
    15.014876580         7.512662248         9.090012452
    15.028738230        14.052324116         9.094303461
    14.990328870        20.617133193         9.089680673
    20.691821700         0.932045221         9.059269050
    20.707594380         7.490658407         9.062198858
    20.729074740        14.063110081         9.063470315
    20.687288820        20.630574690         9.058032947
     9.449631510         4.491796488         9.121897138
     9.586553460        11.145897759         9.155138673
     9.446067180        17.532845801         9.105966852
     9.216554490        23.692594631         9.142209264
    14.987973990         4.221298769         9.087163323
    15.035102940        10.779650182         9.095692944
    15.009612090        17.325404230         9.089123357
    14.968704630        23.896354848         9.092112450
    20.704525050         4.198788974         9.059629293
    20.732796810        10.787821575         9.063810796
    20.719647960        17.337199475         9.059424968
    20.692261260        23.920197397         9.057028545
    12.141831900         5.905567902         9.098463026
    12.288738660        12.413162266         9.108151154
    12.142237140        18.928219110         9.101298558
    12.088216800        25.543905752         9.117022888
    17.874483330         5.849091508         9.073235495
    17.871838710        12.422430372         9.079679803
    17.872654140        18.976195125         9.073454868
    17.817542820        25.551891252         9.071970565
    23.598829980         5.614139425         9.047996723
    23.585601600        12.516722234         9.050612882
    23.598262050        18.760845246         9.043350730
    23.549853360        25.643260821         9.046610866
    12.146856810         2.611607442         9.113246772
    12.156465090         9.139749489         9.116780308
    12.151990290        15.691545042         9.115249411
    12.150294090        22.222196900         9.115630685
    17.824224990         2.569164092         9.071893331
    17.899952400         9.139139037         9.077898168
    17.864092950        15.702333632         9.076613477
    17.854326600        22.273135379         9.072668933
    23.555499990         2.476154310         9.048992604
    23.613267810         9.365481777         9.048762353
    23.579346450        15.614847063         9.049018711
    23.584062150        22.507148548         9.042064950
     8.340358620         2.780791132        10.750481603
     7.940279820         9.334211143         9.519492371
     7.940744790        15.495878499         9.516047127
     8.338728420        22.047468468        10.751146431
    14.040285930         2.584764882        10.793750841
    14.069462220         9.142104652        10.790202619
    14.063161860        15.693002512        10.787915519
    14.045727300        22.252803782        10.796299737
    19.733477940         2.568398467        10.746571325
    19.807644120         9.136332008        10.763930981
    19.770068340        15.702986882        10.751205172
    19.765768110        22.271937055        10.755754170
    14.057341650         5.876514062        10.778597062
    14.143284210        12.415553925        10.822451899
    14.057390490        18.961995617        10.780779914
    14.008732320        25.544311670        10.780673854
    19.784363940         5.847630886        10.758571028
    19.776987120        12.422817123        10.753692426
    19.783603290        18.984098443        10.757243912
    19.728602850        25.552119942        10.745191270
    11.114986410         0.949182513        10.789565712
    11.112520980         7.529742302        10.852774866
    11.241053670        14.005187506        10.876258473
    11.225653560        20.557150310        10.848650110
    16.872078630         0.932527806        10.768490494
    16.934105430         7.497007371        10.762239996
    16.933884330        14.065064052        10.776161659
    16.910931510        20.621355158        10.759814021
    22.618760670         0.931418753        10.806362431
    22.706453550         7.489888581        10.658482554
    22.655753670        14.065500165        10.809160615
    22.688872800        20.632885743        10.652869325
    11.223568290         4.277151846        10.844664955
    11.242641630        10.821817319        10.878013819
    11.110982190        17.302019323        10.852513794
    11.115075510        23.883501223        10.790259728
    16.899506580         4.220199693        10.764225593
    16.946551380        10.768918042        10.772726025
    16.919279520        17.344282294        10.768599274
    16.884904080        23.904368442        10.764937377
    22.624562730         4.145552570        10.799229001
    22.653762120        10.842480792        10.800704602
    22.639997490        17.286979623        10.797126828
    22.613943330        23.973796659        10.795557495
     8.331394500         2.759669229         7.512662821
     8.335387500        22.064515701         7.513146892
    14.014429110         2.581923983         7.400245767
    14.045302590         9.147329596         7.410847828
    14.039758260        15.686812923         7.410356323
    14.019409140        22.255324884         7.402512198
    19.719466470         2.569308500         7.380371662
    19.789226820         9.139133523         7.372527536
    19.751562600        15.699203655         7.381982512
    19.747213530        22.270705911         7.368314124
     7.454619810         5.885919749         8.942250965
     7.454241630        18.945899901         8.948343914
     7.597621350        25.541576057         9.142889683
    14.041944510         5.878012492         7.402761304
    14.123615550        12.412210223         7.377842708
    14.039734500        18.961905822         7.404152600
    13.979754690        25.543755043         7.419581411
    19.768488960         5.850521410         7.370782161
    19.758423960        12.422573467         7.384403592
    19.765398840        18.982640710         7.369574522
    19.712861520        25.552950682         7.379610745
    11.084676900         0.943228177         7.459468497
    11.104307940         7.558088018         7.362911747
    11.194565580        14.003421002         7.384521437
    11.198855580        20.573807116         7.389040158
    16.849998660         0.932358455         7.387490587
    16.915561410         7.501850553         7.399352864
    16.914897780        14.062023345         7.392300838
    16.891387260        20.620634693         7.398890549
    22.606909050         0.933809099         7.298110235
    22.690715190         7.490899700         7.447460092
    22.641648480        14.063486855         7.300510466
    22.670742600        20.631863072         7.441934068
    11.195935080         4.257776230         7.385342363
    11.194412790        10.822269448         7.384222655
    11.103191220        17.276334915         7.360796701
    11.086039470        23.887090681         7.459865000
    16.882771950         4.221153573         7.389605814
    16.927278060        10.771135624         7.396350174
    16.901431140        17.341111619         7.389961706
    16.862263440        23.904185963         7.391500943
    22.609607460         4.146734090         7.304427089
    22.635026700        10.842194864         7.307324626
    22.622369220        17.283349469         7.302782880
    22.596672120        23.976303844         7.300438490
    25.520544390        23.981235246         9.025625392
    25.336241700        20.639186921         9.031338336
    25.539266610        17.289839689         9.030399746
    25.540081380        14.069352182         9.059119659
    25.548974220        10.844387502         9.031317668
    25.350970920         7.484839027         9.040069381
    25.531332420         4.135100844         9.031889126
    25.512894000         0.928998737         9.060011836
     8.037000000        13.573000000         9.108000000
     8.037000000        11.253000000         9.108000000
     8.037000000        12.413000000         9.108000000
