Mo48 H4 Se98 C1 O1                      
   1.00000000000000     
    33.0000000000000000    0.0000000000000000    0.0000000000000000
     0.0000000000000000   26.3120002747000008    0.0000000000000000
     0.0000000000000000    0.0000000000000000   18.0970000000000013
   Mo   Se   O    C    H 
    48    98     1     1     4
Direct
  0.2864272575898390  0.0256271583633224  0.5009082942527811
  0.2803357561957386  0.2885134822388735  0.5005276260779419
  0.2861313187849630  0.5253435447666723  0.5007442814135284
  0.2806305076424359  0.7880055820692495  0.5007575040033464
  0.4545732829430423  0.0337051910038936  0.4998721202806860
  0.4537706191386632  0.2837563756180720  0.4996140359638622
  0.4544605833509719  0.5333377353651558  0.4996227082372803
  0.4537056205018488  0.7834176764887500  0.4997770526451164
  0.6269535902745584  0.0337629859542855  0.4989059301284564
  0.6274356316740968  0.2845276538698205  0.4986156701939741
  0.6282585407739105  0.5330493743212978  0.4983390150983899
  0.6267990958915396  0.7829873670438063  0.4984580618403402
  0.2805526799389295  0.1534342596027083  0.5007598305626886
  0.2861167851424601  0.4160374344317806  0.5005598081178887
  0.2803702526349828  0.6529259467702874  0.5008290296516483
  0.2863700407316844  0.9161447945477351  0.5008250851182035
  0.4538982446873344  0.1585837185034815  0.4997449952730543
  0.4546394921887730  0.4081118922300813  0.4994769361420511
  0.4537358387242220  0.6580238165154277  0.4996780900010570
  0.4547330736737033  0.9081105018588463  0.4998176479712710
  0.6271323319622649  0.1587679505646175  0.4989020351443426
  0.6284368493348081  0.4079943705791194  0.4981149093414640
  0.6266756923707053  0.6583160220445834  0.4983211377024315
  0.6275682817718411  0.9083036236998642  0.4987675283997888
  0.3662036253684778  0.2209646804945596  0.5001573279005718
  0.3683607334676653  0.4707094907571441  0.5001150286347246
  0.3661303189718352  0.7207403265736458  0.5002808672237365
  0.3685099405526134  0.9708629705894899  0.5003923269320659
  0.5404028044306377  0.2211994504906331  0.4991915989796493
  0.5412411749924377  0.4706626189376989  0.4989045102674448
  0.5401484074218650  0.7206305059320346  0.4990932169078299
  0.5410927465184313  0.9708447586129118  0.4993577444929261
  0.7104573571615673  0.2125959638161170  0.4983579453638913
  0.7100592464119022  0.4676499746849054  0.4973693202408893
  0.7139902756157771  0.7124804680417670  0.4973294818189302
  0.7149147376767209  0.9627535319479879  0.4981741907204594
  0.3685042173504959  0.0952620631373595  0.5003363055989798
  0.3683799111378754  0.3466817865159871  0.5000482088641539
  0.3683383243452488  0.5949128881961461  0.5002531341363230
  0.3684085291565884  0.8465832452950746  0.5003255119676439
  0.5405294710976293  0.0963558197614961  0.4993630815284956
  0.5409664667007000  0.3460157513120023  0.4989481401426862
  0.5404401176636062  0.5955985241226311  0.4990418709895509
  0.5408699316181668  0.8457602371414153  0.4992028995612909
  0.7140954338096264  0.1044141187206005  0.4983876107313860
  0.7130784616533697  0.3496224497633041  0.4978420114963061
  0.7095478383278513  0.6041537913070885  0.4973213799730086
  0.7149465477754601  0.8539112052590385  0.4978839363930609
  0.2534191879966350  0.0905328938559071  0.5886286817823779
  0.2532708875745339  0.3512314915618822  0.5887083826082808
  0.2533230184014715  0.5901552304865275  0.5889506051451695
  0.2532853669076265  0.8510407367714634  0.5882037771480005
  0.4258402699989551  0.0960972493768948  0.5930284369178755
  0.4256740607282062  0.3460099734251545  0.5928664050182554
  0.4256553360379077  0.5956570801209480  0.5929518577985030
  0.4257796799669990  0.8458640370387209  0.5930423215643612
  0.5982231800934753  0.0958563505355807  0.5915582145462669
  0.5988032279015429  0.3462921705179117  0.5912375949777399
  0.5983194199046188  0.5948649774205860  0.5906249006458845
  0.5988462241164422  0.8454392631289802  0.5913275185929818
  0.4244046153413678  0.2211651507573992  0.5919602633354317
  0.4262163827601556  0.4706709741562651  0.5924508812411432
  0.4243989864012288  0.7207567048422345  0.5919914042317677
  0.4264225785784355  0.9708590166649095  0.5926549619001967
  0.5983325759283323  0.2222065830392823  0.5908528801288937
  0.5993690454677864  0.4708353599980807  0.5907437663808299
  0.5979115956715708  0.7211128463159349  0.5911887594159519
  0.5989886874736526  0.9711063351399093  0.5915587971079124
  0.3399475620480355  0.0325313589441698  0.5957205194736361
  0.3370943598658491  0.2839881889477268  0.5920534291934988
  0.3396758029091065  0.5322354965174483  0.5955091998283751
  0.3372451836713271  0.7838583119375527  0.5924056685807531
  0.5123003312540693  0.0334368205580454  0.5920673189817007
  0.5116626822648144  0.2836394106829752  0.5917859154040277
  0.5121991022980136  0.5330353177663891  0.5918615944029900
  0.5116547812242780  0.7833097917784719  0.5918063500648201
  0.6878292348303309  0.0335636368366647  0.5863289526810538
  0.6885023208584169  0.2819207851597088  0.5887566207926240
  0.6888544662263952  0.5356625378607632  0.5893710575331220
  0.6878327691726429  0.7830103372046290  0.5857028414378957
  0.3372626131351411  0.1578860849507697  0.5923008568652868
  0.3396445235683452  0.4092192208976406  0.5954118601483950
  0.3371619448186302  0.6576042128720000  0.5922727292702541
  0.3398193426389415  0.9092798850030883  0.5957209654690603
  0.5117462046186119  0.1588019703758525  0.5920785204186263
  0.5123971677386895  0.4083567355390406  0.5917517225964540
  0.5116088987484173  0.6581887765221638  0.5918804411536475
  0.5125449669327778  0.9082523617168488  0.5921016983348193
  0.6825372598538828  0.1573070481169270  0.5975974991505406
  0.6863571031732593  0.4078583337700710  0.5949303564541564
  0.6822686492004538  0.6600013381443995  0.5965650499890212
  0.6843452978586043  0.9081878874302172  0.5959367355302111
  0.2532204377183236  0.0903697887301970  0.4132117389910570
  0.2530245835045259  0.3512230682315724  0.4126280480454647
  0.2529779232543150  0.5901485258805304  0.4130066240301001
  0.2532086900782860  0.8511687340098419  0.4133819453436296
  0.4255190482475374  0.0960009099085397  0.4069288767474190
  0.4253519479755662  0.3459317209924231  0.4065430871674782
  0.4252803896228230  0.5956866490480704  0.4067648810487238
  0.4254490238446589  0.8458964741128620  0.4069069504878147
  0.5979243629805098  0.0958475114481260  0.4066182445412969
  0.5984306403549779  0.3460381833673487  0.4059395516572396
  0.5978561091955037  0.5949058400131978  0.4066095097191110
  0.5984263736887639  0.8456294019941130  0.4063229241292358
  0.2298002242218733  0.2208626186010545  0.5002836706712960
  0.2267397392816054  0.4707260408374424  0.5008126653452371
  0.2298731821946854  0.7205900311907778  0.4998748533138469
  0.2270963027896058  0.9709848710653245  0.5012226676117734
  0.4240973424195433  0.2210929875942314  0.4077002283702970
  0.4258645423172689  0.4707414901118218  0.4070136893757089
  0.4240221029543692  0.7208168497930089  0.4078470084986707
  0.4260920062285035  0.9708601349256623  0.4073905301377934
  0.5980311997006283  0.2220032099929062  0.4069885289947685
  0.5988951195260556  0.4708670727906251  0.4062514788209991
  0.5974310021172916  0.7212232337407753  0.4060977693860440
  0.5986258187161605  0.9711950352613822  0.4065273898288980
  0.3395619087565795  0.0325193842692334  0.4054339256413377
  0.3368062523954278  0.2839330045419232  0.4084257667710451
  0.3392880575346077  0.5323477201210479  0.4052799120138184
  0.3369179962057666  0.7839028195068929  0.4085018102239137
  0.5119830923390009  0.0334408962712332  0.4070430221845119
  0.5113229726992826  0.2834936039083504  0.4067579812755159
  0.5117815795798442  0.5331043635219967  0.4065827556909424
  0.5112480373083520  0.7833670676828156  0.4069531451044548
  0.6874609970706470  0.0337058103538054  0.4106038467774683
  0.6882697591973395  0.2816886162802499  0.4077909013447559
  0.6881628279627240  0.5351897455164818  0.4058392834684111
  0.6873157434344437  0.7832855095666563  0.4099899031447448
  0.3369217904069033  0.1577708211713972  0.4085338048257200
  0.3392901271858718  0.4092633205470094  0.4050656435528754
  0.3367578509721180  0.6576266082064695  0.4086356061975700
  0.3394888330215742  0.9093342803347944  0.4053119304183977
  0.5113987490161094  0.1586833457706569  0.4067148291234810
  0.5120411871000823  0.4083323048344536  0.4063356571683345
  0.5111869262160298  0.6582447586050322  0.4065984602796741
  0.5121802099138447  0.9083421556577498  0.4067116368092473
  0.6821865622525485  0.1572572741707118  0.3996119503323234
  0.7757731659478454  0.9081916035918240  0.4975362911719499
  0.7678109633385514  0.7795944982940965  0.4972905754147641
  0.7732054531789788  0.6464876561207721  0.4963927232021877
  0.7825241292276482  0.3426876338384564  0.4978006382129158
  0.7733762189209802  0.1683651075459769  0.4979837435916765
  0.7676719756036863  0.0364825680728429  0.4976976336152845
  0.6860362401949148  0.4075379424079135  0.4003960915496046
  0.6815978471477089  0.6600451196870282  0.3986827698616309
  0.6838528839379913  0.9084428712465865  0.4007335741676649
  0.7735161730482060  0.4631562706432087  0.5069643425529420
  0.8061391595054813  0.4981374208565458  0.5254340330861336
  0.8314195877623104  0.4917816997786540  0.4871638484644679
  0.8156365515717718  0.4917880031538621  0.5828061064516908
  0.7824170790886827  0.4265009619461069  0.5068019364714831
  0.7942263419994358  0.5367239598101597  0.5188268021978752
 
  0.00000000E+00  0.00000000E+00  0.00000000E+00
  0.00000000E+00  0.00000000E+00  0.00000000E+00
  0.00000000E+00  0.00000000E+00  0.00000000E+00
  0.00000000E+00  0.00000000E+00  0.00000000E+00
  0.00000000E+00  0.00000000E+00  0.00000000E+00
  0.00000000E+00  0.00000000E+00  0.00000000E+00
  0.00000000E+00  0.00000000E+00  0.00000000E+00
  0.00000000E+00  0.00000000E+00  0.00000000E+00
  0.00000000E+00  0.00000000E+00  0.00000000E+00
  0.00000000E+00  0.00000000E+00  0.00000000E+00
  0.00000000E+00  0.00000000E+00  0.00000000E+00
  0.00000000E+00  0.00000000E+00  0.00000000E+00
  0.00000000E+00  0.00000000E+00  0.00000000E+00
  0.00000000E+00  0.00000000E+00  0.00000000E+00
  0.00000000E+00  0.00000000E+00  0.00000000E+00
  0.00000000E+00  0.00000000E+00  0.00000000E+00
  0.00000000E+00  0.00000000E+00  0.00000000E+00
  0.00000000E+00  0.00000000E+00  0.00000000E+00
  0.00000000E+00  0.00000000E+00  0.00000000E+00
  0.00000000E+00  0.00000000E+00  0.00000000E+00
  0.00000000E+00  0.00000000E+00  0.00000000E+00
  0.00000000E+00  0.00000000E+00  0.00000000E+00
  0.00000000E+00  0.00000000E+00  0.00000000E+00
  0.00000000E+00  0.00000000E+00  0.00000000E+00
  0.00000000E+00  0.00000000E+00  0.00000000E+00
  0.00000000E+00  0.00000000E+00  0.00000000E+00
  0.00000000E+00  0.00000000E+00  0.00000000E+00
  0.00000000E+00  0.00000000E+00  0.00000000E+00
  0.00000000E+00  0.00000000E+00  0.00000000E+00
  0.00000000E+00  0.00000000E+00  0.00000000E+00
  0.00000000E+00  0.00000000E+00  0.00000000E+00
  0.00000000E+00  0.00000000E+00  0.00000000E+00
  0.00000000E+00  0.00000000E+00  0.00000000E+00
  0.00000000E+00  0.00000000E+00  0.00000000E+00
  0.00000000E+00  0.00000000E+00  0.00000000E+00
  0.00000000E+00  0.00000000E+00  0.00000000E+00
  0.00000000E+00  0.00000000E+00  0.00000000E+00
  0.00000000E+00  0.00000000E+00  0.00000000E+00
  0.00000000E+00  0.00000000E+00  0.00000000E+00
  0.00000000E+00  0.00000000E+00  0.00000000E+00
  0.00000000E+00  0.00000000E+00  0.00000000E+00
  0.00000000E+00  0.00000000E+00  0.00000000E+00
  0.00000000E+00  0.00000000E+00  0.00000000E+00
  0.00000000E+00  0.00000000E+00  0.00000000E+00
  0.00000000E+00  0.00000000E+00  0.00000000E+00
  0.00000000E+00  0.00000000E+00  0.00000000E+00
  0.00000000E+00  0.00000000E+00  0.00000000E+00
  0.00000000E+00  0.00000000E+00  0.00000000E+00
  0.00000000E+00  0.00000000E+00  0.00000000E+00
  0.00000000E+00  0.00000000E+00  0.00000000E+00
  0.00000000E+00  0.00000000E+00  0.00000000E+00
  0.00000000E+00  0.00000000E+00  0.00000000E+00
  0.00000000E+00  0.00000000E+00  0.00000000E+00
  0.00000000E+00  0.00000000E+00  0.00000000E+00
  0.00000000E+00  0.00000000E+00  0.00000000E+00
  0.00000000E+00  0.00000000E+00  0.00000000E+00
  0.00000000E+00  0.00000000E+00  0.00000000E+00
  0.00000000E+00  0.00000000E+00  0.00000000E+00
  0.00000000E+00  0.00000000E+00  0.00000000E+00
  0.00000000E+00  0.00000000E+00  0.00000000E+00
  0.00000000E+00  0.00000000E+00  0.00000000E+00
  0.00000000E+00  0.00000000E+00  0.00000000E+00
  0.00000000E+00  0.00000000E+00  0.00000000E+00
  0.00000000E+00  0.00000000E+00  0.00000000E+00
  0.00000000E+00  0.00000000E+00  0.00000000E+00
  0.00000000E+00  0.00000000E+00  0.00000000E+00
  0.00000000E+00  0.00000000E+00  0.00000000E+00
  0.00000000E+00  0.00000000E+00  0.00000000E+00
  0.00000000E+00  0.00000000E+00  0.00000000E+00
  0.00000000E+00  0.00000000E+00  0.00000000E+00
  0.00000000E+00  0.00000000E+00  0.00000000E+00
  0.00000000E+00  0.00000000E+00  0.00000000E+00
  0.00000000E+00  0.00000000E+00  0.00000000E+00
  0.00000000E+00  0.00000000E+00  0.00000000E+00
  0.00000000E+00  0.00000000E+00  0.00000000E+00
  0.00000000E+00  0.00000000E+00  0.00000000E+00
  0.00000000E+00  0.00000000E+00  0.00000000E+00
  0.00000000E+00  0.00000000E+00  0.00000000E+00
  0.00000000E+00  0.00000000E+00  0.00000000E+00
  0.00000000E+00  0.00000000E+00  0.00000000E+00
  0.00000000E+00  0.00000000E+00  0.00000000E+00
  0.00000000E+00  0.00000000E+00  0.00000000E+00
  0.00000000E+00  0.00000000E+00  0.00000000E+00
  0.00000000E+00  0.00000000E+00  0.00000000E+00
  0.00000000E+00  0.00000000E+00  0.00000000E+00
  0.00000000E+00  0.00000000E+00  0.00000000E+00
  0.00000000E+00  0.00000000E+00  0.00000000E+00
  0.00000000E+00  0.00000000E+00  0.00000000E+00
  0.00000000E+00  0.00000000E+00  0.00000000E+00
  0.00000000E+00  0.00000000E+00  0.00000000E+00
  0.00000000E+00  0.00000000E+00  0.00000000E+00
  0.00000000E+00  0.00000000E+00  0.00000000E+00
  0.00000000E+00  0.00000000E+00  0.00000000E+00
  0.00000000E+00  0.00000000E+00  0.00000000E+00
  0.00000000E+00  0.00000000E+00  0.00000000E+00
  0.00000000E+00  0.00000000E+00  0.00000000E+00
  0.00000000E+00  0.00000000E+00  0.00000000E+00
  0.00000000E+00  0.00000000E+00  0.00000000E+00
  0.00000000E+00  0.00000000E+00  0.00000000E+00
  0.00000000E+00  0.00000000E+00  0.00000000E+00
  0.00000000E+00  0.00000000E+00  0.00000000E+00
  0.00000000E+00  0.00000000E+00  0.00000000E+00
  0.00000000E+00  0.00000000E+00  0.00000000E+00
  0.00000000E+00  0.00000000E+00  0.00000000E+00
  0.00000000E+00  0.00000000E+00  0.00000000E+00
  0.00000000E+00  0.00000000E+00  0.00000000E+00
  0.00000000E+00  0.00000000E+00  0.00000000E+00
  0.00000000E+00  0.00000000E+00  0.00000000E+00
  0.00000000E+00  0.00000000E+00  0.00000000E+00
  0.00000000E+00  0.00000000E+00  0.00000000E+00
  0.00000000E+00  0.00000000E+00  0.00000000E+00
  0.00000000E+00  0.00000000E+00  0.00000000E+00
  0.00000000E+00  0.00000000E+00  0.00000000E+00
  0.00000000E+00  0.00000000E+00  0.00000000E+00
  0.00000000E+00  0.00000000E+00  0.00000000E+00
  0.00000000E+00  0.00000000E+00  0.00000000E+00
  0.00000000E+00  0.00000000E+00  0.00000000E+00
  0.00000000E+00  0.00000000E+00  0.00000000E+00
  0.00000000E+00  0.00000000E+00  0.00000000E+00
  0.00000000E+00  0.00000000E+00  0.00000000E+00
  0.00000000E+00  0.00000000E+00  0.00000000E+00
  0.00000000E+00  0.00000000E+00  0.00000000E+00
  0.00000000E+00  0.00000000E+00  0.00000000E+00
  0.00000000E+00  0.00000000E+00  0.00000000E+00
  0.00000000E+00  0.00000000E+00  0.00000000E+00
  0.00000000E+00  0.00000000E+00  0.00000000E+00
  0.00000000E+00  0.00000000E+00  0.00000000E+00
  0.00000000E+00  0.00000000E+00  0.00000000E+00
  0.00000000E+00  0.00000000E+00  0.00000000E+00
  0.00000000E+00  0.00000000E+00  0.00000000E+00
  0.00000000E+00  0.00000000E+00  0.00000000E+00
  0.00000000E+00  0.00000000E+00  0.00000000E+00
  0.00000000E+00  0.00000000E+00  0.00000000E+00
  0.00000000E+00  0.00000000E+00  0.00000000E+00
  0.00000000E+00  0.00000000E+00  0.00000000E+00
  0.00000000E+00  0.00000000E+00  0.00000000E+00
  0.00000000E+00  0.00000000E+00  0.00000000E+00
  0.00000000E+00  0.00000000E+00  0.00000000E+00
  0.00000000E+00  0.00000000E+00  0.00000000E+00
  0.00000000E+00  0.00000000E+00  0.00000000E+00
  0.00000000E+00  0.00000000E+00  0.00000000E+00
  0.00000000E+00  0.00000000E+00  0.00000000E+00
  0.00000000E+00  0.00000000E+00  0.00000000E+00
  0.00000000E+00  0.00000000E+00  0.00000000E+00
  0.00000000E+00  0.00000000E+00  0.00000000E+00
  0.00000000E+00  0.00000000E+00  0.00000000E+00
  0.00000000E+00  0.00000000E+00  0.00000000E+00
  0.00000000E+00  0.00000000E+00  0.00000000E+00
  0.00000000E+00  0.00000000E+00  0.00000000E+00
  0.00000000E+00  0.00000000E+00  0.00000000E+00
  0.00000000E+00  0.00000000E+00  0.00000000E+00
  0.00000000E+00  0.00000000E+00  0.00000000E+00
