Mo48 H4 Se98 C1 O1
1.0
  33.0000000000000000    0.0000000000000000    0.0000000000000000
   0.0000000000000000   26.3120002747000008    0.0000000000000000
   0.0000000000000000    0.0000000000000000   18.0970000000000013
Mo Se O C H
48 98 1 1 4
direct
   0.2867566739986634    0.0274172066097913    0.5000078614020473 Mo
   0.2805089198519188    0.2909599256562730    0.4999954167447654 Mo
   0.2866861475032163    0.5279223443038823    0.4999862668723110 Mo
   0.2813815089746010    0.7900024903455012    0.4999985176313547 Mo
   0.4547812278378372    0.0357934208577228    0.5000014293726255 Mo
   0.4534297446450778    0.2858955018034865    0.5000012365168990 Mo
   0.4551746766693459    0.5353529837137802    0.4999989947923715 Mo
   0.4543702646986999    0.7854165630435819    0.4999997643083358 Mo
   0.6273842570303375    0.0363889447718478    0.4999970728968850 Mo
   0.6250686628275961    0.2847997725646682    0.5000036179566931 Mo
   0.6298851084177942    0.5339428178209398    0.5000007818294033 Mo
   0.6273088883552523    0.7853740632279086    0.4999990496538851 Mo
   0.2807482349929492    0.1559496136636340    0.4999995240635915 Mo
   0.2864342943426863    0.4186856747173582    0.4999982515864424 Mo
   0.2811829852004632    0.6556061302663474    0.4999827319167381 Mo
   0.2870689508533362    0.9180511163438807    0.5000238522646637 Mo
   0.4535062462735224    0.1604007796815234    0.5000015823518765 Mo
   0.4547849944124688    0.4105798003934067    0.5000006249538573 Mo
   0.4546002505672697    0.6599673293377888    0.4999995573107271 Mo
   0.4552615442673764    0.9101947697424454    0.5000011017574543 Mo
   0.6265885531101610    0.1614264342914424    0.5000004059560527 Mo
   0.6293368970754935    0.4103988968966636    0.5000031894735407 Mo
   0.6276148952243397    0.6603612192157510    0.5000007103739288 Mo
   0.6280817743950629    0.9108527679776623    0.4999977118407673 Mo
   0.3659515875169221    0.2231558452669261    0.5000025637627327 Mo
   0.3687507236551484    0.4731141944598205    0.4999988254438434 Mo
   0.3668829151086671    0.7227616928614293    0.4999967612354448 Mo
   0.3689120727008174    0.9729061110460550    0.5000085362170638 Mo
   0.5392782050117728    0.2229840075999943    0.5000014763662949 Mo
   0.5424334698952965    0.4725941401126984    0.4999996526545187 Mo
   0.5408761060234297    0.7226564920521504    0.4999998442015111 Mo
   0.5415239507551637    0.9731342022400230    0.5000002394611042 Mo
   0.7127039229779111    0.2212173950023502    0.5000012200115878 Mo
   0.7063506592606467    0.4672590668461908    0.5000006991223125 Mo
   0.7143333886131653    0.7149697923188716    0.5000023115659884 Mo
   0.7153012415538204    0.9657452541688964    0.4999980738278409 Mo
   0.3683810971174558    0.0973055877549224    0.5000018216247044 Mo
   0.3684014251586583    0.3491115832985170    0.5000018851574926 Mo
   0.3690102415538003    0.5970973487488123    0.4999936081134183 Mo
   0.3690725816220350    0.8485745355940532    0.5000073078317109 Mo
   0.5408306415111732    0.0985727289671805    0.5000005712118682 Mo
   0.5403312118748301    0.3481297413958024    0.5000019774404618 Mo
   0.5413572573441098    0.5973968598693601    0.4999991800569514 Mo
   0.5414605863721307    0.8480619910532037    0.4999988601828134 Mo
   0.7152617400711183    0.1084403570335028    0.4999992448365386 Mo
   0.7103056353521680    0.3409832102421251    0.5000023693552552 Mo
   0.7101204133567898    0.6069751158101166    0.5000018606488402 Mo
   0.7152900815514699    0.8567551085911019    0.4999992980872884 Mo
   0.2533409179530834    0.0925077520266109    0.5869527090917166 Se
   0.2532397411949555    0.3538736825363791    0.5877282785509100 Se
   0.2536788084782889    0.5928482783739644    0.5876628789783251 Se
   0.2538691138272369    0.8531044031249745    0.5873100539529876 Se
   0.4255542582343673    0.0979265286032858    0.5931057032333319 Se
   0.4255122819680003    0.3483893157792504    0.5931180689288079 Se
   0.4262104547443393    0.5977378666130941    0.5930476925469865 Se
   0.4262622243745049    0.8478820767658096    0.5930711052160613 Se
   0.5985568098052372    0.0982727227183098    0.5927154390508215 Se
   0.5980222641118653    0.3486271997702133    0.5922554584370643 Se
   0.5993936656841575    0.5962597961269913    0.5914536720999931 Se
   0.5992165970362054    0.8480130615223397    0.5925091624804580 Se
   0.4239634532076604    0.2230810843334205    0.5920815961021600 Se
   0.4264363918064830    0.4730759629574706    0.5928375566375279 Se
   0.4250116968081789    0.7226530154978285    0.5920615822744504 Se
   0.4266819414689594    0.9728612346087787    0.5926511185872710 Se
   0.5963447985028878    0.2227367148166733    0.5927563814113516 Se
   0.6003200060716234    0.4724966264739227    0.5932846448038295 Se
   0.5983734237181397    0.7232685332039149    0.5924804123678304 Se
   0.5992983407015100    0.9736106393368729    0.5924869540749849 Se
   0.3399453649880009    0.0344254151399861    0.5952942994799915 Se
   0.3370047824977002    0.2864278697750088    0.5918660505869584 Se
   0.3400120433336462    0.5346649560483875    0.5952198551377951 Se
   0.3378324977264267    0.7858991686322118    0.5919881047634417 Se
   0.5124994242388672    0.0356745740284872    0.5924247908902970 Se
   0.5109237120430288    0.2857165363787250    0.5926761916510539 Se
   0.5129135037694802    0.5349163295180764    0.5925495805707794 Se
   0.5121672245518318    0.7854730986492247    0.5922919002366487 Se
   0.6883308812774084    0.0370826762050158    0.5875774331890190 Se
   0.6824743950109494    0.2816483695812650    0.5946011565589644 Se
   0.6906413901734938    0.5374816984994588    0.5926620249903277 Se
   0.6880375870535773    0.7857915368072876    0.5878617187272864 Se
   0.3370204779313261    0.1599818959026346    0.5920546710316242 Se
   0.3396961433780368    0.4117289990339714    0.5952338681392514 Se
   0.3377172533818691    0.6597647037741466    0.5919144519825343 Se
   0.3403491711683427    0.9112213561725727    0.5952535898864422 Se
   0.5110350705938205    0.1604031051500368    0.5927807163821877 Se
   0.5124150795106110    0.4107317526037550    0.5926773512172560 Se
   0.5123388392003334    0.6601407883379262    0.5926510778709678 Se
   0.5129147834451256    0.9105468993215776    0.5927142508910083 Se
   0.6838709266395923    0.1619947816072385    0.5964766732652019 Se
   0.6879878930708283    0.4046490764753884    0.5972527887332826 Se
   0.6825184541153350    0.6624101482216110    0.5992890501096717 Se
   0.6846081932460980    0.9112254326271574    0.5977955946566818 Se
   0.2533422058776159    0.0925062064116705    0.4130503743250588 Se
   0.2532413574753375    0.3538755551281519    0.4122643337913635 Se
   0.2536891070058329    0.5928396486473255    0.4122955124927241 Se
   0.2538690465551745    0.8531108055618588    0.4127027746880286 Se
   0.4255538645590635    0.0979256348728510    0.4068968077789422 Se
   0.4255121042166967    0.3483894160279355    0.4068847822521170 Se
   0.4262136295296332    0.5977392001724122    0.4069458751156632 Se
   0.4262592598847952    0.8478839377524302    0.4069321272721093 Se
   0.5985559269908834    0.0982738493038458    0.4072836378110975 Se
   0.5980224780528431    0.3486259168142402    0.4077517739150880 Se
   0.5993946262678336    0.5962595117923687    0.4085470826906973 Se
   0.5992164296502149    0.8480126450193093    0.4074875223915636 Se
   0.2299862468288726    0.2233336822620479    0.4999567717540111 Se
   0.2271847953554718    0.4734365148368454    0.4999795625213836 Se
   0.2304124703124766    0.7229053023663813    0.4999964741465827 Se
   0.2276042404675670    0.9724492533120885    0.5000183835091079 Se
   0.4239612995057361    0.2230816250199941    0.4079247748000494 Se
   0.4264373453483931    0.4730750119405479    0.4071628258546708 Se
   0.4250133261233286    0.7226543740237371    0.4079378098968190 Se
   0.4266789791388936    0.9728610296343919    0.4073538925185875 Se
   0.5963454079897468    0.2227384559349597    0.4072478354371170 Se
   0.6003213586372872    0.4724952642295809    0.4067184446558619 Se
   0.5983726664890615    0.7232668804117217    0.4075199046375759 Se
   0.5992932895797803    0.9736085266801878    0.4075098935481429 Se
   0.3399428235895854    0.0344231894458063    0.4047138201035291 Se
   0.3370077889018383    0.2864274083888267    0.4081330396046155 Se
   0.3400195868271902    0.5346628846873344    0.4047678242737530 Se
   0.3378348394098138    0.7859045260106685    0.4080125082889652 Se
   0.5124989749694148    0.0356749534741034    0.4075764114240472 Se
   0.5109240526841189    0.2857160955293448    0.4073268757511463 Se
   0.5129136384486239    0.5349163050615817    0.4074472981890635 Se
   0.5121666757171474    0.7854727408205405    0.4077072107025164 Se
   0.6883312167933548    0.0370833718583764    0.4124175711208806 Se
   0.6824735944410559    0.2816494302767817    0.4054042704756727 Se
   0.6906408879467905    0.5374823388384088    0.4073390901960760 Se
   0.6880384542704993    0.7857903085269975    0.4121381009938119 Se
   0.3370203439366390    0.1599827471329067    0.4079489882820577 Se
   0.3396974779286427    0.4117275851692945    0.4047672040793792 Se
   0.3377236606901859    0.6597652606321489    0.4080677919508188 Se
   0.3403370139588190    0.9112228742923529    0.4047858610248796 Se
   0.5110348145632361    0.1604043535580228    0.4072217471521088 Se
   0.5124151860712040    0.4107303179740516    0.4073248574945951 Se
   0.5123389506227658    0.6601412735685661    0.4073489661538867 Se
   0.5129136504012937    0.9105470711261928    0.4072861789419322 Se
   0.6838704292947121    0.1619957419235150    0.4035241319779249 Se
   0.7760917802701152    0.9109106951471035    0.5000001347233911 Se
   0.7680262369216744    0.7825885108776472    0.5000003693087547 Se
   0.7734925416415515    0.6495738006557735    0.5000022291856528 Se
   0.7729730177005274    0.2995853572784563    0.4999999963283705 Se
   0.7743226479611931    0.1682429099397985    0.4999998602066959 Se
   0.7682213288876183    0.0386086905007994    0.4999989604448243 Se
   0.6879883169757993    0.4046466488346904    0.4027529896076104 Se
   0.6825193246871528    0.6624112609527067    0.4007169275056386 Se
   0.6846080683855614    0.9112246094340807    0.4022019235041589 Se
   0.7629787998667072    0.4345166371180950    0.4990807118316013 O
   0.8041818619879194    0.4524993942274039    0.5072896553028948 C
   0.8246008919879194    0.4198859174471867    0.5002106770192014 H
   0.8081224247151922    0.4690873888854793    0.5625152938065142 H
   0.7598071901697375    0.3937605095411609    0.5004871504678393 H
   0.8101491322909498    0.4811305154699941    0.4645901360455594 H
