Mo  S                                   
   1.00000000000000     
    33.0000000000000000    0.0000000000000000    0.0000000000000000
     0.0000000000000000   25.5199999999999996    0.0000000000000000
     0.0000000000000000    0.0000000000000000   17.4728999999999992
   Mo   S 
    48    98
Direct
  0.2862645719298484  0.1023733695376166  0.4982642190118085
  0.3702526280436587  0.0340741945250969  0.4987550209726450
  0.2887256975307864  0.2114502668457092  0.4980926876126119
  0.3705295787898208  0.1584388027419763  0.4984397765951130
  0.4530373073029921  0.0965334724395817  0.4990002160452960
  0.5357269044158386  0.0342605047878379  0.4998149997219912
  0.2851173396035165  0.3451778217364208  0.4982077081425018
  0.3690817874276391  0.2837559677421382  0.4984214794445805
  0.4524689801293960  0.2216650633559212  0.4988197367314129
  0.5353668746205074  0.1591736810492534  0.4997496172367164
  0.6174750686335244  0.0968694650516966  0.5015612583767890
  0.2881348241269848  0.4682573862334394  0.4986263873827355
  0.3678956790682406  0.4077022214674599  0.4987082147519430
  0.4514093680619311  0.3466483107359934  0.4989459928787241
  0.5348445832260964  0.2846046499403911  0.4997143797530796
  0.2876205713407813  0.6086303012623588  0.4991094170746919
  0.3673121590179136  0.5351631580963101  0.4992114530233778
  0.4506216961288416  0.4715270109739649  0.4993654890150268
  0.5340952079816006  0.4091445232830253  0.4997669254596957
  0.2857751695263957  0.7176053236453939  0.4992354790707267
  0.3697417332119386  0.6601240233250465  0.4995719477919494
  0.4514629828401340  0.5962718416301058  0.4998119016519169
  0.5341272197139375  0.5340001768622500  0.4999763860636364
  0.4523464853650623  0.7217503325275700  0.4999896401845305
  0.5345052813662008  0.6586255021261209  0.5000637175983016
  0.6184451318517006  0.2220649367641485  0.5015955012343554
  0.7008419761586140  0.0360187909599290  0.4997454768539669
  0.6164752515535810  0.3470245063024748  0.5014692818294790
  0.7004404586244348  0.1582155810900048  0.5087310385849761
  0.6176130902392885  0.4716461255192783  0.5004117146308431
  0.7000081062241037  0.2864168040466737  0.5082488143156283
  0.6162782862708696  0.5963121785940473  0.4993672496881345
  0.6997263537015428  0.4082822898256566  0.5002435181677924
  0.6181223851213531  0.7211399420898559  0.4993021169151319
  0.6996114667919358  0.5352480367677259  0.5015711707224284
  0.6997305627687211  0.6570161727952168  0.4938702053427448
  0.2856825968842713  0.8549734979684871  0.4990525623478916
  0.3698194553633769  0.7846333373669694  0.4995679533548838
  0.2858416418253356  0.9645960180618260  0.4987081239343496
  0.3700818482062331  0.9093872816144497  0.4992429799297611
  0.4525330262627278  0.8467274754209058  0.4998452027180562
  0.5351887952631245  0.7841431896566036  0.5000683353870699
  0.4527846433830547  0.9716418827023929  0.4994307027988043
  0.5354389653425571  0.9089234933732726  0.5000091115226013
  0.6172423040048685  0.8463530407832920  0.4993587987036108
  0.6189718423418284  0.9715410172667873  0.5004532663710606
  0.7001494491494142  0.7847872970607241  0.4934680751609406
  0.7007430992639101  0.9068960384181395  0.5020851609968844
  0.3126933232748996  0.0336575798904022  0.4126792595152864
  0.3125201508080977  0.0339064823832089  0.5844415916045165
  0.3168052095022915  0.1564843696293536  0.4037388381722948
  0.3166265137815785  0.1566244762271154  0.5927648711280469
  0.3980359681198067  0.0958829491412558  0.4092459243452282
  0.3977789569780370  0.0960756346550440  0.5881905124414146
  0.4806571013039118  0.0338909306261925  0.4100146422413076
  0.4802745126854120  0.0340971252397395  0.5887855058901152
  0.3108846824440334  0.2799392060828296  0.4105594158323598
  0.3106877942292883  0.2798445783820540  0.5858613538283137
  0.3973405785516775  0.2220210339826139  0.4093533117185615
  0.3970700937860343  0.2220335893890208  0.5877004168269053
  0.4803785161220731  0.1592055125525533  0.4096519237723157
  0.4798600085214488  0.1592955416895094  0.5886484610867058
  0.5632458668659908  0.0968927970028943  0.4104629507598858
  0.5622507428499262  0.0966682520791124  0.5901935670521468
  0.3110604960176389  0.4060843817697943  0.4064740869188199
  0.3108592907251833  0.4058207798359490  0.5905046474942210
  0.3960851727413299  0.3462685458697763  0.4092298690389597
  0.3958344823766424  0.3460865684107404  0.5881154167966685
  0.4797887715515685  0.2843963797775970  0.4097823198850463
  0.4792720637372199  0.2843347408848800  0.5884533517530741
  0.5634547625519630  0.2219710035955984  0.4111529330830734
  0.5621707740916264  0.2219928458503020  0.5893222297934244
  0.6462485328249556  0.0342671409854560  0.4119552717105748
  0.6470273619443319  0.0339404072226657  0.5901133958789302
  0.6483710054500094  0.1595783703629721  0.4143738526550749
  0.6443145777109720  0.1598592432742620  0.5925100177784302
  0.3084627510503068  0.5382493591438333  0.4115749186744395
  0.3082473489127082  0.5380088460380748  0.5863684619641774
  0.3948107727348287  0.4718562625735458  0.4100877226924666
  0.3945509346214919  0.4715573732148570  0.5880821694404830
  0.4787364314723916  0.4094307240990247  0.4099902941466667
  0.4783407924735030  0.4092201248690372  0.5886655720705107
  0.5621682346448438  0.3469313279780195  0.4103280811218895
  0.5611979691324791  0.3471318086219313  0.5901825756157706
  0.3161049282657657  0.6628376353519201  0.4046998949993466
  0.3158554338115351  0.6627259513556325  0.5939942071619839
  0.3961704144124738  0.5961997927859528  0.4105214758459823
  0.3959405348372869  0.5959818453568815  0.5885921594542225
  0.4787494308627984  0.5337603255733825  0.4104389591883759
  0.4785505834865234  0.5335403879537850  0.5890923480630050
  0.5620647460328598  0.4716178566988489  0.4108857948650879
  0.5617508028358813  0.4715388493788808  0.5892401816496360
  0.3973721299387094  0.7225379576066828  0.4102715041914919
  0.3971411320162161  0.7225313028880649  0.5892136089927575
  0.4792271199391962  0.6588862979413150  0.4106012867179274
  0.4791576343847694  0.6587911887459938  0.5894570663339138
  0.5613166817737820  0.5961788683112346  0.4099743106024576
  0.5616521647480894  0.5963496847639931  0.5898246452461535
  0.5621649843579064  0.7212351064529372  0.4108649324221432
  0.5627944987090601  0.7212307848291388  0.5890389843832438
  0.6477320025132087  0.2846584495817339  0.4142087174156330
  0.6439485126430924  0.2844577943797972  0.5923693394971750
  0.7281405243992012  0.0970167460277267  0.4173166096231071
  0.7263325072841695  0.0972754475553117  0.5930791843338383
  0.6452408057385739  0.4093721114744397  0.4118267749889029
  0.6457504827831855  0.4097142903463933  0.5903426292428904
  0.7492909527908012  0.2225111963993029  0.5059722363418970
  0.6459049686908571  0.5336860409379582  0.4108785128831371
  0.6448091274907028  0.5340087147349450  0.5893639700476569
  0.7273763846848809  0.3474835977045529  0.4172543333492271
  0.7256042469157009  0.3473689304405454  0.5932363527065192
  0.6440150521355079  0.6588623368359166  0.4088543201164967
  0.6470637702734123  0.6586515316509320  0.5871444406277107
  0.7491959789028542  0.4718053490195615  0.5012735903924224
  0.7257055795759868  0.5961344433639866  0.4090339076779586
  0.7268369523413369  0.5960292466855606  0.5851128519060040
  0.7491366441433414  0.7207237322256148  0.4968787269025867
  0.2302609348527298  0.1654048383802902  0.4981191361226820
  0.2206101216570318  0.3416002761548285  0.4980116160935566
  0.2291637760068426  0.6529462195498610  0.4990002282430481
  0.2357028755283537  0.0358095855129363  0.4982191128818627
  0.3123797072565040  0.7855705090879255  0.4132476895120405
  0.3121604928443347  0.7856646716456837  0.5853704061969438
  0.3155574948952804  0.9095377058699938  0.4051758938147501
  0.3153362569658995  0.9097881715708098  0.5928715790000751
  0.3973086701357147  0.8466172382833577  0.4101788377984406
  0.3970607146015297  0.8468149467451553  0.5889855215866362
  0.4799848657678041  0.7841486432699227  0.4106598624021274
  0.4799047793849880  0.7842197770762382  0.5894199927383710
  0.3975566716309302  0.9717400790118376  0.4097239911696064
  0.3972856323679181  0.9720447112556343  0.5885537087008288
  0.4801781671688374  0.9090561644389723  0.4103621420691539
  0.4799932965254783  0.9092590354000833  0.5892827987530680
  0.5623208263030293  0.8466087391574888  0.4100127082942251
  0.5626758304861283  0.8463840809498535  0.5897864654489950
  0.5634964940319307  0.9714972934312129  0.4110080816151580
  0.5631882992936852  0.9715682778868953  0.5892033638007206
  0.6443486955967188  0.7833202698185175  0.4088388229404671
  0.6476497181642813  0.7835888512687816  0.5869875297339036
  0.6472221546835470  0.9091323593496838  0.4111515102605949
  0.6458698412962605  0.9088353550093942  0.5893234120361228
  0.7264496142230428  0.8455855396138929  0.4092618497014513
  0.7275869706636229  0.8459430176622575  0.5851239539561064
  0.7495325313764667  0.9714109585896225  0.5007503891043541
  0.2289118746608594  0.9096226522688511  0.4987521968274820
  0.2352850918178930  0.7832050044050973  0.4989592228166302
 
  0.00000000E+00  0.00000000E+00  0.00000000E+00
  0.00000000E+00  0.00000000E+00  0.00000000E+00
  0.00000000E+00  0.00000000E+00  0.00000000E+00
  0.00000000E+00  0.00000000E+00  0.00000000E+00
  0.00000000E+00  0.00000000E+00  0.00000000E+00
  0.00000000E+00  0.00000000E+00  0.00000000E+00
  0.00000000E+00  0.00000000E+00  0.00000000E+00
  0.00000000E+00  0.00000000E+00  0.00000000E+00
  0.00000000E+00  0.00000000E+00  0.00000000E+00
  0.00000000E+00  0.00000000E+00  0.00000000E+00
  0.00000000E+00  0.00000000E+00  0.00000000E+00
  0.00000000E+00  0.00000000E+00  0.00000000E+00
  0.00000000E+00  0.00000000E+00  0.00000000E+00
  0.00000000E+00  0.00000000E+00  0.00000000E+00
  0.00000000E+00  0.00000000E+00  0.00000000E+00
  0.00000000E+00  0.00000000E+00  0.00000000E+00
  0.00000000E+00  0.00000000E+00  0.00000000E+00
  0.00000000E+00  0.00000000E+00  0.00000000E+00
  0.00000000E+00  0.00000000E+00  0.00000000E+00
  0.00000000E+00  0.00000000E+00  0.00000000E+00
  0.00000000E+00  0.00000000E+00  0.00000000E+00
  0.00000000E+00  0.00000000E+00  0.00000000E+00
  0.00000000E+00  0.00000000E+00  0.00000000E+00
  0.00000000E+00  0.00000000E+00  0.00000000E+00
  0.00000000E+00  0.00000000E+00  0.00000000E+00
  0.00000000E+00  0.00000000E+00  0.00000000E+00
  0.00000000E+00  0.00000000E+00  0.00000000E+00
  0.00000000E+00  0.00000000E+00  0.00000000E+00
  0.00000000E+00  0.00000000E+00  0.00000000E+00
  0.00000000E+00  0.00000000E+00  0.00000000E+00
  0.00000000E+00  0.00000000E+00  0.00000000E+00
  0.00000000E+00  0.00000000E+00  0.00000000E+00
  0.00000000E+00  0.00000000E+00  0.00000000E+00
  0.00000000E+00  0.00000000E+00  0.00000000E+00
  0.00000000E+00  0.00000000E+00  0.00000000E+00
  0.00000000E+00  0.00000000E+00  0.00000000E+00
  0.00000000E+00  0.00000000E+00  0.00000000E+00
  0.00000000E+00  0.00000000E+00  0.00000000E+00
  0.00000000E+00  0.00000000E+00  0.00000000E+00
  0.00000000E+00  0.00000000E+00  0.00000000E+00
  0.00000000E+00  0.00000000E+00  0.00000000E+00
  0.00000000E+00  0.00000000E+00  0.00000000E+00
  0.00000000E+00  0.00000000E+00  0.00000000E+00
  0.00000000E+00  0.00000000E+00  0.00000000E+00
  0.00000000E+00  0.00000000E+00  0.00000000E+00
  0.00000000E+00  0.00000000E+00  0.00000000E+00
  0.00000000E+00  0.00000000E+00  0.00000000E+00
  0.00000000E+00  0.00000000E+00  0.00000000E+00
  0.00000000E+00  0.00000000E+00  0.00000000E+00
  0.00000000E+00  0.00000000E+00  0.00000000E+00
  0.00000000E+00  0.00000000E+00  0.00000000E+00
  0.00000000E+00  0.00000000E+00  0.00000000E+00
  0.00000000E+00  0.00000000E+00  0.00000000E+00
  0.00000000E+00  0.00000000E+00  0.00000000E+00
  0.00000000E+00  0.00000000E+00  0.00000000E+00
  0.00000000E+00  0.00000000E+00  0.00000000E+00
  0.00000000E+00  0.00000000E+00  0.00000000E+00
  0.00000000E+00  0.00000000E+00  0.00000000E+00
  0.00000000E+00  0.00000000E+00  0.00000000E+00
  0.00000000E+00  0.00000000E+00  0.00000000E+00
  0.00000000E+00  0.00000000E+00  0.00000000E+00
  0.00000000E+00  0.00000000E+00  0.00000000E+00
  0.00000000E+00  0.00000000E+00  0.00000000E+00
  0.00000000E+00  0.00000000E+00  0.00000000E+00
  0.00000000E+00  0.00000000E+00  0.00000000E+00
  0.00000000E+00  0.00000000E+00  0.00000000E+00
  0.00000000E+00  0.00000000E+00  0.00000000E+00
  0.00000000E+00  0.00000000E+00  0.00000000E+00
  0.00000000E+00  0.00000000E+00  0.00000000E+00
  0.00000000E+00  0.00000000E+00  0.00000000E+00
  0.00000000E+00  0.00000000E+00  0.00000000E+00
  0.00000000E+00  0.00000000E+00  0.00000000E+00
  0.00000000E+00  0.00000000E+00  0.00000000E+00
  0.00000000E+00  0.00000000E+00  0.00000000E+00
  0.00000000E+00  0.00000000E+00  0.00000000E+00
  0.00000000E+00  0.00000000E+00  0.00000000E+00
  0.00000000E+00  0.00000000E+00  0.00000000E+00
  0.00000000E+00  0.00000000E+00  0.00000000E+00
  0.00000000E+00  0.00000000E+00  0.00000000E+00
  0.00000000E+00  0.00000000E+00  0.00000000E+00
  0.00000000E+00  0.00000000E+00  0.00000000E+00
  0.00000000E+00  0.00000000E+00  0.00000000E+00
  0.00000000E+00  0.00000000E+00  0.00000000E+00
  0.00000000E+00  0.00000000E+00  0.00000000E+00
  0.00000000E+00  0.00000000E+00  0.00000000E+00
  0.00000000E+00  0.00000000E+00  0.00000000E+00
  0.00000000E+00  0.00000000E+00  0.00000000E+00
  0.00000000E+00  0.00000000E+00  0.00000000E+00
  0.00000000E+00  0.00000000E+00  0.00000000E+00
  0.00000000E+00  0.00000000E+00  0.00000000E+00
  0.00000000E+00  0.00000000E+00  0.00000000E+00
  0.00000000E+00  0.00000000E+00  0.00000000E+00
  0.00000000E+00  0.00000000E+00  0.00000000E+00
  0.00000000E+00  0.00000000E+00  0.00000000E+00
  0.00000000E+00  0.00000000E+00  0.00000000E+00
  0.00000000E+00  0.00000000E+00  0.00000000E+00
  0.00000000E+00  0.00000000E+00  0.00000000E+00
  0.00000000E+00  0.00000000E+00  0.00000000E+00
  0.00000000E+00  0.00000000E+00  0.00000000E+00
  0.00000000E+00  0.00000000E+00  0.00000000E+00
  0.00000000E+00  0.00000000E+00  0.00000000E+00
  0.00000000E+00  0.00000000E+00  0.00000000E+00
  0.00000000E+00  0.00000000E+00  0.00000000E+00
  0.00000000E+00  0.00000000E+00  0.00000000E+00
  0.00000000E+00  0.00000000E+00  0.00000000E+00
  0.00000000E+00  0.00000000E+00  0.00000000E+00
  0.00000000E+00  0.00000000E+00  0.00000000E+00
  0.00000000E+00  0.00000000E+00  0.00000000E+00
  0.00000000E+00  0.00000000E+00  0.00000000E+00
  0.00000000E+00  0.00000000E+00  0.00000000E+00
  0.00000000E+00  0.00000000E+00  0.00000000E+00
  0.00000000E+00  0.00000000E+00  0.00000000E+00
  0.00000000E+00  0.00000000E+00  0.00000000E+00
  0.00000000E+00  0.00000000E+00  0.00000000E+00
  0.00000000E+00  0.00000000E+00  0.00000000E+00
  0.00000000E+00  0.00000000E+00  0.00000000E+00
  0.00000000E+00  0.00000000E+00  0.00000000E+00
  0.00000000E+00  0.00000000E+00  0.00000000E+00
  0.00000000E+00  0.00000000E+00  0.00000000E+00
  0.00000000E+00  0.00000000E+00  0.00000000E+00
  0.00000000E+00  0.00000000E+00  0.00000000E+00
  0.00000000E+00  0.00000000E+00  0.00000000E+00
  0.00000000E+00  0.00000000E+00  0.00000000E+00
  0.00000000E+00  0.00000000E+00  0.00000000E+00
  0.00000000E+00  0.00000000E+00  0.00000000E+00
  0.00000000E+00  0.00000000E+00  0.00000000E+00
  0.00000000E+00  0.00000000E+00  0.00000000E+00
  0.00000000E+00  0.00000000E+00  0.00000000E+00
  0.00000000E+00  0.00000000E+00  0.00000000E+00
  0.00000000E+00  0.00000000E+00  0.00000000E+00
  0.00000000E+00  0.00000000E+00  0.00000000E+00
  0.00000000E+00  0.00000000E+00  0.00000000E+00
  0.00000000E+00  0.00000000E+00  0.00000000E+00
  0.00000000E+00  0.00000000E+00  0.00000000E+00
  0.00000000E+00  0.00000000E+00  0.00000000E+00
  0.00000000E+00  0.00000000E+00  0.00000000E+00
  0.00000000E+00  0.00000000E+00  0.00000000E+00
  0.00000000E+00  0.00000000E+00  0.00000000E+00
  0.00000000E+00  0.00000000E+00  0.00000000E+00
  0.00000000E+00  0.00000000E+00  0.00000000E+00
  0.00000000E+00  0.00000000E+00  0.00000000E+00
  0.00000000E+00  0.00000000E+00  0.00000000E+00
  0.00000000E+00  0.00000000E+00  0.00000000E+00
  0.00000000E+00  0.00000000E+00  0.00000000E+00
  0.00000000E+00  0.00000000E+00  0.00000000E+00
  0.00000000E+00  0.00000000E+00  0.00000000E+00
