W36 S72                                 
   1.00000000000000     
    18.9192000000000000    0.0000000000000000    0.0000000000000012
    -9.4595999999999947   16.3845078192785536    0.0000000000000012
     0.0000000000000000    0.0000000000000000   24.6460000000000008
   W    S 
    36    71
Direct
  0.1208154562486712  0.0470477481848803  0.5001770624011215
  0.1216528704340831  0.2141785211213829  0.4998063241205486
  0.1216528489973925  0.3796965684545768  0.4998062755272272
  0.1208154988211447  0.5459900016333847  0.5001770133028245
  0.1204909921834485  0.7128424245073575  0.5005687070590668
  0.1204909866087291  0.8798708330338840  0.5005687588507755
  0.2873433164238008  0.0470477151889526  0.5001772022203355
  0.2881734136141816  0.2152357380568759  0.4980118667818232
  0.2919720204387133  0.3820971016688333  0.4954499079702543
  0.2881733998525178  0.5451599371191165  0.4980117802004429
  0.2873433667991350  0.7125178681222337  0.5001770821705591
  0.2871270779305277  0.8796746671369178  0.5007851796024880
  0.4536218259227169  0.0466567677032970  0.5010417194532266
  0.4536372570287739  0.2141788251190349  0.4998062126038292
  0.4512360773947606  0.3820971672196194  0.4954501733507399
  0.4512361584432441  0.5413612197862250  0.4954500450737243
  0.4536367750055561  0.7116804395428460  0.4998064356645955
  0.4536218000396630  0.8791873167240141  0.5010416383764280
  0.6202626021875659  0.0462424301611364  0.5014853975890645
  0.6201672201217932  0.2131661612144455  0.5010518583306620
  0.6191545316031153  0.3796960800443827  0.4998062332012054
  0.6180975492206855  0.5451598518042502  0.4980120085098747
  0.6191547868115492  0.7116803951182149  0.4998065012157227
  0.6201673712982227  0.8792236025673859  0.5010519654172398
  0.7870908779185442  0.0462423901800761  0.5014852713148770
  0.7870908996534993  0.2130707600411981  0.5014853527256236
  0.7866766322808445  0.3797116225118486  0.5010416875188284
  0.7862856371644042  0.5459900488621017  0.5001772779996472
  0.7862855716831376  0.7125178175960443  0.5001771974119791
  0.7866766187050729  0.8791872485697212  0.5010415470290397
  0.9541459975765036  0.0466566781211384  0.5010414740166311
  0.9541096497635593  0.2131659205856522  0.5010518436142490
  0.9541460431876061  0.3797115965847979  0.5010415314903014
  0.9536587351707979  0.5462063649125000  0.5007851855178345
  0.9534625877089127  0.7128424281948398  0.5005687848091540
  0.9536586977048245  0.8796746134871967  0.5007851131875043
  0.0666015152109694  0.1035100126691830  0.5645553981733755
  0.0666131965043562  0.2694177178537274  0.5644998789036677
  0.0666015347232829  0.4353137185062366  0.5645553913135259
  0.0653546244335388  0.6015949408062795  0.5646278760565622
  0.0648148170990979  0.7685185292723560  0.5646764146421930
  0.0653547339598290  0.9359819695256206  0.5646279069534117
  0.2329410099003724  0.1047709882448871  0.5634580926721071
  0.2372194914537928  0.2743110076645081  0.5619090171644672
  0.2372195469590608  0.4351307076647970  0.5619090371689310
  0.2329410114644546  0.6003922717282890  0.5634581836101020
  0.2317383090922860  0.7679785895863844  0.5646279255931290
  0.2317383341918173  0.9359820263402128  0.5646278990865667
  0.3980196093746571  0.1035100592639395  0.5645553377592876
  0.3982026447591664  0.2743110434742917  0.5619089251330109
  0.3982025746124904  0.5961137102842855  0.5619090543220651
  0.3980196887470058  0.7667318287849128  0.5645554495464467
  0.3980033000486074  0.9351127833976989  0.5651238550239839
  0.5644678461579744  0.1021494340072948  0.5654029377882637
  0.5639156147371480  0.2694177790927981  0.5644995867297595
  0.5590222738218387  0.4351306543606270  0.5619089156083277
  0.5590223261706058  0.5961137282781976  0.5619090247819116
  0.5639156191531711  0.7667200579782971  0.5644998760236462
  0.5644678267178733  0.9345407026069523  0.5654030285086762
  0.7314814727056458  0.1018519042556179  0.5656696969572153
  0.7311839795628998  0.2688656244803269  0.5654029334729884
  0.7298233441087447  0.4353138057809218  0.5645552295823109
  0.7285623560499417  0.6003922780341711  0.5634580241642553
  0.7298233068417872  0.7667317242780314  0.5645553648866866
  0.7311839885236466  0.9345406157140417  0.5654030642456007
  0.8987926272054665  0.1021493159582008  0.5654030554306999
  0.8987926340518513  0.2688655923039462  0.5654029909655094
  0.8982205547718820  0.4353301062301327  0.5651237850126734
  0.8973513378763229  0.6015950970088113  0.5646277868806635
  0.8973513487236460  0.7679785497817448  0.5646278476080582
  0.8982205779804673  0.9351126606912885  0.5651238655667257
  0.0645792879025464  0.1020826402410151  0.4362666073111043
  0.0643376879739748  0.2682799597867955  0.4362013434978707
  0.0645793812857960  0.4347189356913432  0.4362666067265479
  0.0646423592988015  0.6016533379168365  0.4364275857096729
  0.0648148885507709  0.7685185843748954  0.4364795610641110
  0.0646423343237572  0.9352112233373120  0.4364275888080726
  0.2313644096763241  0.1016177991356884  0.4354356333570522
  0.2310003131855254  0.2692853773581447  0.4336173837381097
  0.2310003875556887  0.4339372223524762  0.4336174607490832
  0.2313645274824552  0.6019688966644594  0.4354357244934803
  0.2316800836968440  0.7686910196239012  0.4364276108061631
  0.2316800302131341  0.9352112568393807  0.4364275824544563
  0.3986144201710218  0.1020826301368274  0.4362665447413718
  0.3993960466131057  0.2692852017478558  0.4336172595127721
  0.3981481240703815  0.4351850840869105  0.4290598469736651
  0.3993961070069361  0.6023329499340306  0.4336174299358788
  0.3986144835560239  0.7687540035570422  0.4362666424416446
  0.3984747643139031  0.9353484492982105  0.4369086607151900
  0.5649451469288138  0.1017946688255265  0.4371017084492976
  0.5650534801208522  0.2682798236889354  0.4362004826564458
  0.5640480824059253  0.4339372478797543  0.4336172492832588
  0.5640479594020462  0.6023329753311586  0.4336173510715255
  0.5650533425185031  0.7689955739918517  0.4362013357721750
  0.5649451182335312  0.9353725950998211  0.4371017796940109
  0.7314814872946656  0.1018518320818487  0.4373931468317807
  0.7315386942863640  0.2683882416011159  0.4371016824112530
  0.7312507129357755  0.4347189236702960  0.4362664811089374
  0.7317154790833982  0.6019689008184841  0.4354355493570381
  0.7312506610947835  0.7687540142021447  0.4362665700491561
  0.7315386057554036  0.9353726109236433  0.4371018153028388
  0.8979606117854644  0.1017946745459426  0.4371018118959356
  0.8979606775510049  0.2683882160789821  0.4371017640897392
  0.8979849491634084  0.4348587221166440  0.4369085921355804
  0.8981221571904143  0.6016533882558832  0.4364275069333914
  0.8981221018327048  0.7686910060429710  0.4364275224232728
  0.8979848142804059  0.9353484296783776  0.4369086782799698
 
  0.00000000E+00  0.00000000E+00  0.00000000E+00
  0.00000000E+00  0.00000000E+00  0.00000000E+00
  0.00000000E+00  0.00000000E+00  0.00000000E+00
  0.00000000E+00  0.00000000E+00  0.00000000E+00
  0.00000000E+00  0.00000000E+00  0.00000000E+00
  0.00000000E+00  0.00000000E+00  0.00000000E+00
  0.00000000E+00  0.00000000E+00  0.00000000E+00
  0.00000000E+00  0.00000000E+00  0.00000000E+00
  0.00000000E+00  0.00000000E+00  0.00000000E+00
  0.00000000E+00  0.00000000E+00  0.00000000E+00
  0.00000000E+00  0.00000000E+00  0.00000000E+00
  0.00000000E+00  0.00000000E+00  0.00000000E+00
  0.00000000E+00  0.00000000E+00  0.00000000E+00
  0.00000000E+00  0.00000000E+00  0.00000000E+00
  0.00000000E+00  0.00000000E+00  0.00000000E+00
  0.00000000E+00  0.00000000E+00  0.00000000E+00
  0.00000000E+00  0.00000000E+00  0.00000000E+00
  0.00000000E+00  0.00000000E+00  0.00000000E+00
  0.00000000E+00  0.00000000E+00  0.00000000E+00
  0.00000000E+00  0.00000000E+00  0.00000000E+00
  0.00000000E+00  0.00000000E+00  0.00000000E+00
  0.00000000E+00  0.00000000E+00  0.00000000E+00
  0.00000000E+00  0.00000000E+00  0.00000000E+00
  0.00000000E+00  0.00000000E+00  0.00000000E+00
  0.00000000E+00  0.00000000E+00  0.00000000E+00
  0.00000000E+00  0.00000000E+00  0.00000000E+00
  0.00000000E+00  0.00000000E+00  0.00000000E+00
  0.00000000E+00  0.00000000E+00  0.00000000E+00
  0.00000000E+00  0.00000000E+00  0.00000000E+00
  0.00000000E+00  0.00000000E+00  0.00000000E+00
  0.00000000E+00  0.00000000E+00  0.00000000E+00
  0.00000000E+00  0.00000000E+00  0.00000000E+00
  0.00000000E+00  0.00000000E+00  0.00000000E+00
  0.00000000E+00  0.00000000E+00  0.00000000E+00
  0.00000000E+00  0.00000000E+00  0.00000000E+00
  0.00000000E+00  0.00000000E+00  0.00000000E+00
  0.00000000E+00  0.00000000E+00  0.00000000E+00
  0.00000000E+00  0.00000000E+00  0.00000000E+00
  0.00000000E+00  0.00000000E+00  0.00000000E+00
  0.00000000E+00  0.00000000E+00  0.00000000E+00
  0.00000000E+00  0.00000000E+00  0.00000000E+00
  0.00000000E+00  0.00000000E+00  0.00000000E+00
  0.00000000E+00  0.00000000E+00  0.00000000E+00
  0.00000000E+00  0.00000000E+00  0.00000000E+00
  0.00000000E+00  0.00000000E+00  0.00000000E+00
  0.00000000E+00  0.00000000E+00  0.00000000E+00
  0.00000000E+00  0.00000000E+00  0.00000000E+00
  0.00000000E+00  0.00000000E+00  0.00000000E+00
  0.00000000E+00  0.00000000E+00  0.00000000E+00
  0.00000000E+00  0.00000000E+00  0.00000000E+00
  0.00000000E+00  0.00000000E+00  0.00000000E+00
  0.00000000E+00  0.00000000E+00  0.00000000E+00
  0.00000000E+00  0.00000000E+00  0.00000000E+00
  0.00000000E+00  0.00000000E+00  0.00000000E+00
  0.00000000E+00  0.00000000E+00  0.00000000E+00
  0.00000000E+00  0.00000000E+00  0.00000000E+00
  0.00000000E+00  0.00000000E+00  0.00000000E+00
  0.00000000E+00  0.00000000E+00  0.00000000E+00
  0.00000000E+00  0.00000000E+00  0.00000000E+00
  0.00000000E+00  0.00000000E+00  0.00000000E+00
  0.00000000E+00  0.00000000E+00  0.00000000E+00
  0.00000000E+00  0.00000000E+00  0.00000000E+00
  0.00000000E+00  0.00000000E+00  0.00000000E+00
  0.00000000E+00  0.00000000E+00  0.00000000E+00
  0.00000000E+00  0.00000000E+00  0.00000000E+00
  0.00000000E+00  0.00000000E+00  0.00000000E+00
  0.00000000E+00  0.00000000E+00  0.00000000E+00
  0.00000000E+00  0.00000000E+00  0.00000000E+00
  0.00000000E+00  0.00000000E+00  0.00000000E+00
  0.00000000E+00  0.00000000E+00  0.00000000E+00
  0.00000000E+00  0.00000000E+00  0.00000000E+00
  0.00000000E+00  0.00000000E+00  0.00000000E+00
  0.00000000E+00  0.00000000E+00  0.00000000E+00
  0.00000000E+00  0.00000000E+00  0.00000000E+00
  0.00000000E+00  0.00000000E+00  0.00000000E+00
  0.00000000E+00  0.00000000E+00  0.00000000E+00
  0.00000000E+00  0.00000000E+00  0.00000000E+00
  0.00000000E+00  0.00000000E+00  0.00000000E+00
  0.00000000E+00  0.00000000E+00  0.00000000E+00
  0.00000000E+00  0.00000000E+00  0.00000000E+00
  0.00000000E+00  0.00000000E+00  0.00000000E+00
  0.00000000E+00  0.00000000E+00  0.00000000E+00
  0.00000000E+00  0.00000000E+00  0.00000000E+00
  0.00000000E+00  0.00000000E+00  0.00000000E+00
  0.00000000E+00  0.00000000E+00  0.00000000E+00
  0.00000000E+00  0.00000000E+00  0.00000000E+00
  0.00000000E+00  0.00000000E+00  0.00000000E+00
  0.00000000E+00  0.00000000E+00  0.00000000E+00
  0.00000000E+00  0.00000000E+00  0.00000000E+00
  0.00000000E+00  0.00000000E+00  0.00000000E+00
  0.00000000E+00  0.00000000E+00  0.00000000E+00
  0.00000000E+00  0.00000000E+00  0.00000000E+00
  0.00000000E+00  0.00000000E+00  0.00000000E+00
  0.00000000E+00  0.00000000E+00  0.00000000E+00
  0.00000000E+00  0.00000000E+00  0.00000000E+00
  0.00000000E+00  0.00000000E+00  0.00000000E+00
  0.00000000E+00  0.00000000E+00  0.00000000E+00
  0.00000000E+00  0.00000000E+00  0.00000000E+00
  0.00000000E+00  0.00000000E+00  0.00000000E+00
  0.00000000E+00  0.00000000E+00  0.00000000E+00
  0.00000000E+00  0.00000000E+00  0.00000000E+00
  0.00000000E+00  0.00000000E+00  0.00000000E+00
  0.00000000E+00  0.00000000E+00  0.00000000E+00
  0.00000000E+00  0.00000000E+00  0.00000000E+00
  0.00000000E+00  0.00000000E+00  0.00000000E+00
  0.00000000E+00  0.00000000E+00  0.00000000E+00
  0.00000000E+00  0.00000000E+00  0.00000000E+00
