Mo36 Se72                               
   1.00000000000000     
    19.7340000000000018    0.0000000000000000    0.0000000000000012
    -9.8669999999999938   17.0901453182821115    0.0000000000000012
     0.0000000000000000    0.0000000000000000   25.8539999999999992
   Mo   Se
    36    71
Direct
  0.1209102059260658  0.0471925921773249  0.5002259880411799
  0.1218147969903214  0.2143428990946532  0.4997578791090405
  0.1217757983452046  0.3796585337298168  0.4997224633367168
  0.1208604742573414  0.5458377533381409  0.5001791949666341
  0.1205616093061153  0.7127725532816171  0.5005751500621187
  0.1205773672270993  0.8798907684502950  0.5006174906772429
  0.2874834553774477  0.0472768174620910  0.5002621797832134
  0.2884025246280331  0.2158100495561897  0.4979311343974757
  0.2926999515071316  0.3825665462311889  0.4953066092298783
  0.2883899887280634  0.5449384530713388  0.4978733542523130
  0.2874960423248680  0.7124723837195788  0.5001791057972724
  0.2872017827621605  0.8797232952334753  0.5008234876100417
  0.4536683167907469  0.0467936887630813  0.5011027697003456
  0.4536084350649929  0.2144315860302086  0.4998034264423836
  0.4507353830230301  0.3826007136637841  0.4953503919671931
  0.4507635822218674  0.5406285859921880  0.4953079821752482
  0.4536739632505089  0.7115595953388905  0.4997254804566325
  0.4536958293073923  0.8791663441061317  0.5010225861091726
  0.6203044428250450  0.0462621806332635  0.5014840339608853
  0.6201127872465193  0.2132202123576263  0.5011231532973994
  0.6189047747764178  0.3797272328065020  0.4998077805303396
  0.6175242054919963  0.5449281990578001  0.4979344765811149
  0.6189900023953072  0.7115181789913123  0.4997614666365919
  0.6201925745464436  0.8791840766117645  0.5010218074175370
  0.7871009668750233  0.0462314950538953  0.5014445969495114
  0.7870701457707199  0.2130280135470812  0.5014835030123521
  0.7865403415454750  0.3796673386193490  0.5011062757269471
  0.7860568744086791  0.5458528557825844  0.5002670596480669
  0.7861371539086832  0.7124207420207753  0.5002301607144659
  0.7866417703455113  0.8790881977494323  0.5010391919325912
  0.9542440636344338  0.0466905898916536  0.5010376058816846
  0.9541482007538846  0.2131392663844807  0.5010181416098121
  0.9541673948431750  0.3796365296584696  0.5010227064438482
  0.9536099941952614  0.5461331174758115  0.5008258087112836
  0.9534422006860410  0.7127585329302661  0.5006198709200476
  0.9537104119682667  0.8796231645182431  0.5008081301293572
  0.0667784340195823  0.1037565131767053  0.5652376659159586
  0.0666229905304050  0.2694111826613295  0.5651579465999319
  0.0667221309132557  0.4351265127094166  0.5652034193803459
  0.0654150554547144  0.6014614488701326  0.5652875749291155
  0.0649058706670118  0.7684304133257172  0.5653360922046105
  0.0654731263376718  0.9360706858366328  0.5653083973498170
  0.2331709558715289  0.1053444434929176  0.5640910511012507
  0.2377454835390438  0.2751442095665197  0.5626057641574818
  0.2377154861692432  0.4350627962914899  0.5625904121856351
  0.2331705945821057  0.6001618165484146  0.5640396688001914
  0.2318735634357623  0.7679207360234841  0.5652873454960456
  0.2318818081230134  0.9361479536639408  0.5653407852183747
  0.3981660577587718  0.1038808025122435  0.5652755576485760
  0.3982853158186757  0.2751524702173711  0.5626208194793776
  0.3982697676580287  0.5956155877697213  0.5625921469513386
  0.3982057615519992  0.7666106160086628  0.5652036331020369
  0.3981005239662352  0.9351270691487272  0.5657880048900950
  0.5645307090830016  0.1021636711067444  0.5661326385976508
  0.5638174013450481  0.2695132526454671  0.5652323727780200
  0.5581805103454300  0.4350476168106283  0.5626231417323595
  0.5581876665424517  0.5955868803398943  0.5626121395448536
  0.5639187723707053  0.7667078126936673  0.5651626067670747
  0.5645400150851856  0.9345081496113110  0.5660654502109352
  0.7315296215142268  0.1018035340359589  0.5663566415906374
  0.7311694184822599  0.2688021917631218  0.5661324388519589
  0.7294636550739142  0.4351742080082133  0.5652880032821912
  0.7279882231130514  0.6001607160455933  0.5640957774878714
  0.7295751978308047  0.7665550220567923  0.5652409207043263
  0.7312399791916633  0.9345066074369441  0.5660525113956396
  0.8988299079647035  0.1021007166452037  0.5660499191863266
  0.8988265034505503  0.2687897365554832  0.5660625107596360
  0.8982075788403350  0.4352306558796428  0.5657876460954085
  0.8971848711920671  0.6014551222040083  0.5653428684180000
  0.8972628925883157  0.7678644965755694  0.5653112862047038
  0.8982691750412144  0.9350649487396439  0.5657445979236826
  0.0646620159101516  0.1020969175159010  0.4355913521516612
  0.0643735652056989  0.2682304194217409  0.4354423236292249
  0.0645561553335270  0.4346293107669865  0.4355343618538825
  0.0646243778073199  0.6015424199796939  0.4357962165793410
  0.0648486031238136  0.7684846435071577  0.4358504556853049
  0.0647534447132330  0.9352406693389881  0.4358119856511848
  0.2315365315370954  0.1018462741716277  0.4348692246244070
  0.2311153582159378  0.2695594070091971  0.4329231142339367
  0.2310575277245377  0.4338197980972751  0.4328869350412958
  0.2314807287976350  0.6018510297657826  0.4348098244349003
  0.2317890073465492  0.7687088416017005  0.4357958636934001
  0.2318077849432001  0.9353567213239629  0.4358429050630477
  0.3986800452827666  0.1021919440816461  0.4356228279874514
  0.3995339435916492  0.2696610426690000  0.4329718311229911
  0.3980641855276659  0.4352673045477005  0.4281198874590402
  0.3995162790968578  0.6022803366863627  0.4328879811590980
  0.3987058692426118  0.7687764084490496  0.4355371124965259
  0.3985298682192848  0.9354479968341991  0.4362775230700109
  0.5649376903592440  0.1018729080429210  0.4364824236659004
  0.5650133602766303  0.2683231083326163  0.4355287075849503
  0.5636737814073527  0.4338002463030932  0.4329743128357535
  0.5637717576505139  0.6022158071494985  0.4329238587348598
  0.5651026751893937  0.7689580725892213  0.4354482126109360
  0.5649950091322395  0.9354040218428565  0.4364176242880120
  0.7314508810091027  0.1018796733170433  0.4366941784904768
  0.7314599694749191  0.2683990247472039  0.4364835355677386
  0.7311483094230056  0.4346587970636264  0.4356262977839833
  0.7314828274751619  0.6017940713358456  0.4348741028770107
  0.7312343338061069  0.7686693501889437  0.4355955478009506
  0.7315801609327082  0.9353253973106774  0.4364112388416430
  0.8980045872225659  0.1017501626677202  0.4364104703971918
  0.8979273030031081  0.2683381231812021  0.4364156698850863
  0.8978855499929068  0.4348056805681253  0.4362783277566749
  0.8979745753365123  0.6015275351282199  0.4358457082884826
  0.8980884037785870  0.7685804322006149  0.4358157527216306
  0.8980381503488317  0.9352916333598600  0.4362693445352690
 
  0.00000000E+00  0.00000000E+00  0.00000000E+00
  0.00000000E+00  0.00000000E+00  0.00000000E+00
  0.00000000E+00  0.00000000E+00  0.00000000E+00
  0.00000000E+00  0.00000000E+00  0.00000000E+00
  0.00000000E+00  0.00000000E+00  0.00000000E+00
  0.00000000E+00  0.00000000E+00  0.00000000E+00
  0.00000000E+00  0.00000000E+00  0.00000000E+00
  0.00000000E+00  0.00000000E+00  0.00000000E+00
  0.00000000E+00  0.00000000E+00  0.00000000E+00
  0.00000000E+00  0.00000000E+00  0.00000000E+00
  0.00000000E+00  0.00000000E+00  0.00000000E+00
  0.00000000E+00  0.00000000E+00  0.00000000E+00
  0.00000000E+00  0.00000000E+00  0.00000000E+00
  0.00000000E+00  0.00000000E+00  0.00000000E+00
  0.00000000E+00  0.00000000E+00  0.00000000E+00
  0.00000000E+00  0.00000000E+00  0.00000000E+00
  0.00000000E+00  0.00000000E+00  0.00000000E+00
  0.00000000E+00  0.00000000E+00  0.00000000E+00
  0.00000000E+00  0.00000000E+00  0.00000000E+00
  0.00000000E+00  0.00000000E+00  0.00000000E+00
  0.00000000E+00  0.00000000E+00  0.00000000E+00
  0.00000000E+00  0.00000000E+00  0.00000000E+00
  0.00000000E+00  0.00000000E+00  0.00000000E+00
  0.00000000E+00  0.00000000E+00  0.00000000E+00
  0.00000000E+00  0.00000000E+00  0.00000000E+00
  0.00000000E+00  0.00000000E+00  0.00000000E+00
  0.00000000E+00  0.00000000E+00  0.00000000E+00
  0.00000000E+00  0.00000000E+00  0.00000000E+00
  0.00000000E+00  0.00000000E+00  0.00000000E+00
  0.00000000E+00  0.00000000E+00  0.00000000E+00
  0.00000000E+00  0.00000000E+00  0.00000000E+00
  0.00000000E+00  0.00000000E+00  0.00000000E+00
  0.00000000E+00  0.00000000E+00  0.00000000E+00
  0.00000000E+00  0.00000000E+00  0.00000000E+00
  0.00000000E+00  0.00000000E+00  0.00000000E+00
  0.00000000E+00  0.00000000E+00  0.00000000E+00
  0.00000000E+00  0.00000000E+00  0.00000000E+00
  0.00000000E+00  0.00000000E+00  0.00000000E+00
  0.00000000E+00  0.00000000E+00  0.00000000E+00
  0.00000000E+00  0.00000000E+00  0.00000000E+00
  0.00000000E+00  0.00000000E+00  0.00000000E+00
  0.00000000E+00  0.00000000E+00  0.00000000E+00
  0.00000000E+00  0.00000000E+00  0.00000000E+00
  0.00000000E+00  0.00000000E+00  0.00000000E+00
  0.00000000E+00  0.00000000E+00  0.00000000E+00
  0.00000000E+00  0.00000000E+00  0.00000000E+00
  0.00000000E+00  0.00000000E+00  0.00000000E+00
  0.00000000E+00  0.00000000E+00  0.00000000E+00
  0.00000000E+00  0.00000000E+00  0.00000000E+00
  0.00000000E+00  0.00000000E+00  0.00000000E+00
  0.00000000E+00  0.00000000E+00  0.00000000E+00
  0.00000000E+00  0.00000000E+00  0.00000000E+00
  0.00000000E+00  0.00000000E+00  0.00000000E+00
  0.00000000E+00  0.00000000E+00  0.00000000E+00
  0.00000000E+00  0.00000000E+00  0.00000000E+00
  0.00000000E+00  0.00000000E+00  0.00000000E+00
  0.00000000E+00  0.00000000E+00  0.00000000E+00
  0.00000000E+00  0.00000000E+00  0.00000000E+00
  0.00000000E+00  0.00000000E+00  0.00000000E+00
  0.00000000E+00  0.00000000E+00  0.00000000E+00
  0.00000000E+00  0.00000000E+00  0.00000000E+00
  0.00000000E+00  0.00000000E+00  0.00000000E+00
  0.00000000E+00  0.00000000E+00  0.00000000E+00
  0.00000000E+00  0.00000000E+00  0.00000000E+00
  0.00000000E+00  0.00000000E+00  0.00000000E+00
  0.00000000E+00  0.00000000E+00  0.00000000E+00
  0.00000000E+00  0.00000000E+00  0.00000000E+00
  0.00000000E+00  0.00000000E+00  0.00000000E+00
  0.00000000E+00  0.00000000E+00  0.00000000E+00
  0.00000000E+00  0.00000000E+00  0.00000000E+00
  0.00000000E+00  0.00000000E+00  0.00000000E+00
  0.00000000E+00  0.00000000E+00  0.00000000E+00
  0.00000000E+00  0.00000000E+00  0.00000000E+00
  0.00000000E+00  0.00000000E+00  0.00000000E+00
  0.00000000E+00  0.00000000E+00  0.00000000E+00
  0.00000000E+00  0.00000000E+00  0.00000000E+00
  0.00000000E+00  0.00000000E+00  0.00000000E+00
  0.00000000E+00  0.00000000E+00  0.00000000E+00
  0.00000000E+00  0.00000000E+00  0.00000000E+00
  0.00000000E+00  0.00000000E+00  0.00000000E+00
  0.00000000E+00  0.00000000E+00  0.00000000E+00
  0.00000000E+00  0.00000000E+00  0.00000000E+00
  0.00000000E+00  0.00000000E+00  0.00000000E+00
  0.00000000E+00  0.00000000E+00  0.00000000E+00
  0.00000000E+00  0.00000000E+00  0.00000000E+00
  0.00000000E+00  0.00000000E+00  0.00000000E+00
  0.00000000E+00  0.00000000E+00  0.00000000E+00
  0.00000000E+00  0.00000000E+00  0.00000000E+00
  0.00000000E+00  0.00000000E+00  0.00000000E+00
  0.00000000E+00  0.00000000E+00  0.00000000E+00
  0.00000000E+00  0.00000000E+00  0.00000000E+00
  0.00000000E+00  0.00000000E+00  0.00000000E+00
  0.00000000E+00  0.00000000E+00  0.00000000E+00
  0.00000000E+00  0.00000000E+00  0.00000000E+00
  0.00000000E+00  0.00000000E+00  0.00000000E+00
  0.00000000E+00  0.00000000E+00  0.00000000E+00
  0.00000000E+00  0.00000000E+00  0.00000000E+00
  0.00000000E+00  0.00000000E+00  0.00000000E+00
  0.00000000E+00  0.00000000E+00  0.00000000E+00
  0.00000000E+00  0.00000000E+00  0.00000000E+00
  0.00000000E+00  0.00000000E+00  0.00000000E+00
  0.00000000E+00  0.00000000E+00  0.00000000E+00
  0.00000000E+00  0.00000000E+00  0.00000000E+00
  0.00000000E+00  0.00000000E+00  0.00000000E+00
  0.00000000E+00  0.00000000E+00  0.00000000E+00
  0.00000000E+00  0.00000000E+00  0.00000000E+00
  0.00000000E+00  0.00000000E+00  0.00000000E+00
