Mo36 Se72                               
   1.00000000000000     
    19.7340000000000018    0.0000000000000000    0.0000000000000012
    -9.8669999999999938   17.0901453182821115    0.0000000000000012
     0.0000000000000000    0.0000000000000000   25.8539999999999992
   Mo   Se
    36    71
Direct
  0.1203615791092574  0.0463050866125911  0.4999999992894004
  0.1203615744869708  0.2129717546826626  0.5000000008267520
  0.1203615764772294  0.3796384197774714  0.5000000005738627
  0.1203615783187857  0.5463050888881611  0.5000000006035208
  0.1203615789415622  0.7129717572883081  0.5000000007692762
  0.1203615774650686  0.8796384229942404  0.4999999984462207
  0.2870282437276188  0.0463050887559859  0.5000000000570850
  0.2870282453195045  0.2129717537354310  0.5000000011715500
  0.2870282470851322  0.3796384240291673  0.4999999995068407
  0.2870282460989131  0.5463050876348703  0.5000000013030999
  0.2870282446274786  0.7129717570492460  0.5000000005731096
  0.2870282456762325  0.8796384219294495  0.4999999985522692
  0.4536949097739793  0.0463050860254413  0.5000000009738343
  0.4536949089085240  0.2129717532896294  0.5000000018989041
  0.4536949096274441  0.3796384227102010  0.4999999992911057
  0.4536949100364396  0.5463050873023434  0.4999999990596464
  0.4536949116554325  0.7129717555927328  0.4999999997068230
  0.4536949142420781  0.8796384249479985  0.5000000003921841
  0.6203615727570835  0.0463050834464340  0.4999999995305728
  0.6203615798142579  0.2129717577906831  0.5000000000454534
  0.6203615820678152  0.3796384238387276  0.5000000004839578
  0.6203615783332523  0.5463050883993077  0.4999999990199768
  0.6203615788257224  0.7129717565759677  0.5000000005847056
  0.6203615759057683  0.8796384232762264  0.4999999991234745
  0.7870282462618050  0.0463050876207447  0.5000000003526708
  0.7870282464892995  0.2129717578610553  0.4999999992032116
  0.7870282427515747  0.3796384230174255  0.4999999997020979
  0.7870282429699245  0.5463050854316194  0.5000000008332393
  0.7870282441722054  0.7129717564681286  0.4999999997752695
  0.7870282456187567  0.8796384220753097  0.5000000005194138
  0.9536949113138320  0.0463050894801356  0.5000000011846311
  0.9536949127620602  0.2129717553292352  0.5000000015537012
  0.9536949103405945  0.3796384197584146  0.4999999980383194
  0.9536949093095615  0.5463050872398014  0.5000000008452687
  0.9536949118774416  0.7129717566169802  0.5000000011357812
  0.9536949126032965  0.8796384229364733  0.4999999986034496
  0.0648192098729510  0.1018474561842666  0.5648707578902261
  0.0648192129468512  0.2685141233978072  0.5648707568296274
  0.0648192115278050  0.4351807881416434  0.5648707589013497
  0.0648192111279968  0.6018474560835188  0.5648707587543242
  0.0648192113413444  0.7685141226974821  0.5648707579917271
  0.0648192119094659  0.9351807892718895  0.5648707580157506
  0.2314858786707319  0.1018474566611474  0.5648707575207652
  0.2314858783680904  0.2685141227624541  0.5648707590382287
  0.2314858773471684  0.4351807885251375  0.5648707579276717
  0.2314858779786846  0.6018474556353084  0.5648707586896435
  0.2314858772893302  0.7685141217132596  0.5648707579181149
  0.2314858778445625  0.9351807897778386  0.5648707594635098
  0.3981525451426435  0.1018474566406624  0.5648707571646625
  0.3981525435864697  0.2685141209399404  0.5648707573511942
  0.3981525438140281  0.6018474558335711  0.5648707581110557
  0.3981525438582025  0.7685141219364340  0.5648707587095529
  0.3981525454506993  0.9351807906339644  0.5648707571105902
  0.5648192107111356  0.1018474551723685  0.5648707587957134
  0.5648192108485190  0.2685141227528334  0.5648707586154345
  0.5648192115092741  0.4351807891780908  0.5648707595028668
  0.5648192117161130  0.6018474556049327  0.5648707586981629
  0.5648192108742762  0.7685141224424115  0.5648707589062170
  0.5648192117548589  0.9351807903217448  0.5648707566568447
  0.7314858784144249  0.1018474563729512  0.5648707607414494
  0.7314858772451132  0.2685141218584519  0.5648707585015558
  0.7314858765606829  0.4351807886823025  0.5648707565222182
  0.7314858769486037  0.6018474555893931  0.5648707588107200
  0.7314858777511546  0.7685141217395923  0.5648707583322334
  0.7314858785464011  0.9351807903658838  0.5648707586578396
  0.8981525445841925  0.1018474543174079  0.5648707578130896
  0.8981525436695392  0.2685141221261489  0.5648707583275083
  0.8981525453943604  0.4351807898406719  0.5648707585253874
  0.8981525448940744  0.6018474551644246  0.5648707585124555
  0.8981525450145753  0.7685141227985497  0.5648707591405255
  0.8981525448939323  0.9351807911551049  0.5648707582970687
  0.0648192100659486  0.1018474552360047  0.4351292417624180
  0.0648192130505834  0.2685141235370665  0.4351292423320032
  0.0648192103664940  0.4351807875888198  0.4351292415163357
  0.0648192108070731  0.6018474555164488  0.4351292405347351
  0.0648192119545641  0.7685141236766242  0.4351292416944972
  0.0648192116623605  0.9351807889235957  0.4351292430322786
  0.2314858775286268  0.1018474556005202  0.4351292423631534
  0.2314858782405622  0.2685141225647740  0.4351292407284362
  0.2314858770376631  0.4351807878050451  0.4351292415783590
  0.2314858774499911  0.6018474552478565  0.4351292402858178
  0.2314858772301065  0.7685141224543344  0.4351292427197038
  0.2314858769684491  0.9351807888872159  0.4351292414949981
  0.3981525442612366  0.1018474555638349  0.4351292418470791
  0.3981525432011566  0.2685141212041131  0.4351292415413752
  0.3981525436114310  0.4351807881842618  0.4351292427973235
  0.3981525440995881  0.6018474556087483  0.4351292418599044
  0.3981525438884006  0.7685141220040492  0.4351292410544758
  0.3981525443422242  0.9351807897790820  0.4351292426588529
  0.5648192106110983  0.1018474548463857  0.4351292412747298
  0.5648192109813479  0.2685141227005872  0.4351292407860399
  0.5648192111113701  0.4351807892300315  0.4351292409888572
  0.5648192111121944  0.6018474548779480  0.4351292412110794
  0.5648192104474745  0.7685141222982494  0.4351292414717705
  0.5648192114750685  0.9351807895417323  0.4351292433631855
  0.7314858777000097  0.1018474558987634  0.4351292398325342
  0.7314858774054542  0.2685141217716804  0.4351292416390606
  0.7314858761360483  0.4351807881544545  0.4351292426850009
  0.7314858764137639  0.6018474552576691  0.4351292416077044
  0.7314858776125988  0.7685141215078488  0.4351292410388510
  0.7314858774376987  0.9351807894947157  0.4351292413335912
  0.8981525441000642  0.1018474538658651  0.4351292411682905
  0.8981525432684379  0.2685141228086891  0.4351292418903725
  0.8981525451779504  0.4351807890166270  0.4351292422508521
  0.8981525444033949  0.6018474547966406  0.4351292403099123
  0.8981525448731347  0.7685141230771606  0.4351292411730867
  0.8981525449519552  0.9351807901492393  0.4351292416600074
 
  0.00000000E+00  0.00000000E+00  0.00000000E+00
  0.00000000E+00  0.00000000E+00  0.00000000E+00
  0.00000000E+00  0.00000000E+00  0.00000000E+00
  0.00000000E+00  0.00000000E+00  0.00000000E+00
  0.00000000E+00  0.00000000E+00  0.00000000E+00
  0.00000000E+00  0.00000000E+00  0.00000000E+00
  0.00000000E+00  0.00000000E+00  0.00000000E+00
  0.00000000E+00  0.00000000E+00  0.00000000E+00
  0.00000000E+00  0.00000000E+00  0.00000000E+00
  0.00000000E+00  0.00000000E+00  0.00000000E+00
  0.00000000E+00  0.00000000E+00  0.00000000E+00
  0.00000000E+00  0.00000000E+00  0.00000000E+00
  0.00000000E+00  0.00000000E+00  0.00000000E+00
  0.00000000E+00  0.00000000E+00  0.00000000E+00
  0.00000000E+00  0.00000000E+00  0.00000000E+00
  0.00000000E+00  0.00000000E+00  0.00000000E+00
  0.00000000E+00  0.00000000E+00  0.00000000E+00
  0.00000000E+00  0.00000000E+00  0.00000000E+00
  0.00000000E+00  0.00000000E+00  0.00000000E+00
  0.00000000E+00  0.00000000E+00  0.00000000E+00
  0.00000000E+00  0.00000000E+00  0.00000000E+00
  0.00000000E+00  0.00000000E+00  0.00000000E+00
  0.00000000E+00  0.00000000E+00  0.00000000E+00
  0.00000000E+00  0.00000000E+00  0.00000000E+00
  0.00000000E+00  0.00000000E+00  0.00000000E+00
  0.00000000E+00  0.00000000E+00  0.00000000E+00
  0.00000000E+00  0.00000000E+00  0.00000000E+00
  0.00000000E+00  0.00000000E+00  0.00000000E+00
  0.00000000E+00  0.00000000E+00  0.00000000E+00
  0.00000000E+00  0.00000000E+00  0.00000000E+00
  0.00000000E+00  0.00000000E+00  0.00000000E+00
  0.00000000E+00  0.00000000E+00  0.00000000E+00
  0.00000000E+00  0.00000000E+00  0.00000000E+00
  0.00000000E+00  0.00000000E+00  0.00000000E+00
  0.00000000E+00  0.00000000E+00  0.00000000E+00
  0.00000000E+00  0.00000000E+00  0.00000000E+00
  0.00000000E+00  0.00000000E+00  0.00000000E+00
  0.00000000E+00  0.00000000E+00  0.00000000E+00
  0.00000000E+00  0.00000000E+00  0.00000000E+00
  0.00000000E+00  0.00000000E+00  0.00000000E+00
  0.00000000E+00  0.00000000E+00  0.00000000E+00
  0.00000000E+00  0.00000000E+00  0.00000000E+00
  0.00000000E+00  0.00000000E+00  0.00000000E+00
  0.00000000E+00  0.00000000E+00  0.00000000E+00
  0.00000000E+00  0.00000000E+00  0.00000000E+00
  0.00000000E+00  0.00000000E+00  0.00000000E+00
  0.00000000E+00  0.00000000E+00  0.00000000E+00
  0.00000000E+00  0.00000000E+00  0.00000000E+00
  0.00000000E+00  0.00000000E+00  0.00000000E+00
  0.00000000E+00  0.00000000E+00  0.00000000E+00
  0.00000000E+00  0.00000000E+00  0.00000000E+00
  0.00000000E+00  0.00000000E+00  0.00000000E+00
  0.00000000E+00  0.00000000E+00  0.00000000E+00
  0.00000000E+00  0.00000000E+00  0.00000000E+00
  0.00000000E+00  0.00000000E+00  0.00000000E+00
  0.00000000E+00  0.00000000E+00  0.00000000E+00
  0.00000000E+00  0.00000000E+00  0.00000000E+00
  0.00000000E+00  0.00000000E+00  0.00000000E+00
  0.00000000E+00  0.00000000E+00  0.00000000E+00
  0.00000000E+00  0.00000000E+00  0.00000000E+00
  0.00000000E+00  0.00000000E+00  0.00000000E+00
  0.00000000E+00  0.00000000E+00  0.00000000E+00
  0.00000000E+00  0.00000000E+00  0.00000000E+00
  0.00000000E+00  0.00000000E+00  0.00000000E+00
  0.00000000E+00  0.00000000E+00  0.00000000E+00
  0.00000000E+00  0.00000000E+00  0.00000000E+00
  0.00000000E+00  0.00000000E+00  0.00000000E+00
  0.00000000E+00  0.00000000E+00  0.00000000E+00
  0.00000000E+00  0.00000000E+00  0.00000000E+00
  0.00000000E+00  0.00000000E+00  0.00000000E+00
  0.00000000E+00  0.00000000E+00  0.00000000E+00
  0.00000000E+00  0.00000000E+00  0.00000000E+00
  0.00000000E+00  0.00000000E+00  0.00000000E+00
  0.00000000E+00  0.00000000E+00  0.00000000E+00
  0.00000000E+00  0.00000000E+00  0.00000000E+00
  0.00000000E+00  0.00000000E+00  0.00000000E+00
  0.00000000E+00  0.00000000E+00  0.00000000E+00
  0.00000000E+00  0.00000000E+00  0.00000000E+00
  0.00000000E+00  0.00000000E+00  0.00000000E+00
  0.00000000E+00  0.00000000E+00  0.00000000E+00
  0.00000000E+00  0.00000000E+00  0.00000000E+00
  0.00000000E+00  0.00000000E+00  0.00000000E+00
  0.00000000E+00  0.00000000E+00  0.00000000E+00
  0.00000000E+00  0.00000000E+00  0.00000000E+00
  0.00000000E+00  0.00000000E+00  0.00000000E+00
  0.00000000E+00  0.00000000E+00  0.00000000E+00
  0.00000000E+00  0.00000000E+00  0.00000000E+00
  0.00000000E+00  0.00000000E+00  0.00000000E+00
  0.00000000E+00  0.00000000E+00  0.00000000E+00
  0.00000000E+00  0.00000000E+00  0.00000000E+00
  0.00000000E+00  0.00000000E+00  0.00000000E+00
  0.00000000E+00  0.00000000E+00  0.00000000E+00
  0.00000000E+00  0.00000000E+00  0.00000000E+00
  0.00000000E+00  0.00000000E+00  0.00000000E+00
  0.00000000E+00  0.00000000E+00  0.00000000E+00
  0.00000000E+00  0.00000000E+00  0.00000000E+00
  0.00000000E+00  0.00000000E+00  0.00000000E+00
  0.00000000E+00  0.00000000E+00  0.00000000E+00
  0.00000000E+00  0.00000000E+00  0.00000000E+00
  0.00000000E+00  0.00000000E+00  0.00000000E+00
  0.00000000E+00  0.00000000E+00  0.00000000E+00
  0.00000000E+00  0.00000000E+00  0.00000000E+00
  0.00000000E+00  0.00000000E+00  0.00000000E+00
  0.00000000E+00  0.00000000E+00  0.00000000E+00
  0.00000000E+00  0.00000000E+00  0.00000000E+00
  0.00000000E+00  0.00000000E+00  0.00000000E+00
  0.00000000E+00  0.00000000E+00  0.00000000E+00
  0.00000000E+00  0.00000000E+00  0.00000000E+00
