Mo48 Se100                              
   1.00000000000000     
    33.0000000000000000    0.0000000000000000    0.0000000000000000
     0.0000000000000000   26.3120002747000008    0.0000000000000000
     0.0000000000000000    0.0000000000000000   18.0970000000000013
   Mo   Se
    48   100
Direct
  0.2869589377386106  0.0274949749895939  0.5000069551344453
  0.2807737658194114  0.2901588276362901  0.4999766066637790
  0.2868406005779747  0.5276171012284436  0.4999955287173989
  0.2817521753227084  0.7895648032905243  0.5000260037034465
  0.4548132505987112  0.0360270880475895  0.4999934212241399
  0.4532535178311079  0.2854953415778425  0.5000027243864693
  0.4548432576183004  0.5353113931475662  0.5000046462602654
  0.4543365324621433  0.7855023838570219  0.4999934977601797
  0.6270244401130682  0.0369087221005771  0.4999980863972837
  0.6265000765987452  0.2854424073752071  0.5000041283487846
  0.6270519560492005  0.5341865958530789  0.5000057086989358
  0.6271976824648959  0.7854457009594640  0.5000009878009664
  0.2809932332339713  0.1561838526065600  0.5000226411326167
  0.2865976902350980  0.4184403340519651  0.4999805158897317
  0.2815665480422567  0.6562006860438885  0.4999924338383508
  0.2872781918199223  0.9182970499669736  0.5000097987141885
  0.4536131342615448  0.1604644095477425  0.4999990285639129
  0.4544506699732125  0.4101162485434173  0.5000055493711670
  0.4543999172674447  0.6601048786775010  0.5000024627318567
  0.4551801170513556  0.9104243693468632  0.4999891726315440
  0.6267094409138352  0.1619085554408315  0.5000008545802075
  0.6268099553848927  0.4090458772203789  0.5000036771072445
  0.6275362159540663  0.6597034459733209  0.5000032456565791
  0.6275979344915612  0.9112554784733078  0.4999965279575349
  0.3658413214944929  0.2229374382465679  0.5000010505951735
  0.3686054861786872  0.4728924717152339  0.4999970903230064
  0.3666071419758623  0.7228814524491867  0.5000102713623562
  0.3689403756238221  0.9730533882716799  0.4999970334573263
  0.5396635138988373  0.2233728215018900  0.5000043080505492
  0.5413114506576235  0.4721117703766780  0.5000071115489462
  0.5410770100232796  0.7226094118345898  0.5000015443054124
  0.5413080699434758  0.9734750798497060  0.4999918000542465
  0.7141037450311956  0.2272902068035307  0.4999983638582108
  0.7151974841696571  0.4615060433716422  0.5000013563029881
  0.7144724150493857  0.7142028248284333  0.5000023493195869
  0.7144600087886630  0.9659496182050091  0.5000002566702477
  0.3684671321570221  0.0973287846946533  0.5000042856296787
  0.3682372174028643  0.3487382703095960  0.4999938621951259
  0.3687956101840655  0.5971736866105246  0.5000013719495442
  0.3690039714300184  0.8486879707139252  0.5000050858582554
  0.5410912681657436  0.0989682079639422  0.4999982610128981
  0.5398929018218510  0.3474419103473423  0.5000054141270667
  0.5411481185972420  0.5975887533339801  0.5000047978448094
  0.5412720034660126  0.8481967732280253  0.4999924737477031
  0.7151592445565171  0.1095154728256418  0.5000005412250346
  0.7141393195475558  0.3436614264616793  0.5000002329512228
  0.7144884388833290  0.6050681890640206  0.5000046112149050
  0.7144764995370139  0.8567899463052910  0.5000004988308575
  0.2532756629972752  0.0925951870010380  0.5864717151353886
  0.2531440356815793  0.3534817703626771  0.5868774846983555
  0.2535028083095341  0.5928439407532409  0.5864910789182645
  0.2536911177143608  0.8531273471552439  0.5862559327092356
  0.4256894730142164  0.0980226116447298  0.5931711791329022
  0.4253628202558204  0.3480036875309338  0.5931681335327283
  0.4261131533483962  0.5978013490561480  0.5930284382960096
  0.4263140929026079  0.8479916511440919  0.5930298186331200
  0.5987626087727307  0.0988845788681374  0.5929856732590508
  0.5973329810618182  0.3474781242485605  0.5926159543676519
  0.5988597733684813  0.5970331571796876  0.5925273024993416
  0.5990212975792559  0.8480367670972058  0.5924563849215616
  0.4238735951358024  0.2228176074408879  0.5921836570754593
  0.4263248167470550  0.4728811071259997  0.5928228776364364
  0.4249029784935203  0.7227894089947000  0.5919967503147561
  0.4267469627854368  0.9730669748534808  0.5926926134923605
  0.5971668414170850  0.2234110733173793  0.5925561133210024
  0.5989460765253725  0.4721685860740124  0.5930095586075836
  0.5989062939222976  0.7228538752898217  0.5924127143283329
  0.5989777969099919  0.9740109725784833  0.5925313556457255
  0.3400716078940462  0.0344919476289718  0.5954003020374401
  0.3370128478500192  0.2861615538831757  0.5920985435413328
  0.3400317110683915  0.5345630607422009  0.5953188118647219
  0.3379135290004456  0.7861124169023057  0.5922591531972969
  0.5125507901913124  0.0360792872439220  0.5924101683969525
  0.5106983654531945  0.2853599090401389  0.5928835412669997
  0.5125853109893157  0.5349913706657077  0.5924466483732829
  0.5122769040162183  0.7853593287180942  0.5922306386720209
  0.6878557519481490  0.0376788464946856  0.5875040411486836
  0.6847012649721833  0.2854774716329374  0.5958380622555524
  0.6878839211967502  0.5333783846885112  0.5874995849042222
  0.6878812928271145  0.7854795757802435  0.5879215611263930
  0.3371255678391805  0.1598040785138934  0.5922363825934127
  0.3397194129826815  0.4114868873752187  0.5953612244186530
  0.3377419779986539  0.6597910505773967  0.5922410595893339
  0.3404302969632340  0.9113621147551356  0.5953690943308416
  0.5113143921324266  0.1607139141228089  0.5926753642069684
  0.5119393834280359  0.4102743488412059  0.5928214181004705
  0.5122581146637586  0.6602622316763629  0.5925846921622266
  0.5128344985510864  0.9106976526147079  0.5927053801728945
  0.6846234887717912  0.1642624823948609  0.5957317688946233
  0.6847091652590152  0.4067249518530005  0.5957356457186975
  0.6839695932884808  0.6595558432476309  0.5980249476304706
  0.6840054537697497  0.9114194833218079  0.5980876465265013
  0.2532743064561416  0.0926008507061482  0.4135648482648122
  0.2531533396068397  0.3534741769372971  0.4130580301505020
  0.2534984493750656  0.5928459589689439  0.4135080443858925
  0.2536979978388416  0.8531271311940856  0.4137604360499552
  0.4256860393568687  0.0980239169314316  0.4068283847329894
  0.4253670405027847  0.3480050071206620  0.4068309701945765
  0.4261135653094570  0.5977981481952312  0.4069749267391316
  0.4263038762950799  0.8479870407379906  0.4069630328806468
  0.5987617614388228  0.0988855846274888  0.4070160766488655
  0.5973296116572371  0.3474767806976118  0.4073958942801781
  0.5988602427009653  0.5970351465844601  0.4074821719890025
  0.5990250332557423  0.8480349795745710  0.4075384232662032
  0.2299041692002959  0.2230560728540993  0.4999355541867914
  0.2273485460973319  0.4731379610223954  0.4999560066308675
  0.2304662714964891  0.7229852256055906  0.5000016627236832
  0.2277772857077380  0.9726119546459699  0.5000047898373694
  0.4238744701497268  0.2228201866106261  0.4078196581713485
  0.4263284344974210  0.4728775588369487  0.4071879726980114
  0.4248932678762500  0.7227790997416719  0.4080081271358722
  0.4267443932783905  0.9730683973790448  0.4072939995048159
  0.5971644607981972  0.2234129269065050  0.4074524556525034
  0.5989448847839824  0.4721692557605337  0.4069964113130524
  0.5989071405019502  0.7228535298815899  0.4075896263526175
  0.5989800703214669  0.9740105961923220  0.4074614949627673
  0.3400702102208299  0.0344952046459781  0.4046071409689560
  0.3370226366302518  0.2861586979286486  0.4078828669414563
  0.3400330960773843  0.5345646406555389  0.4046774329315710
  0.3378989690822678  0.7861110461978527  0.4077657910810970
  0.5125490701855000  0.0360797782616018  0.4075814547752898
  0.5106977690138450  0.2853607213678160  0.4071236723329790
  0.5125840651303477  0.5349880163556335  0.4075625485724643
  0.5122762290789495  0.7853536587287806  0.4077576950062465
  0.6878568516556314  0.0376780930774245  0.4124942029336793
  0.6846976904832687  0.2854813947430799  0.4041653590647698
  0.6878806774224415  0.5333765929013623  0.4125097888770028
  0.6878799748811346  0.7854780204532048  0.4120823931604960
  0.3371130616401103  0.1598074162142851  0.4077807758580008
  0.3397308390071530  0.4114901132889912  0.4046155228688519
  0.3377487130215613  0.6597953927671583  0.4077618815384696
  0.3404262162274350  0.9113577636195274  0.4046424910572881
  0.5113143681865537  0.1607164192132373  0.4073272932459560
  0.5119396002341929  0.4102782559999767  0.4071891851383569
  0.5122587998969550  0.6602600077035490  0.4074208505508636
  0.5128334429093542  0.9106943564148651  0.4072789917253914
  0.6846214099309194  0.1642632926712935  0.4042674921910177
  0.7752449934225325  0.9120583581124322  0.5000015349669127
  0.7672730376707335  0.7854903059257481  0.4999991590686932
  0.7752621372162878  0.6589816774816981  0.5000041022139072
  0.7673653406615486  0.5325895823228350  0.5000026220708023
  0.7741567330704910  0.4056783143407827  0.4999999591078392
  0.7738056523835013  0.2854134786503764  0.4999994802551768
  0.7741377405086851  0.1652778581494800  0.4999998025817831
  0.7673388692041740  0.0384163864651086  0.5000004782241447
  0.6847083543599481  0.4067260718950862  0.4042667589918594
  0.6839730715224235  0.6595518728795327  0.4019808626259049
  0.6840069001544649  0.9114193071538210  0.4019128169589834
 
  0.00000000E+00  0.00000000E+00  0.00000000E+00
  0.00000000E+00  0.00000000E+00  0.00000000E+00
  0.00000000E+00  0.00000000E+00  0.00000000E+00
  0.00000000E+00  0.00000000E+00  0.00000000E+00
  0.00000000E+00  0.00000000E+00  0.00000000E+00
  0.00000000E+00  0.00000000E+00  0.00000000E+00
  0.00000000E+00  0.00000000E+00  0.00000000E+00
  0.00000000E+00  0.00000000E+00  0.00000000E+00
  0.00000000E+00  0.00000000E+00  0.00000000E+00
  0.00000000E+00  0.00000000E+00  0.00000000E+00
  0.00000000E+00  0.00000000E+00  0.00000000E+00
  0.00000000E+00  0.00000000E+00  0.00000000E+00
  0.00000000E+00  0.00000000E+00  0.00000000E+00
  0.00000000E+00  0.00000000E+00  0.00000000E+00
  0.00000000E+00  0.00000000E+00  0.00000000E+00
  0.00000000E+00  0.00000000E+00  0.00000000E+00
  0.00000000E+00  0.00000000E+00  0.00000000E+00
  0.00000000E+00  0.00000000E+00  0.00000000E+00
  0.00000000E+00  0.00000000E+00  0.00000000E+00
  0.00000000E+00  0.00000000E+00  0.00000000E+00
  0.00000000E+00  0.00000000E+00  0.00000000E+00
  0.00000000E+00  0.00000000E+00  0.00000000E+00
  0.00000000E+00  0.00000000E+00  0.00000000E+00
  0.00000000E+00  0.00000000E+00  0.00000000E+00
  0.00000000E+00  0.00000000E+00  0.00000000E+00
  0.00000000E+00  0.00000000E+00  0.00000000E+00
  0.00000000E+00  0.00000000E+00  0.00000000E+00
  0.00000000E+00  0.00000000E+00  0.00000000E+00
  0.00000000E+00  0.00000000E+00  0.00000000E+00
  0.00000000E+00  0.00000000E+00  0.00000000E+00
  0.00000000E+00  0.00000000E+00  0.00000000E+00
  0.00000000E+00  0.00000000E+00  0.00000000E+00
  0.00000000E+00  0.00000000E+00  0.00000000E+00
  0.00000000E+00  0.00000000E+00  0.00000000E+00
  0.00000000E+00  0.00000000E+00  0.00000000E+00
  0.00000000E+00  0.00000000E+00  0.00000000E+00
  0.00000000E+00  0.00000000E+00  0.00000000E+00
  0.00000000E+00  0.00000000E+00  0.00000000E+00
  0.00000000E+00  0.00000000E+00  0.00000000E+00
  0.00000000E+00  0.00000000E+00  0.00000000E+00
  0.00000000E+00  0.00000000E+00  0.00000000E+00
  0.00000000E+00  0.00000000E+00  0.00000000E+00
  0.00000000E+00  0.00000000E+00  0.00000000E+00
  0.00000000E+00  0.00000000E+00  0.00000000E+00
  0.00000000E+00  0.00000000E+00  0.00000000E+00
  0.00000000E+00  0.00000000E+00  0.00000000E+00
  0.00000000E+00  0.00000000E+00  0.00000000E+00
  0.00000000E+00  0.00000000E+00  0.00000000E+00
  0.00000000E+00  0.00000000E+00  0.00000000E+00
  0.00000000E+00  0.00000000E+00  0.00000000E+00
  0.00000000E+00  0.00000000E+00  0.00000000E+00
  0.00000000E+00  0.00000000E+00  0.00000000E+00
  0.00000000E+00  0.00000000E+00  0.00000000E+00
  0.00000000E+00  0.00000000E+00  0.00000000E+00
  0.00000000E+00  0.00000000E+00  0.00000000E+00
  0.00000000E+00  0.00000000E+00  0.00000000E+00
  0.00000000E+00  0.00000000E+00  0.00000000E+00
  0.00000000E+00  0.00000000E+00  0.00000000E+00
  0.00000000E+00  0.00000000E+00  0.00000000E+00
  0.00000000E+00  0.00000000E+00  0.00000000E+00
  0.00000000E+00  0.00000000E+00  0.00000000E+00
  0.00000000E+00  0.00000000E+00  0.00000000E+00
  0.00000000E+00  0.00000000E+00  0.00000000E+00
  0.00000000E+00  0.00000000E+00  0.00000000E+00
  0.00000000E+00  0.00000000E+00  0.00000000E+00
  0.00000000E+00  0.00000000E+00  0.00000000E+00
  0.00000000E+00  0.00000000E+00  0.00000000E+00
  0.00000000E+00  0.00000000E+00  0.00000000E+00
  0.00000000E+00  0.00000000E+00  0.00000000E+00
  0.00000000E+00  0.00000000E+00  0.00000000E+00
  0.00000000E+00  0.00000000E+00  0.00000000E+00
  0.00000000E+00  0.00000000E+00  0.00000000E+00
  0.00000000E+00  0.00000000E+00  0.00000000E+00
  0.00000000E+00  0.00000000E+00  0.00000000E+00
  0.00000000E+00  0.00000000E+00  0.00000000E+00
  0.00000000E+00  0.00000000E+00  0.00000000E+00
  0.00000000E+00  0.00000000E+00  0.00000000E+00
  0.00000000E+00  0.00000000E+00  0.00000000E+00
  0.00000000E+00  0.00000000E+00  0.00000000E+00
  0.00000000E+00  0.00000000E+00  0.00000000E+00
  0.00000000E+00  0.00000000E+00  0.00000000E+00
  0.00000000E+00  0.00000000E+00  0.00000000E+00
  0.00000000E+00  0.00000000E+00  0.00000000E+00
  0.00000000E+00  0.00000000E+00  0.00000000E+00
  0.00000000E+00  0.00000000E+00  0.00000000E+00
  0.00000000E+00  0.00000000E+00  0.00000000E+00
  0.00000000E+00  0.00000000E+00  0.00000000E+00
  0.00000000E+00  0.00000000E+00  0.00000000E+00
  0.00000000E+00  0.00000000E+00  0.00000000E+00
  0.00000000E+00  0.00000000E+00  0.00000000E+00
  0.00000000E+00  0.00000000E+00  0.00000000E+00
  0.00000000E+00  0.00000000E+00  0.00000000E+00
  0.00000000E+00  0.00000000E+00  0.00000000E+00
  0.00000000E+00  0.00000000E+00  0.00000000E+00
  0.00000000E+00  0.00000000E+00  0.00000000E+00
  0.00000000E+00  0.00000000E+00  0.00000000E+00
  0.00000000E+00  0.00000000E+00  0.00000000E+00
  0.00000000E+00  0.00000000E+00  0.00000000E+00
  0.00000000E+00  0.00000000E+00  0.00000000E+00
  0.00000000E+00  0.00000000E+00  0.00000000E+00
  0.00000000E+00  0.00000000E+00  0.00000000E+00
  0.00000000E+00  0.00000000E+00  0.00000000E+00
  0.00000000E+00  0.00000000E+00  0.00000000E+00
  0.00000000E+00  0.00000000E+00  0.00000000E+00
  0.00000000E+00  0.00000000E+00  0.00000000E+00
  0.00000000E+00  0.00000000E+00  0.00000000E+00
  0.00000000E+00  0.00000000E+00  0.00000000E+00
  0.00000000E+00  0.00000000E+00  0.00000000E+00
  0.00000000E+00  0.00000000E+00  0.00000000E+00
  0.00000000E+00  0.00000000E+00  0.00000000E+00
  0.00000000E+00  0.00000000E+00  0.00000000E+00
  0.00000000E+00  0.00000000E+00  0.00000000E+00
  0.00000000E+00  0.00000000E+00  0.00000000E+00
  0.00000000E+00  0.00000000E+00  0.00000000E+00
  0.00000000E+00  0.00000000E+00  0.00000000E+00
  0.00000000E+00  0.00000000E+00  0.00000000E+00
  0.00000000E+00  0.00000000E+00  0.00000000E+00
  0.00000000E+00  0.00000000E+00  0.00000000E+00
  0.00000000E+00  0.00000000E+00  0.00000000E+00
  0.00000000E+00  0.00000000E+00  0.00000000E+00
  0.00000000E+00  0.00000000E+00  0.00000000E+00
  0.00000000E+00  0.00000000E+00  0.00000000E+00
  0.00000000E+00  0.00000000E+00  0.00000000E+00
  0.00000000E+00  0.00000000E+00  0.00000000E+00
  0.00000000E+00  0.00000000E+00  0.00000000E+00
  0.00000000E+00  0.00000000E+00  0.00000000E+00
  0.00000000E+00  0.00000000E+00  0.00000000E+00
  0.00000000E+00  0.00000000E+00  0.00000000E+00
  0.00000000E+00  0.00000000E+00  0.00000000E+00
  0.00000000E+00  0.00000000E+00  0.00000000E+00
  0.00000000E+00  0.00000000E+00  0.00000000E+00
  0.00000000E+00  0.00000000E+00  0.00000000E+00
  0.00000000E+00  0.00000000E+00  0.00000000E+00
  0.00000000E+00  0.00000000E+00  0.00000000E+00
  0.00000000E+00  0.00000000E+00  0.00000000E+00
  0.00000000E+00  0.00000000E+00  0.00000000E+00
  0.00000000E+00  0.00000000E+00  0.00000000E+00
  0.00000000E+00  0.00000000E+00  0.00000000E+00
  0.00000000E+00  0.00000000E+00  0.00000000E+00
  0.00000000E+00  0.00000000E+00  0.00000000E+00
  0.00000000E+00  0.00000000E+00  0.00000000E+00
  0.00000000E+00  0.00000000E+00  0.00000000E+00
  0.00000000E+00  0.00000000E+00  0.00000000E+00
  0.00000000E+00  0.00000000E+00  0.00000000E+00
  0.00000000E+00  0.00000000E+00  0.00000000E+00
  0.00000000E+00  0.00000000E+00  0.00000000E+00
  0.00000000E+00  0.00000000E+00  0.00000000E+00
  0.00000000E+00  0.00000000E+00  0.00000000E+00
