Mo48 Se100                              
   1.00000000000000     
    33.0000000000000000    0.0000000000000000    0.0000000000000000
     0.0000000000000000   26.3120002747000008    0.0000000000000000
     0.0000000000000000    0.0000000000000000   18.0970000000000013
   Mo   Se
    48   100
Direct
  0.2830051311406513  0.0349942445981258  0.5000003087556911
  0.2821552838717113  0.2864538253800788  0.5000029856987764
  0.2829499210648082  0.5351675269748859  0.4999989742377086
  0.2822372420245766  0.7863801660494329  0.4999988330283449
  0.4541682407867018  0.0356925144990192  0.5000001307301990
  0.4540807871269315  0.2856073017387538  0.4999999923583366
  0.4541699353993726  0.5355459315007236  0.5000001851753839
  0.4541184707586727  0.7856052609721611  0.4999999638952738
  0.6272719086597094  0.0356007475836353  0.4999998785005509
  0.6277803871627760  0.2854909682124909  0.4999999802119525
  0.6272816967709266  0.5353754866664603  0.4999999954373263
  0.6272451431746364  0.7854995401182314  0.5000000500968024
  0.2821989131926422  0.1594036189804969  0.4999970612805836
  0.2828392364766801  0.4108767228861253  0.4999968113012064
  0.2822881798478291  0.6596253071886660  0.5000010895560407
  0.2828746511525870  0.9108845299210325  0.5000010459253910
  0.4542586599029268  0.1603693517161313  0.4999998268256834
  0.4542467329684690  0.4103295504369303  0.5000001070708877
  0.4542924345679730  0.6602892933463523  0.5000000195791077
  0.4542909137110074  0.9104106447074301  0.5000002513870530
  0.6272729602325633  0.1609849253282424  0.5000001313234526
  0.6272581383750573  0.4099158663859024  0.4999999417610751
  0.6276204379225240  0.6606986278555343  0.5000000256066229
  0.6276163647906879  0.9102188024626803  0.4999996738454908
  0.3669707192732054  0.2229695294171519  0.4999998122807159
  0.3667833341500858  0.4729476664025197  0.5000000978161416
  0.3669715717740957  0.7229335072709840  0.4999999327086577
  0.3667991324300705  0.9730225354183516  0.4999998729893285
  0.5405572286888289  0.2232327873129506  0.4999998182451524
  0.5413257907986482  0.4727095439139841  0.4999999828923826
  0.5407745319703723  0.7230317581422799  0.5000000035077941
  0.5412310975318008  0.9729033417467766  0.4999997303332645
  0.7151147961996666  0.2268301192574975  0.5000004157938807
  0.7158585165606376  0.4632522361595622  0.4999999730398817
  0.7151700399125845  0.7191353063732131  0.5000000025935922
  0.7152627147817329  0.9635776597945583  0.4999998038461528
  0.3686568068208315  0.0979872825465368  0.4999999294138705
  0.3686543237055843  0.3480185220282727  0.4999999934706745
  0.3686549617952293  0.5979463619995692  0.5000001428040871
  0.3686371655525890  0.8480390911002692  0.4999999992173427
  0.5412823720159116  0.0982953158185335  0.4999995531276539
  0.5405103227184319  0.3477749771057576  0.4999999685954290
  0.5411834983233952  0.5980990291170775  0.5000000485960718
  0.5407181733203064  0.8479802520550763  0.4999999308988031
  0.7158420128194406  0.1077665027451036  0.4999998193831697
  0.7150938370695692  0.3440021802515782  0.4999999886059557
  0.7152743981007872  0.6073100517365270  0.5000000067114185
  0.7151615979595296  0.8517991319297590  0.4999999788890052
  0.2531611688729821  0.0976748005750428  0.5900102364821580
  0.2531460276379097  0.3482278721303342  0.5901275477097250
  0.2531760047874150  0.5978148326951108  0.5900094128301306
  0.2532047479525095  0.8482368946369827  0.5900673238435777
  0.4258209246809160  0.0980137753343782  0.5931889901086108
  0.4257596670340694  0.3480252565502412  0.5932240648218432
  0.4258418971742708  0.5979840666401253  0.5931635608511681
  0.4258066345108281  0.8480322548270323  0.5931627707047097
  0.5991255398528655  0.0979278159431465  0.5927034243382668
  0.5982017206558604  0.3478424769076898  0.5922370998847361
  0.5990910085582577  0.5978656282165254  0.5925202271830889
  0.5985463550354396  0.8477544380683272  0.5922959251923748
  0.4249808163384022  0.2228812260519804  0.5922446040753599
  0.4250105216327536  0.4729041898692256  0.5921983626823759
  0.4250412981113821  0.7228758501027069  0.5922057564345728
  0.4250351225615823  0.9729366902359200  0.5921772048489565
  0.5983013852556992  0.2231130199288893  0.5923303721671365
  0.5992262774594330  0.4730425398509889  0.5927752260028374
  0.5986550701064041  0.7232156684750783  0.5923965343084857
  0.5991764327798106  0.9730958257349649  0.5926304368109460
  0.3383256827273554  0.0354304283934089  0.5933483669491713
  0.3382163294540503  0.2854375035656534  0.5929187839431961
  0.3383014314565097  0.5354041613339672  0.5933376668930211
  0.3382535543260936  0.7854278025612950  0.5929531146527144
  0.5121637118234117  0.0354760334660723  0.5921394198135304
  0.5116899946968371  0.2854139957197520  0.5927090867211685
  0.5121684803222716  0.5353676760297008  0.5921422637607144
  0.5118803612681507  0.7854151550389590  0.5925232247230384
  0.6883518446275714  0.0354409113005207  0.5870881378992485
  0.6859719955376262  0.2854429875864048  0.5956538601729000
  0.6883425692222462  0.5354642438402112  0.5871261101408906
  0.6871081375716828  0.7854779896138916  0.5907811821662536
  0.3382177978054058  0.1605407805181436  0.5929120011453177
  0.3382880564869168  0.4104819869050551  0.5933379364725891
  0.3382582444806572  0.6605170905948093  0.5929324813662148
  0.3383146336697037  0.9105072741462803  0.5933477794671727
  0.5120650863525419  0.1605379022685003  0.5925891556417255
  0.5120585629520790  0.4106191922786448  0.5925763577575723
  0.5121642204323453  0.6605263568326543  0.5925705787578914
  0.5121511263359615  0.9106343276053799  0.5925595482667914
  0.6855326010020085  0.1633190931592517  0.5949411728271333
  0.6855063184702431  0.4076026325836737  0.5949156872548235
  0.6846632758842446  0.6621139536780912  0.5968915914546955
  0.6846626206184371  0.9087492630854448  0.5969131466853863
  0.2531600119477154  0.0976856846097634  0.4099881383121315
  0.2531461478593729  0.3482301574439328  0.4098713092259162
  0.2531762860124179  0.5978139602382438  0.4099899735790923
  0.2532045618730799  0.8482362016833166  0.4099332566241354
  0.4258210080598467  0.0980138035604229  0.4068110655301538
  0.4257595901088932  0.3480252516316957  0.4067762748472244
  0.4258418626146319  0.5979840438372888  0.4068364701566788
  0.4258066263785510  0.8480322486604348  0.4068374013672240
  0.5991251831699662  0.0979284099366247  0.4072956204768093
  0.5982017169126618  0.3478424680089066  0.4077629521849273
  0.5990910105093512  0.5978656287036744  0.4074797265615108
  0.5985463234768168  0.8477543875184500  0.4077042541410247
  0.2287492072841057  0.2230218666416275  0.5000000144721107
  0.2283334906609091  0.4728943585340397  0.5000001635661396
  0.2287322261693705  0.7230356128917006  0.4999999864381016
  0.2282903604688972  0.9728786190198861  0.4999996068225804
  0.4249808530766194  0.2228811725029392  0.4077556087213074
  0.4250101246251714  0.4729050859861272  0.4078064092550929
  0.4250413054066487  0.7228758798011008  0.4077942529898736
  0.4250350408058560  0.9729340908535550  0.4078221084848843
  0.5983013272640486  0.2231130642420028  0.4076697575856720
  0.5992262759121152  0.4730425312189826  0.4072247807539978
  0.5986550850174088  0.7232156801601564  0.4076035100567583
  0.5991762063317457  0.9730955593956558  0.4073688971718165
  0.3383254878000088  0.0354312116167803  0.4066498290891061
  0.3382151392391237  0.2854382192608619  0.4070814555517930
  0.3383019540453412  0.5354037795241181  0.4066627616869980
  0.3382540886663207  0.7854277010809622  0.4070469056815035
  0.5121637676400920  0.0354760067627045  0.4078608254427646
  0.5116900068750290  0.2854139645346739  0.4072910391568773
  0.5121684552616070  0.5353676626590816  0.4078577567011001
  0.5118803548943536  0.7854151952782199  0.4074768525308369
  0.6883523078262151  0.0354409281728587  0.4129107393761495
  0.6859720072086620  0.2854430315271222  0.4043461672517065
  0.6883425703621885  0.5354642438918416  0.4128738725383925
  0.6871081228628461  0.7854779912610019  0.4092188741725385
  0.3382194113109837  0.1605411773640047  0.4070869179709484
  0.3382910661083876  0.4104839554415867  0.4066644933261444
  0.3382577488484608  0.6605168507862686  0.4070675075950264
  0.3383154327358510  0.9105083817028692  0.4066550856265163
  0.5120650504847394  0.1605379071408297  0.4074111193949025
  0.5120585312055155  0.4106191940793679  0.4074236945844176
  0.5121642209089777  0.6605263667427382  0.4074293801232411
  0.5121511524556793  0.9106343034536530  0.4074407937546735
  0.6855324389497623  0.1633193353767847  0.4050590255405959
  0.7757042638996382  0.9092496305580972  0.5000000083457801
  0.7711234522766713  0.7854888117338960  0.5000000002625576
  0.7756925497983285  0.6616186595234812  0.4999999875505840
  0.7677973724139489  0.5347690291896795  0.4999999957309900
  0.7744971370706887  0.4072042809989413  0.4999999986358262
  0.7748773490799692  0.2854394047540397  0.4999999685087945
  0.7745225632772907  0.1636807995237819  0.4999999685650257
  0.7677359650199568  0.0360910758502171  0.4999999940917573
  0.6855063166660995  0.4076026351373397  0.4050843103544289
  0.6846632760118609  0.6621139539160867  0.4031083817191397
  0.6846626329704149  0.9087492340417193  0.4030869442502189
 
  0.00000000E+00  0.00000000E+00  0.00000000E+00
  0.00000000E+00  0.00000000E+00  0.00000000E+00
  0.00000000E+00  0.00000000E+00  0.00000000E+00
  0.00000000E+00  0.00000000E+00  0.00000000E+00
  0.00000000E+00  0.00000000E+00  0.00000000E+00
  0.00000000E+00  0.00000000E+00  0.00000000E+00
  0.00000000E+00  0.00000000E+00  0.00000000E+00
  0.00000000E+00  0.00000000E+00  0.00000000E+00
  0.00000000E+00  0.00000000E+00  0.00000000E+00
  0.00000000E+00  0.00000000E+00  0.00000000E+00
  0.00000000E+00  0.00000000E+00  0.00000000E+00
  0.00000000E+00  0.00000000E+00  0.00000000E+00
  0.00000000E+00  0.00000000E+00  0.00000000E+00
  0.00000000E+00  0.00000000E+00  0.00000000E+00
  0.00000000E+00  0.00000000E+00  0.00000000E+00
  0.00000000E+00  0.00000000E+00  0.00000000E+00
  0.00000000E+00  0.00000000E+00  0.00000000E+00
  0.00000000E+00  0.00000000E+00  0.00000000E+00
  0.00000000E+00  0.00000000E+00  0.00000000E+00
  0.00000000E+00  0.00000000E+00  0.00000000E+00
  0.00000000E+00  0.00000000E+00  0.00000000E+00
  0.00000000E+00  0.00000000E+00  0.00000000E+00
  0.00000000E+00  0.00000000E+00  0.00000000E+00
  0.00000000E+00  0.00000000E+00  0.00000000E+00
  0.00000000E+00  0.00000000E+00  0.00000000E+00
  0.00000000E+00  0.00000000E+00  0.00000000E+00
  0.00000000E+00  0.00000000E+00  0.00000000E+00
  0.00000000E+00  0.00000000E+00  0.00000000E+00
  0.00000000E+00  0.00000000E+00  0.00000000E+00
  0.00000000E+00  0.00000000E+00  0.00000000E+00
  0.00000000E+00  0.00000000E+00  0.00000000E+00
  0.00000000E+00  0.00000000E+00  0.00000000E+00
  0.00000000E+00  0.00000000E+00  0.00000000E+00
  0.00000000E+00  0.00000000E+00  0.00000000E+00
  0.00000000E+00  0.00000000E+00  0.00000000E+00
  0.00000000E+00  0.00000000E+00  0.00000000E+00
  0.00000000E+00  0.00000000E+00  0.00000000E+00
  0.00000000E+00  0.00000000E+00  0.00000000E+00
  0.00000000E+00  0.00000000E+00  0.00000000E+00
  0.00000000E+00  0.00000000E+00  0.00000000E+00
  0.00000000E+00  0.00000000E+00  0.00000000E+00
  0.00000000E+00  0.00000000E+00  0.00000000E+00
  0.00000000E+00  0.00000000E+00  0.00000000E+00
  0.00000000E+00  0.00000000E+00  0.00000000E+00
  0.00000000E+00  0.00000000E+00  0.00000000E+00
  0.00000000E+00  0.00000000E+00  0.00000000E+00
  0.00000000E+00  0.00000000E+00  0.00000000E+00
  0.00000000E+00  0.00000000E+00  0.00000000E+00
  0.00000000E+00  0.00000000E+00  0.00000000E+00
  0.00000000E+00  0.00000000E+00  0.00000000E+00
  0.00000000E+00  0.00000000E+00  0.00000000E+00
  0.00000000E+00  0.00000000E+00  0.00000000E+00
  0.00000000E+00  0.00000000E+00  0.00000000E+00
  0.00000000E+00  0.00000000E+00  0.00000000E+00
  0.00000000E+00  0.00000000E+00  0.00000000E+00
  0.00000000E+00  0.00000000E+00  0.00000000E+00
  0.00000000E+00  0.00000000E+00  0.00000000E+00
  0.00000000E+00  0.00000000E+00  0.00000000E+00
  0.00000000E+00  0.00000000E+00  0.00000000E+00
  0.00000000E+00  0.00000000E+00  0.00000000E+00
  0.00000000E+00  0.00000000E+00  0.00000000E+00
  0.00000000E+00  0.00000000E+00  0.00000000E+00
  0.00000000E+00  0.00000000E+00  0.00000000E+00
  0.00000000E+00  0.00000000E+00  0.00000000E+00
  0.00000000E+00  0.00000000E+00  0.00000000E+00
  0.00000000E+00  0.00000000E+00  0.00000000E+00
  0.00000000E+00  0.00000000E+00  0.00000000E+00
  0.00000000E+00  0.00000000E+00  0.00000000E+00
  0.00000000E+00  0.00000000E+00  0.00000000E+00
  0.00000000E+00  0.00000000E+00  0.00000000E+00
  0.00000000E+00  0.00000000E+00  0.00000000E+00
  0.00000000E+00  0.00000000E+00  0.00000000E+00
  0.00000000E+00  0.00000000E+00  0.00000000E+00
  0.00000000E+00  0.00000000E+00  0.00000000E+00
  0.00000000E+00  0.00000000E+00  0.00000000E+00
  0.00000000E+00  0.00000000E+00  0.00000000E+00
  0.00000000E+00  0.00000000E+00  0.00000000E+00
  0.00000000E+00  0.00000000E+00  0.00000000E+00
  0.00000000E+00  0.00000000E+00  0.00000000E+00
  0.00000000E+00  0.00000000E+00  0.00000000E+00
  0.00000000E+00  0.00000000E+00  0.00000000E+00
  0.00000000E+00  0.00000000E+00  0.00000000E+00
  0.00000000E+00  0.00000000E+00  0.00000000E+00
  0.00000000E+00  0.00000000E+00  0.00000000E+00
  0.00000000E+00  0.00000000E+00  0.00000000E+00
  0.00000000E+00  0.00000000E+00  0.00000000E+00
  0.00000000E+00  0.00000000E+00  0.00000000E+00
  0.00000000E+00  0.00000000E+00  0.00000000E+00
  0.00000000E+00  0.00000000E+00  0.00000000E+00
  0.00000000E+00  0.00000000E+00  0.00000000E+00
  0.00000000E+00  0.00000000E+00  0.00000000E+00
  0.00000000E+00  0.00000000E+00  0.00000000E+00
  0.00000000E+00  0.00000000E+00  0.00000000E+00
  0.00000000E+00  0.00000000E+00  0.00000000E+00
  0.00000000E+00  0.00000000E+00  0.00000000E+00
  0.00000000E+00  0.00000000E+00  0.00000000E+00
  0.00000000E+00  0.00000000E+00  0.00000000E+00
  0.00000000E+00  0.00000000E+00  0.00000000E+00
  0.00000000E+00  0.00000000E+00  0.00000000E+00
  0.00000000E+00  0.00000000E+00  0.00000000E+00
  0.00000000E+00  0.00000000E+00  0.00000000E+00
  0.00000000E+00  0.00000000E+00  0.00000000E+00
  0.00000000E+00  0.00000000E+00  0.00000000E+00
  0.00000000E+00  0.00000000E+00  0.00000000E+00
  0.00000000E+00  0.00000000E+00  0.00000000E+00
  0.00000000E+00  0.00000000E+00  0.00000000E+00
  0.00000000E+00  0.00000000E+00  0.00000000E+00
  0.00000000E+00  0.00000000E+00  0.00000000E+00
  0.00000000E+00  0.00000000E+00  0.00000000E+00
  0.00000000E+00  0.00000000E+00  0.00000000E+00
  0.00000000E+00  0.00000000E+00  0.00000000E+00
  0.00000000E+00  0.00000000E+00  0.00000000E+00
  0.00000000E+00  0.00000000E+00  0.00000000E+00
  0.00000000E+00  0.00000000E+00  0.00000000E+00
  0.00000000E+00  0.00000000E+00  0.00000000E+00
  0.00000000E+00  0.00000000E+00  0.00000000E+00
  0.00000000E+00  0.00000000E+00  0.00000000E+00
  0.00000000E+00  0.00000000E+00  0.00000000E+00
  0.00000000E+00  0.00000000E+00  0.00000000E+00
  0.00000000E+00  0.00000000E+00  0.00000000E+00
  0.00000000E+00  0.00000000E+00  0.00000000E+00
  0.00000000E+00  0.00000000E+00  0.00000000E+00
  0.00000000E+00  0.00000000E+00  0.00000000E+00
  0.00000000E+00  0.00000000E+00  0.00000000E+00
  0.00000000E+00  0.00000000E+00  0.00000000E+00
  0.00000000E+00  0.00000000E+00  0.00000000E+00
  0.00000000E+00  0.00000000E+00  0.00000000E+00
  0.00000000E+00  0.00000000E+00  0.00000000E+00
  0.00000000E+00  0.00000000E+00  0.00000000E+00
  0.00000000E+00  0.00000000E+00  0.00000000E+00
  0.00000000E+00  0.00000000E+00  0.00000000E+00
  0.00000000E+00  0.00000000E+00  0.00000000E+00
  0.00000000E+00  0.00000000E+00  0.00000000E+00
  0.00000000E+00  0.00000000E+00  0.00000000E+00
  0.00000000E+00  0.00000000E+00  0.00000000E+00
  0.00000000E+00  0.00000000E+00  0.00000000E+00
  0.00000000E+00  0.00000000E+00  0.00000000E+00
  0.00000000E+00  0.00000000E+00  0.00000000E+00
  0.00000000E+00  0.00000000E+00  0.00000000E+00
  0.00000000E+00  0.00000000E+00  0.00000000E+00
  0.00000000E+00  0.00000000E+00  0.00000000E+00
  0.00000000E+00  0.00000000E+00  0.00000000E+00
  0.00000000E+00  0.00000000E+00  0.00000000E+00
  0.00000000E+00  0.00000000E+00  0.00000000E+00
  0.00000000E+00  0.00000000E+00  0.00000000E+00
  0.00000000E+00  0.00000000E+00  0.00000000E+00
  0.00000000E+00  0.00000000E+00  0.00000000E+00
  0.00000000E+00  0.00000000E+00  0.00000000E+00
