W36 S72                                 
   1.00000000000000     
    18.9192000000000000    0.0000000000000000    0.0000000000000012
    -9.4595999999999947   16.3845078192785536    0.0000000000000012
     0.0000000000000000    0.0000000000000000   24.6460000000000008
   W    S 
    36    70
Direct
  0.1226566160162577  0.0484439771714520  0.5001900495492322
  0.1252369424377946  0.2153962396046936  0.5004558556670275
  0.1226566375536251  0.3797681917712836  0.5001900466945415
  0.1206310601219016  0.5459195574506950  0.5006923478825840
  0.1200834672190254  0.7128195020894452  0.5010920320048413
  0.1206310485390247  0.8802670368980685  0.5006923490276662
  0.2882439803900212  0.0485894944459204  0.4975481139413631
  0.2945356607264316  0.2177156023022135  0.4930843161219656
  0.2945356774705417  0.3823756094326995  0.4930843119530266
  0.2882440061290765  0.5452100399783362  0.4975481080084450
  0.2871683375176275  0.7126203522457288  0.5003391305392739
  0.2871683201350450  0.8801035120209804  0.5003391322937816
  0.4536297193889496  0.0472564315558230  0.5000337369190078
  0.4507021801869016  0.2151303613872741  0.4945280569209913
  0.4486654634817810  0.3771105047008447  0.4896828720030371
  0.4507021975315482  0.5411273747604000  0.4945280537541947
  0.4536297415550834  0.7119288370551473  0.5000337260211865
  0.4536315640992257  0.8795935525746827  0.5013383579180797
  0.6204091899418174  0.0465132463571365  0.5022936406512315
  0.6188453559264673  0.2129844854659453  0.5007498283042437
  0.6151546987331926  0.3777653326183099  0.4980820500618108
  0.6151546998621384  0.5429449111816496  0.4980820479259336
  0.6188453885697029  0.7114164300214298  0.5007498250343048
  0.6204091969414094  0.8794514840987731  0.5022936397582143
  0.7877537416576530  0.0466546417867377  0.5033024704356563
  0.7870567913410511  0.2131672483379674  0.5028143029306307
  0.7853628333557836  0.3791107625538217  0.5016604718848043
  0.7844316356856211  0.5449935933768444  0.5009791620507826
  0.7853628444987848  0.7118076291572990  0.5016604817958736
  0.7870568002252867  0.8794450872579418  0.5028143123050270
  0.9554664103996089  0.0474267633175671  0.5027822489382743
  0.9554664151968595  0.2135952001538328  0.5027822439631677
  0.9540818559804833  0.3796266818884462  0.5021814730373890
  0.9527981891807187  0.5458182166607415  0.5017222000207795
  0.9527981829275376  0.7125355142041272  0.5017222044255689
  0.9540818494714642  0.8800107129092893  0.5021814863564487
  0.0698886488697639  0.1050822188571914  0.5653980740550182
  0.0698886538962427  0.2703619846927552  0.5653980701773733
  0.0673793734559638  0.4353606924214546  0.5651240411699376
  0.0651077616444198  0.6015469499397454  0.5652414116223952
  0.0651077696627951  0.7691163498258859  0.5652414128149772
  0.0673793885261418  0.9375742240195066  0.5651240452877389
  0.2395585653395500  0.1105231089683727  0.5608279219150134
  0.2492457650178679  0.2774006566619747  0.5599715589723502
  0.2395585839851364  0.4345910125679637  0.5608279210435896
  0.2332577876501460  0.6002550717390136  0.5634949244039902
  0.2319579199163542  0.7687567231278152  0.5646530885745733
  0.2332577698716634  0.9385582461909934  0.5634949263570093
  0.3978907840840975  0.1076419626761336  0.5614384709197893
  0.3978908026171624  0.5958043761111824  0.5614384662216736
  0.3977913565530287  0.7669491021634229  0.5647403355816110
  0.3977913148810117  0.9363977647886230  0.5647403420747210
  0.5632753940034760  0.1025126195078698  0.5653083808615946
  0.5570302581456872  0.2682972674936934  0.5620052488634357
  0.5482396019281737  0.4268975735718357  0.5596393117527612
  0.5570302776235465  0.5942885460698335  0.5620052452738875
  0.5632753994613253  0.7663183133370239  0.5653083759107247
  0.5639934725075051  0.9347745062170461  0.5662146408290312
  0.7312076665937823  0.1021088847848759  0.5670631761815841
  0.7291539107628466  0.2685187550443047  0.5659494894994239
  0.7253812469467960  0.4329664148027703  0.5641720983396254
  0.7253812466169123  0.5979703754803012  0.5641721025890476
  0.7291538966195148  0.7661906967967411  0.5659495032602493
  0.7312076638268081  0.9346543251929091  0.5670631793618739
  0.8999947556727577  0.1027751587041266  0.5672323968205149
  0.8991758565116683  0.2691460761047111  0.5667774291126975
  0.8970304249218444  0.4348517114328914  0.5659364261126782
  0.8958208780653152  0.6006882049047064  0.5655049292211700
  0.8970304228877737  0.7677342511618406  0.5659364414876222
  0.8991758666624392  0.9355853352670778  0.5667774413113520
  0.0652100564054621  0.1029962583551125  0.4374688090124010
  0.0652100703035998  0.2677693501681802  0.4374688103885163
  0.0642169060331739  0.4343071692803093  0.4370890786184134
  0.0637191954157075  0.6012655934263833  0.4372087229262718
  0.0637191727758264  0.7680091285211148  0.4372087259180972
  0.0642168716171483  0.9354652606120126  0.4370890816008526
  0.2308215454631934  0.1021188003447406  0.4329076692902305
  0.2316811059893027  0.2686183236796396  0.4316404522262332
  0.2308215674479541  0.4342582973875082  0.4329076660846098
  0.2307467302785753  0.6020728161007796  0.4355624620483312
  0.2309562550647684  0.7682558920955032  0.4365982001870492
  0.2307467048258189  0.9342294394208537  0.4355624660996682
  0.3996305373742999  0.1018925059166875  0.4332100219175103
  0.3998844335398033  0.2686394930116904  0.4260431591178886
  0.3998844561084525  0.4368004946910133  0.4260431547074006
  0.3996305722876912  0.6032935844896770  0.4332100142183535
  0.3986923000805547  0.7691434041563383  0.4365470875704602
  0.3986922813021607  0.9351044227255088  0.4365470927179018
  0.5658456518992878  0.1017437886649262  0.4370647836391299
  0.5645265692771133  0.2671145401407173  0.4337929992082437
  0.5634374535315487  0.4344964984152213  0.4308238187476832
  0.5645265918622471  0.6029675884584265  0.4337929973745958
  0.5658457010246494  0.7696574238880061  0.4370647740214935
  0.5657242791209782  0.9356399078674826  0.4379940257753532
  0.7323808194344110  0.1020176020014958  0.4388459291491955
  0.7316045039323740  0.2680003240457225  0.4378132204014094
  0.7304857177032744  0.4343847985555556  0.4365447015950892
  0.7304857334518928  0.6016564850096273  0.4365447051353541
  0.7316045451479383  0.7691597502871588  0.4378132214896482
  0.7323808406968126  0.9359187706532879  0.4388459324156528
  0.8988564111440382  0.1022059805587219  0.4390456095161426
  0.8984408362190877  0.2680203242106458  0.4387012038509539
  0.8974265137711939  0.4343898622271425  0.4379665487951527
  0.8969846262489796  0.6012700860632307  0.4375802592368530
  0.8974261026233989  0.7685926881216432  0.4379666260441439
  0.8984408457163298  0.9359760638595063  0.4387012123420106
 
  0.00000000E+00  0.00000000E+00  0.00000000E+00
  0.00000000E+00  0.00000000E+00  0.00000000E+00
  0.00000000E+00  0.00000000E+00  0.00000000E+00
  0.00000000E+00  0.00000000E+00  0.00000000E+00
  0.00000000E+00  0.00000000E+00  0.00000000E+00
  0.00000000E+00  0.00000000E+00  0.00000000E+00
  0.00000000E+00  0.00000000E+00  0.00000000E+00
  0.00000000E+00  0.00000000E+00  0.00000000E+00
  0.00000000E+00  0.00000000E+00  0.00000000E+00
  0.00000000E+00  0.00000000E+00  0.00000000E+00
  0.00000000E+00  0.00000000E+00  0.00000000E+00
  0.00000000E+00  0.00000000E+00  0.00000000E+00
  0.00000000E+00  0.00000000E+00  0.00000000E+00
  0.00000000E+00  0.00000000E+00  0.00000000E+00
  0.00000000E+00  0.00000000E+00  0.00000000E+00
  0.00000000E+00  0.00000000E+00  0.00000000E+00
  0.00000000E+00  0.00000000E+00  0.00000000E+00
  0.00000000E+00  0.00000000E+00  0.00000000E+00
  0.00000000E+00  0.00000000E+00  0.00000000E+00
  0.00000000E+00  0.00000000E+00  0.00000000E+00
  0.00000000E+00  0.00000000E+00  0.00000000E+00
  0.00000000E+00  0.00000000E+00  0.00000000E+00
  0.00000000E+00  0.00000000E+00  0.00000000E+00
  0.00000000E+00  0.00000000E+00  0.00000000E+00
  0.00000000E+00  0.00000000E+00  0.00000000E+00
  0.00000000E+00  0.00000000E+00  0.00000000E+00
  0.00000000E+00  0.00000000E+00  0.00000000E+00
  0.00000000E+00  0.00000000E+00  0.00000000E+00
  0.00000000E+00  0.00000000E+00  0.00000000E+00
  0.00000000E+00  0.00000000E+00  0.00000000E+00
  0.00000000E+00  0.00000000E+00  0.00000000E+00
  0.00000000E+00  0.00000000E+00  0.00000000E+00
  0.00000000E+00  0.00000000E+00  0.00000000E+00
  0.00000000E+00  0.00000000E+00  0.00000000E+00
  0.00000000E+00  0.00000000E+00  0.00000000E+00
  0.00000000E+00  0.00000000E+00  0.00000000E+00
  0.00000000E+00  0.00000000E+00  0.00000000E+00
  0.00000000E+00  0.00000000E+00  0.00000000E+00
  0.00000000E+00  0.00000000E+00  0.00000000E+00
  0.00000000E+00  0.00000000E+00  0.00000000E+00
  0.00000000E+00  0.00000000E+00  0.00000000E+00
  0.00000000E+00  0.00000000E+00  0.00000000E+00
  0.00000000E+00  0.00000000E+00  0.00000000E+00
  0.00000000E+00  0.00000000E+00  0.00000000E+00
  0.00000000E+00  0.00000000E+00  0.00000000E+00
  0.00000000E+00  0.00000000E+00  0.00000000E+00
  0.00000000E+00  0.00000000E+00  0.00000000E+00
  0.00000000E+00  0.00000000E+00  0.00000000E+00
  0.00000000E+00  0.00000000E+00  0.00000000E+00
  0.00000000E+00  0.00000000E+00  0.00000000E+00
  0.00000000E+00  0.00000000E+00  0.00000000E+00
  0.00000000E+00  0.00000000E+00  0.00000000E+00
  0.00000000E+00  0.00000000E+00  0.00000000E+00
  0.00000000E+00  0.00000000E+00  0.00000000E+00
  0.00000000E+00  0.00000000E+00  0.00000000E+00
  0.00000000E+00  0.00000000E+00  0.00000000E+00
  0.00000000E+00  0.00000000E+00  0.00000000E+00
  0.00000000E+00  0.00000000E+00  0.00000000E+00
  0.00000000E+00  0.00000000E+00  0.00000000E+00
  0.00000000E+00  0.00000000E+00  0.00000000E+00
  0.00000000E+00  0.00000000E+00  0.00000000E+00
  0.00000000E+00  0.00000000E+00  0.00000000E+00
  0.00000000E+00  0.00000000E+00  0.00000000E+00
  0.00000000E+00  0.00000000E+00  0.00000000E+00
  0.00000000E+00  0.00000000E+00  0.00000000E+00
  0.00000000E+00  0.00000000E+00  0.00000000E+00
  0.00000000E+00  0.00000000E+00  0.00000000E+00
  0.00000000E+00  0.00000000E+00  0.00000000E+00
  0.00000000E+00  0.00000000E+00  0.00000000E+00
  0.00000000E+00  0.00000000E+00  0.00000000E+00
  0.00000000E+00  0.00000000E+00  0.00000000E+00
  0.00000000E+00  0.00000000E+00  0.00000000E+00
  0.00000000E+00  0.00000000E+00  0.00000000E+00
  0.00000000E+00  0.00000000E+00  0.00000000E+00
  0.00000000E+00  0.00000000E+00  0.00000000E+00
  0.00000000E+00  0.00000000E+00  0.00000000E+00
  0.00000000E+00  0.00000000E+00  0.00000000E+00
  0.00000000E+00  0.00000000E+00  0.00000000E+00
  0.00000000E+00  0.00000000E+00  0.00000000E+00
  0.00000000E+00  0.00000000E+00  0.00000000E+00
  0.00000000E+00  0.00000000E+00  0.00000000E+00
  0.00000000E+00  0.00000000E+00  0.00000000E+00
  0.00000000E+00  0.00000000E+00  0.00000000E+00
  0.00000000E+00  0.00000000E+00  0.00000000E+00
  0.00000000E+00  0.00000000E+00  0.00000000E+00
  0.00000000E+00  0.00000000E+00  0.00000000E+00
  0.00000000E+00  0.00000000E+00  0.00000000E+00
  0.00000000E+00  0.00000000E+00  0.00000000E+00
  0.00000000E+00  0.00000000E+00  0.00000000E+00
  0.00000000E+00  0.00000000E+00  0.00000000E+00
  0.00000000E+00  0.00000000E+00  0.00000000E+00
  0.00000000E+00  0.00000000E+00  0.00000000E+00
  0.00000000E+00  0.00000000E+00  0.00000000E+00
  0.00000000E+00  0.00000000E+00  0.00000000E+00
  0.00000000E+00  0.00000000E+00  0.00000000E+00
  0.00000000E+00  0.00000000E+00  0.00000000E+00
  0.00000000E+00  0.00000000E+00  0.00000000E+00
  0.00000000E+00  0.00000000E+00  0.00000000E+00
  0.00000000E+00  0.00000000E+00  0.00000000E+00
  0.00000000E+00  0.00000000E+00  0.00000000E+00
  0.00000000E+00  0.00000000E+00  0.00000000E+00
  0.00000000E+00  0.00000000E+00  0.00000000E+00
  0.00000000E+00  0.00000000E+00  0.00000000E+00
  0.00000000E+00  0.00000000E+00  0.00000000E+00
  0.00000000E+00  0.00000000E+00  0.00000000E+00
  0.00000000E+00  0.00000000E+00  0.00000000E+00
