W36 S72                                 
   1.00000000000000     
    18.9192000000000000    0.0000000000000000    0.0000000000000012
    -9.4595999999999947   16.3845078192785536    0.0000000000000012
     0.0000000000000000    0.0000000000000000   24.6460000000000008
   W    S 
    36    70
Direct
  0.1203703686087891  0.0462962907329612  0.4999999950101355
  0.1203703798311437  0.2129629665848469  0.4999999976105585
  0.1203703757189558  0.3796296331492997  0.4999999963250872
  0.1203703798854505  0.5462963036336674  0.4999999975467944
  0.1203703665242415  0.7129629529996748  0.4999999981657481
  0.1203703717007940  0.8796296357960216  0.4999999986099510
  0.2870370348618039  0.0462962827693758  0.5000000007057679
  0.2870370385017438  0.2129629728417726  0.4999999981158467
  0.2870370290265285  0.3796296211915404  0.5000000000550315
  0.2870370277277914  0.5462962963016551  0.4999999989963158
  0.2870370328903107  0.7129629514765057  0.5000000005763710
  0.2870370369806210  0.8796296361425675  0.5000000039817536
  0.4537037012412455  0.0462962911991553  0.5000000031602738
  0.4537037109607311  0.2129629699457780  0.5000000003014478
  0.4537036985546052  0.3796296210811292  0.4999999984999661
  0.4537037120669041  0.5462962991983815  0.5000000004259419
  0.4537037082702540  0.7129629666653940  0.4999999995610764
  0.4537037089267670  0.8796296331203735  0.5000000042458197
  0.6203703697891640  0.0462962964398983  0.5000000037604906
  0.6203703748447751  0.2129629719190689  0.5000000018395099
  0.6203703727742962  0.3796296183117462  0.4999999971929299
  0.6203703748233664  0.5462963039335236  0.4999999973379943
  0.6203703668018434  0.7129629598868092  0.4999999989287147
  0.6203703649763526  0.8796296251435436  0.4999999999921485
  0.7870370437739922  0.0462963019604459  0.4999999993652295
  0.7870370401410440  0.2129629662906751  0.5000000012627410
  0.7870370294241127  0.3796296191814719  0.4999999987564934
  0.7870370391383332  0.5462963015148858  0.4999999963250090
  0.7870370373188820  0.7129629588612545  0.4999999991099031
  0.7870370372376243  0.8796296260817442  0.4999999999771774
  0.9537036999822419  0.0462963008301713  0.4999999981131964
  0.9537036953013001  0.2129629583402206  0.4999999987706829
  0.9537036982565823  0.3796296215673465  0.4999999971747400
  0.9537037093190364  0.5462963042268854  0.5000000009650023
  0.9537036999144561  0.7129629559755557  0.5000000029895375
  0.9537037096766028  0.8796296296135395  0.5000000001074625
  0.0648148101471335  0.1018518569942941  0.5641796335662406
  0.0648148130466879  0.2685185201351317  0.5641796535357955
  0.0648148090914447  0.4351851814268883  0.5641796438859430
  0.0648148087135709  0.6018518458285982  0.5641796271188753
  0.0648148126469863  0.7685185077646395  0.5641796262734715
  0.0648148139965130  0.9351851912726943  0.5641796067553528
  0.2314814813640140  0.1018518554640480  0.5641796392931298
  0.2314814750224130  0.2685185147947990  0.5641796056816659
  0.2314814650448866  0.4351851746232569  0.5641796016797329
  0.2314814702282249  0.6018518505443637  0.5641796034678634
  0.2314814780488987  0.7685185131944721  0.5641796236888794
  0.2314814906541969  0.9351851912894489  0.5641795913533443
  0.3981481589567721  0.1018518567669346  0.5641796294569161
  0.3981481524661206  0.6018518580029308  0.5641796259700200
  0.3981481518287993  0.7685185237660050  0.5641796263739849
  0.3981481580820017  0.9351851926008621  0.5641796186033687
  0.5648148122762180  0.1018518526442804  0.5641796227598377
  0.5648148200614997  0.2685185268024171  0.5641796197107638
  0.5648148120536334  0.4351851694406506  0.5641796588742167
  0.5648148151542074  0.6018518514847742  0.5641796044423160
  0.5648148145332215  0.7685185268041081  0.5641796153895058
  0.5648148134440021  0.9351851835883807  0.5641796171219866
  0.7314814813160524  0.1018518547687748  0.5641796014461136
  0.7314814828423692  0.2685185268834971  0.5641796069433269
  0.7314814712548952  0.4351851676702410  0.5641796298727400
  0.7314814785794042  0.6018518447125487  0.5641795985651470
  0.7314814828907004  0.7685185287231917  0.5641796164956645
  0.7314814790556241  0.9351851850174739  0.5641796371306427
  0.8981481530295312  0.1018518577327399  0.5641796030620299
  0.8981481530233282  0.2685185245985124  0.5641796189619797
  0.8981481465292589  0.4351851810172676  0.5641796388955314
  0.8981481515163878  0.6018518430104365  0.5641796162634591
  0.8981481509283071  0.7685185174852833  0.5641796152805085
  0.8981481432151739  0.9351851920260543  0.5641796408861239
  0.0648148099250818  0.1018518572004865  0.4358203760307262
  0.0648148115574685  0.2685185207954675  0.4358203544266601
  0.0648148086675491  0.4351851789214578  0.4358203732527599
  0.0648148098356032  0.6018518459320958  0.4358203805178817
  0.0648148125074925  0.7685185092189712  0.4358203748427769
  0.0648148144253042  0.9351851920707333  0.4358204053091299
  0.2314814804299772  0.1018518536773314  0.4358203702064927
  0.2314814742022264  0.2685185143295143  0.4358203973905077
  0.2314814653327559  0.4351851760639605  0.4358203978585351
  0.2314814719089213  0.6018518505952244  0.4358203987573148
  0.2314814769868576  0.7685185122582752  0.4358203767213809
  0.2314814891337278  0.9351851905817554  0.4358203995097085
  0.3981481603063202  0.1018518567331839  0.4358203675533048
  0.3981481570661956  0.2685185246173276  0.4358203911920029
  0.3981481524062360  0.4351851787472967  0.4358203729150247
  0.3981481530271083  0.6018518589032666  0.4358203710505961
  0.3981481532385089  0.7685185256515723  0.4358203681794208
  0.3981481604523793  0.9351851924298629  0.4358203614931355
  0.5648148144181064  0.1018518539915689  0.4358203673014316
  0.5648148214108204  0.2685185282988840  0.4358203821767859
  0.5648148138360867  0.4351851709730852  0.4358203489790782
  0.5648148178201211  0.6018518531373758  0.4358203964417484
  0.5648148143615686  0.7685185276212891  0.4358203907400835
  0.5648148129148041  0.9351851853166337  0.4358203691290967
  0.7314814816416870  0.1018518547756813  0.4358203918170247
  0.7314814838450303  0.2685185293165731  0.4358203868808914
  0.7314814727666601  0.4351851702760783  0.4358203735485517
  0.7314814796514426  0.6018518430032103  0.4358204079932690
  0.7314814821147877  0.7685185274091424  0.4358203825609479
  0.7314814793224826  0.9351851844966177  0.4358203670757135
  0.8981481520177894  0.1018518563624937  0.4358203962438409
  0.8981481547384575  0.2685185245584307  0.4358203814673942
  0.8981481463701044  0.4351851812727361  0.4358203635182036
  0.8981481483674116  0.6018518419571350  0.4358203796050333
  0.8981481510326503  0.7685185177594676  0.4358203774491543
  0.8981481463891257  0.9351851937886480  0.4358203556648164
 
  0.00000000E+00  0.00000000E+00  0.00000000E+00
  0.00000000E+00  0.00000000E+00  0.00000000E+00
  0.00000000E+00  0.00000000E+00  0.00000000E+00
  0.00000000E+00  0.00000000E+00  0.00000000E+00
  0.00000000E+00  0.00000000E+00  0.00000000E+00
  0.00000000E+00  0.00000000E+00  0.00000000E+00
  0.00000000E+00  0.00000000E+00  0.00000000E+00
  0.00000000E+00  0.00000000E+00  0.00000000E+00
  0.00000000E+00  0.00000000E+00  0.00000000E+00
  0.00000000E+00  0.00000000E+00  0.00000000E+00
  0.00000000E+00  0.00000000E+00  0.00000000E+00
  0.00000000E+00  0.00000000E+00  0.00000000E+00
  0.00000000E+00  0.00000000E+00  0.00000000E+00
  0.00000000E+00  0.00000000E+00  0.00000000E+00
  0.00000000E+00  0.00000000E+00  0.00000000E+00
  0.00000000E+00  0.00000000E+00  0.00000000E+00
  0.00000000E+00  0.00000000E+00  0.00000000E+00
  0.00000000E+00  0.00000000E+00  0.00000000E+00
  0.00000000E+00  0.00000000E+00  0.00000000E+00
  0.00000000E+00  0.00000000E+00  0.00000000E+00
  0.00000000E+00  0.00000000E+00  0.00000000E+00
  0.00000000E+00  0.00000000E+00  0.00000000E+00
  0.00000000E+00  0.00000000E+00  0.00000000E+00
  0.00000000E+00  0.00000000E+00  0.00000000E+00
  0.00000000E+00  0.00000000E+00  0.00000000E+00
  0.00000000E+00  0.00000000E+00  0.00000000E+00
  0.00000000E+00  0.00000000E+00  0.00000000E+00
  0.00000000E+00  0.00000000E+00  0.00000000E+00
  0.00000000E+00  0.00000000E+00  0.00000000E+00
  0.00000000E+00  0.00000000E+00  0.00000000E+00
  0.00000000E+00  0.00000000E+00  0.00000000E+00
  0.00000000E+00  0.00000000E+00  0.00000000E+00
  0.00000000E+00  0.00000000E+00  0.00000000E+00
  0.00000000E+00  0.00000000E+00  0.00000000E+00
  0.00000000E+00  0.00000000E+00  0.00000000E+00
  0.00000000E+00  0.00000000E+00  0.00000000E+00
  0.00000000E+00  0.00000000E+00  0.00000000E+00
  0.00000000E+00  0.00000000E+00  0.00000000E+00
  0.00000000E+00  0.00000000E+00  0.00000000E+00
  0.00000000E+00  0.00000000E+00  0.00000000E+00
  0.00000000E+00  0.00000000E+00  0.00000000E+00
  0.00000000E+00  0.00000000E+00  0.00000000E+00
  0.00000000E+00  0.00000000E+00  0.00000000E+00
  0.00000000E+00  0.00000000E+00  0.00000000E+00
  0.00000000E+00  0.00000000E+00  0.00000000E+00
  0.00000000E+00  0.00000000E+00  0.00000000E+00
  0.00000000E+00  0.00000000E+00  0.00000000E+00
  0.00000000E+00  0.00000000E+00  0.00000000E+00
  0.00000000E+00  0.00000000E+00  0.00000000E+00
  0.00000000E+00  0.00000000E+00  0.00000000E+00
  0.00000000E+00  0.00000000E+00  0.00000000E+00
  0.00000000E+00  0.00000000E+00  0.00000000E+00
  0.00000000E+00  0.00000000E+00  0.00000000E+00
  0.00000000E+00  0.00000000E+00  0.00000000E+00
  0.00000000E+00  0.00000000E+00  0.00000000E+00
  0.00000000E+00  0.00000000E+00  0.00000000E+00
  0.00000000E+00  0.00000000E+00  0.00000000E+00
  0.00000000E+00  0.00000000E+00  0.00000000E+00
  0.00000000E+00  0.00000000E+00  0.00000000E+00
  0.00000000E+00  0.00000000E+00  0.00000000E+00
  0.00000000E+00  0.00000000E+00  0.00000000E+00
  0.00000000E+00  0.00000000E+00  0.00000000E+00
  0.00000000E+00  0.00000000E+00  0.00000000E+00
  0.00000000E+00  0.00000000E+00  0.00000000E+00
  0.00000000E+00  0.00000000E+00  0.00000000E+00
  0.00000000E+00  0.00000000E+00  0.00000000E+00
  0.00000000E+00  0.00000000E+00  0.00000000E+00
  0.00000000E+00  0.00000000E+00  0.00000000E+00
  0.00000000E+00  0.00000000E+00  0.00000000E+00
  0.00000000E+00  0.00000000E+00  0.00000000E+00
  0.00000000E+00  0.00000000E+00  0.00000000E+00
  0.00000000E+00  0.00000000E+00  0.00000000E+00
  0.00000000E+00  0.00000000E+00  0.00000000E+00
  0.00000000E+00  0.00000000E+00  0.00000000E+00
  0.00000000E+00  0.00000000E+00  0.00000000E+00
  0.00000000E+00  0.00000000E+00  0.00000000E+00
  0.00000000E+00  0.00000000E+00  0.00000000E+00
  0.00000000E+00  0.00000000E+00  0.00000000E+00
  0.00000000E+00  0.00000000E+00  0.00000000E+00
  0.00000000E+00  0.00000000E+00  0.00000000E+00
  0.00000000E+00  0.00000000E+00  0.00000000E+00
  0.00000000E+00  0.00000000E+00  0.00000000E+00
  0.00000000E+00  0.00000000E+00  0.00000000E+00
  0.00000000E+00  0.00000000E+00  0.00000000E+00
  0.00000000E+00  0.00000000E+00  0.00000000E+00
  0.00000000E+00  0.00000000E+00  0.00000000E+00
  0.00000000E+00  0.00000000E+00  0.00000000E+00
  0.00000000E+00  0.00000000E+00  0.00000000E+00
  0.00000000E+00  0.00000000E+00  0.00000000E+00
  0.00000000E+00  0.00000000E+00  0.00000000E+00
  0.00000000E+00  0.00000000E+00  0.00000000E+00
  0.00000000E+00  0.00000000E+00  0.00000000E+00
  0.00000000E+00  0.00000000E+00  0.00000000E+00
  0.00000000E+00  0.00000000E+00  0.00000000E+00
  0.00000000E+00  0.00000000E+00  0.00000000E+00
  0.00000000E+00  0.00000000E+00  0.00000000E+00
  0.00000000E+00  0.00000000E+00  0.00000000E+00
  0.00000000E+00  0.00000000E+00  0.00000000E+00
  0.00000000E+00  0.00000000E+00  0.00000000E+00
  0.00000000E+00  0.00000000E+00  0.00000000E+00
  0.00000000E+00  0.00000000E+00  0.00000000E+00
  0.00000000E+00  0.00000000E+00  0.00000000E+00
  0.00000000E+00  0.00000000E+00  0.00000000E+00
  0.00000000E+00  0.00000000E+00  0.00000000E+00
  0.00000000E+00  0.00000000E+00  0.00000000E+00
  0.00000000E+00  0.00000000E+00  0.00000000E+00
  0.00000000E+00  0.00000000E+00  0.00000000E+00
  0.00000000E+00  0.00000000E+00  0.00000000E+00
