Mo48 H4 Se98 C1 O1                      
   1.00000000000000     
    33.0000000000000000    0.0000000000000000    0.0000000000000000
     0.0000000000000000   26.3120002699999986    0.0000000000000000
     0.0000000000000000    0.0000000000000000   18.0970000000000013
   Mo   Se   O    C    H 
    48    98     1     1     4
Direct
  0.2812001619274758  0.0427330169116557  0.5000269364078573
  0.2848001769827673  0.2774681641544864  0.4963073353615058
  0.2853804443184444  0.5260753702804587  0.5003483410275529
  0.2880820565073662  0.7787125942198208  0.5006562894320931
  0.4542102055559428  0.0365162385646272  0.5002673199707505
  0.4537028067913486  0.2859506283652434  0.4986697214080145
  0.4533557333612421  0.5355855069898657  0.4985792780271702
  0.4544037368227857  0.7858985299518603  0.5005508050563019
  0.6267780797394040  0.0371600409128992  0.5006848571308513
  0.6262923106169231  0.2860389556607026  0.5002208177029652
  0.6262716195022103  0.5346387124287070  0.5000114378852312
  0.6265714657320126  0.7857787042583556  0.5004628402976397
  0.2869364333447417  0.1687698397231250  0.4983227962683803
  0.2881727406915876  0.4137752346203384  0.4890262917151444
  0.2863687265735612  0.6745763432192944  0.5001011445246932
  0.2823653360336104  0.9102948155460083  0.5004826450394705
  0.4542713289036594  0.1609886236763458  0.4994437777810144
  0.4535606126345990  0.4106551247529401  0.4978145990312978
  0.4535230400896773  0.6604864691237795  0.5000505095117527
  0.4543978939966658  0.9111688177670895  0.5005530539831764
  0.6266159742478319  0.1622813779966314  0.5004895626032319
  0.6262182583748968  0.4096950912596625  0.4999755679208049
  0.6267817385617973  0.6600612574929665  0.5002465093259468
  0.6271517843616400  0.9115917253885395  0.5006841788379933
  0.3680674366158787  0.2234616460337979  0.4978478586838656
  0.3672430258872800  0.4726535352527816  0.4953733603973502
  0.3685474767114101  0.7237514617579066  0.5005919555028403
  0.3668142050492157  0.9737396266742468  0.5003832125046376
  0.5398809518892175  0.2238538065165787  0.4997780147469886
  0.5403394178529454  0.4726766753839753  0.4991471042044969
  0.5405263792476205  0.7229355060819279  0.5003001660400854
  0.5408500832796688  0.9738740773585890  0.5005469979035697
  0.7138486083066289  0.2277852379488863  0.5009195054225991
  0.7145346606854923  0.4621386625112273  0.5004953565489483
  0.7137892339493364  0.7145661703013727  0.5005545051890375
  0.7140872853640144  0.9660727736207282  0.5009953635493355
  0.3688408139581296  0.0992397386385393  0.4997699370697477
  0.3674839673652172  0.3482974545224375  0.4968995052916794
  0.3653869805825539  0.5968592860296433  0.5002047969135343
  0.3686867148036109  0.8483907025816970  0.5007767760337954
  0.5410469382019696  0.0992192615801615  0.5002284025185577
  0.5396115246520476  0.3481123626914744  0.4992551540617258
  0.5403029598143402  0.5977621940032102  0.4997724950857424
  0.5408208831130207  0.8487549210611482  0.5005482696349695
  0.7149094735684592  0.1097016226494559  0.5010606905556453
  0.7136995910561080  0.3442553238719981  0.5006415879305998
  0.7137269218450109  0.6055490022164899  0.5004601554187175
  0.7139720808573539  0.8569708312010683  0.5007688720032329
  0.2533856735398322  0.1049372154710201  0.5869978568838908
  0.2430861266132725  0.3491890821998897  0.5430489925675520
  0.2408472421408688  0.5987404086985690  0.5145251554431566
  0.2525913120611620  0.8453960887945938  0.5827040421735503
  0.4258074717703383  0.0988259958231404  0.5930681301734817
  0.4243465447441130  0.3485581463795701  0.5906612012299233
  0.4238987444956782  0.5975031198437372  0.5914724066898480
  0.4261645768082639  0.8486898427033452  0.5935869188330167
  0.5985814781807328  0.0992374018527599  0.5934557016671312
  0.5967301429950309  0.3481857498323273  0.5924549134166646
  0.5979947050902356  0.5973180481387139  0.5925621432722677
  0.5985546839073332  0.8483948897552802  0.5930529191398982
  0.4252121681502047  0.2237063598517393  0.5915357741438833
  0.4242708968410986  0.4728178557070995  0.5899996768333191
  0.4259600728017365  0.7230810802122752  0.5933981996610753
  0.4250481460566847  0.9738362734271617  0.5925651319757534
  0.5970737694856327  0.2239968003334677  0.5927974706617980
  0.5978217523734823  0.4727054136843785  0.5926710669991636
  0.5982879022631578  0.7231282578672350  0.5928093783445917
  0.5985459524018235  0.9743470510480322  0.5931801068850691
  0.3377996718827104  0.0369462154019430  0.5920523948014921
  0.3359576472996434  0.2852407772528396  0.5919731106687336
  0.3376600746396819  0.5327289180982869  0.5952358448568422
  0.3405735635869603  0.7856237691007109  0.5968631276534855
  0.5120321691832292  0.0365359008461394  0.5927170560481881
  0.5107046465230600  0.2861448016351616  0.5922309321253603
  0.5110065167013975  0.5352012056277481  0.5915137137060450
  0.5122058888640072  0.7858135311557022  0.5929015177611057
  0.6874786220173701  0.0378490617714826  0.5884862347501950
  0.6842868631355556  0.2861080417008011  0.5965537473915974
  0.6869836977815696  0.5338562653941933  0.5878747261991766
  0.6871851411447234  0.7857182279200211  0.5884858617424916
  0.3401148369046896  0.1623435942097979  0.5942644462203553
  0.3370422321412249  0.4113948796643698  0.5908760434368474
  0.3361166388889515  0.6610231748255878  0.5958280070221126
  0.3380924756318058  0.9111202557820037  0.5930910333685780
  0.5116229317624531  0.1611969780658324  0.5926450853140178
  0.5107633094947395  0.4108104427236496  0.5914721429445250
  0.5115540032394132  0.6601975795266636  0.5924611624663429
  0.5121675931728479  0.9112682292793637  0.5931898903696616
  0.6843438139051221  0.1646420271168429  0.5965925937638333
  0.6839665267378862  0.4073427378599577  0.5961366075297145
  0.6831723954434282  0.6599377203883536  0.5985072100386619
  0.6835236058129381  0.9115274870829400  0.5989224716713548
  0.2548966338342223  0.1043175352948481  0.4088442490135609
  0.2533843617049472  0.8449904549646585  0.4168709418390998
  0.4259645813204559  0.0982443542114139  0.4065947384737873
  0.4254977702584143  0.3478117145104183  0.4049886011540785
  0.4235475264551336  0.5984287027463204  0.4076518771691977
  0.4260494482541566  0.8487152215014396  0.4076336932560360
  0.5988199643922868  0.0990973904692968  0.4074417430347704
  0.5972884415828041  0.3479922160023038  0.4071801150774014
  0.5982105902843755  0.5974938644901105  0.4074598575916116
  0.5985982997479738  0.8485203757809011  0.4080652337618252
  0.2265657988412711  0.2211467283881950  0.4859980630841219
  0.2409515262351025  0.4687327667720584  0.4273096625895061
  0.2262739821487336  0.7279068073521459  0.4978541267476775
  0.2304681716044805  0.9758366228465886  0.4928375359923381
  0.4257788525475497  0.2231440829590242  0.4057796261961448
  0.4255852979815932  0.4737493600385688  0.4044579344578654
  0.4258343093990448  0.7234146920668488  0.4074493424665285
  0.4250501387214198  0.9736444408113334  0.4082815720728672
  0.5974579910133349  0.2237839630642704  0.4075299037853766
  0.5983495919269788  0.4727548446290925  0.4067559000510191
  0.5983332188079168  0.7232761890436702  0.4078449409128016
  0.5986480133016808  0.9743451930026752  0.4081186369211492
  0.3377085374030407  0.0364162880454227  0.4079799272352080
  0.3364345952135929  0.2857079590134046  0.4018822233451597
  0.3352557953584192  0.5366322451408003  0.4029943108081893
  0.3405166212838501  0.7857828563651555  0.4046847808491461
  0.5121306606509378  0.0362812158930559  0.4080459040124724
  0.5112990619001064  0.2857440646192619  0.4062564276939339
  0.5115577299046866  0.5356889788778124  0.4067818006043613
  0.5121453128628023  0.7859951523766342  0.4081278822909734
  0.6877014535152557  0.0379003430718474  0.4134167367280240
  0.6846671478126718  0.2859007696762761  0.4046398232174908
  0.6872610978006074  0.5338505263517107  0.4127841962188190
  0.6873060180991777  0.7858453637585295  0.4126304159999206
  0.3403296161944507  0.1609840915124870  0.4036782473961740
  0.3413421156955714  0.4094216784063099  0.3976953230823612
  0.3361653795004947  0.6613143787538542  0.4048847044922599
  0.3379638756276102  0.9109347828321709  0.4079326692038743
  0.5119730581953164  0.1608841366682939  0.4070427289079821
  0.5115796372316005  0.4107652487592451  0.4060010329848716
  0.5115426612468460  0.6605436197316993  0.4076528722423138
  0.5121797062192027  0.9112524690559963  0.4078782105346243
  0.6846922121296417  0.1645583369519180  0.4050706160463406
  0.7748185293332585  0.9123175678953034  0.5011026792520498
  0.7667991393518343  0.7856832277398172  0.5008290794974741
  0.7745541661679306  0.6591496906282895  0.5006694154470721
  0.7667035543572961  0.5329931332166634  0.5005460344694789
  0.7735658849297874  0.4063183804292175  0.5006879842594529
  0.7734251051760571  0.2861293337749393  0.5010788123921017
  0.7738012338515918  0.1658108784763754  0.5013339968180237
  0.7670357021073965  0.0387867609602129  0.5011865540577736
  0.6843405047687230  0.4072549722532742  0.4046107917520235
  0.6833415036357082  0.6600325125534546  0.4023353060723366
  0.6836550261809482  0.9117483141053655  0.4027269319551077
  0.2434255846111933  0.4962573942687437  0.6089689515133453
  0.1996700792756262  0.4927409282766937  0.6102948533281614
  0.1897687068658577  0.4738904455632803  0.6613718375641549
  0.1882019362022640  0.5317730107424754  0.6089821654904679
  0.2546296789347032  0.4619081973533691  0.6138232340576852
  0.1882501356406175  0.4718538387298955  0.5617903166430710
 
  0.00000000E+00  0.00000000E+00  0.00000000E+00
  0.00000000E+00  0.00000000E+00  0.00000000E+00
  0.00000000E+00  0.00000000E+00  0.00000000E+00
  0.00000000E+00  0.00000000E+00  0.00000000E+00
  0.00000000E+00  0.00000000E+00  0.00000000E+00
  0.00000000E+00  0.00000000E+00  0.00000000E+00
  0.00000000E+00  0.00000000E+00  0.00000000E+00
  0.00000000E+00  0.00000000E+00  0.00000000E+00
  0.00000000E+00  0.00000000E+00  0.00000000E+00
  0.00000000E+00  0.00000000E+00  0.00000000E+00
  0.00000000E+00  0.00000000E+00  0.00000000E+00
  0.00000000E+00  0.00000000E+00  0.00000000E+00
  0.00000000E+00  0.00000000E+00  0.00000000E+00
  0.00000000E+00  0.00000000E+00  0.00000000E+00
  0.00000000E+00  0.00000000E+00  0.00000000E+00
  0.00000000E+00  0.00000000E+00  0.00000000E+00
  0.00000000E+00  0.00000000E+00  0.00000000E+00
  0.00000000E+00  0.00000000E+00  0.00000000E+00
  0.00000000E+00  0.00000000E+00  0.00000000E+00
  0.00000000E+00  0.00000000E+00  0.00000000E+00
  0.00000000E+00  0.00000000E+00  0.00000000E+00
  0.00000000E+00  0.00000000E+00  0.00000000E+00
  0.00000000E+00  0.00000000E+00  0.00000000E+00
  0.00000000E+00  0.00000000E+00  0.00000000E+00
  0.00000000E+00  0.00000000E+00  0.00000000E+00
  0.00000000E+00  0.00000000E+00  0.00000000E+00
  0.00000000E+00  0.00000000E+00  0.00000000E+00
  0.00000000E+00  0.00000000E+00  0.00000000E+00
  0.00000000E+00  0.00000000E+00  0.00000000E+00
  0.00000000E+00  0.00000000E+00  0.00000000E+00
  0.00000000E+00  0.00000000E+00  0.00000000E+00
  0.00000000E+00  0.00000000E+00  0.00000000E+00
  0.00000000E+00  0.00000000E+00  0.00000000E+00
  0.00000000E+00  0.00000000E+00  0.00000000E+00
  0.00000000E+00  0.00000000E+00  0.00000000E+00
  0.00000000E+00  0.00000000E+00  0.00000000E+00
  0.00000000E+00  0.00000000E+00  0.00000000E+00
  0.00000000E+00  0.00000000E+00  0.00000000E+00
  0.00000000E+00  0.00000000E+00  0.00000000E+00
  0.00000000E+00  0.00000000E+00  0.00000000E+00
  0.00000000E+00  0.00000000E+00  0.00000000E+00
  0.00000000E+00  0.00000000E+00  0.00000000E+00
  0.00000000E+00  0.00000000E+00  0.00000000E+00
  0.00000000E+00  0.00000000E+00  0.00000000E+00
  0.00000000E+00  0.00000000E+00  0.00000000E+00
  0.00000000E+00  0.00000000E+00  0.00000000E+00
  0.00000000E+00  0.00000000E+00  0.00000000E+00
  0.00000000E+00  0.00000000E+00  0.00000000E+00
  0.00000000E+00  0.00000000E+00  0.00000000E+00
  0.00000000E+00  0.00000000E+00  0.00000000E+00
  0.00000000E+00  0.00000000E+00  0.00000000E+00
  0.00000000E+00  0.00000000E+00  0.00000000E+00
  0.00000000E+00  0.00000000E+00  0.00000000E+00
  0.00000000E+00  0.00000000E+00  0.00000000E+00
  0.00000000E+00  0.00000000E+00  0.00000000E+00
  0.00000000E+00  0.00000000E+00  0.00000000E+00
  0.00000000E+00  0.00000000E+00  0.00000000E+00
  0.00000000E+00  0.00000000E+00  0.00000000E+00
  0.00000000E+00  0.00000000E+00  0.00000000E+00
  0.00000000E+00  0.00000000E+00  0.00000000E+00
  0.00000000E+00  0.00000000E+00  0.00000000E+00
  0.00000000E+00  0.00000000E+00  0.00000000E+00
  0.00000000E+00  0.00000000E+00  0.00000000E+00
  0.00000000E+00  0.00000000E+00  0.00000000E+00
  0.00000000E+00  0.00000000E+00  0.00000000E+00
  0.00000000E+00  0.00000000E+00  0.00000000E+00
  0.00000000E+00  0.00000000E+00  0.00000000E+00
  0.00000000E+00  0.00000000E+00  0.00000000E+00
  0.00000000E+00  0.00000000E+00  0.00000000E+00
  0.00000000E+00  0.00000000E+00  0.00000000E+00
  0.00000000E+00  0.00000000E+00  0.00000000E+00
  0.00000000E+00  0.00000000E+00  0.00000000E+00
  0.00000000E+00  0.00000000E+00  0.00000000E+00
  0.00000000E+00  0.00000000E+00  0.00000000E+00
  0.00000000E+00  0.00000000E+00  0.00000000E+00
  0.00000000E+00  0.00000000E+00  0.00000000E+00
  0.00000000E+00  0.00000000E+00  0.00000000E+00
  0.00000000E+00  0.00000000E+00  0.00000000E+00
  0.00000000E+00  0.00000000E+00  0.00000000E+00
  0.00000000E+00  0.00000000E+00  0.00000000E+00
  0.00000000E+00  0.00000000E+00  0.00000000E+00
  0.00000000E+00  0.00000000E+00  0.00000000E+00
  0.00000000E+00  0.00000000E+00  0.00000000E+00
  0.00000000E+00  0.00000000E+00  0.00000000E+00
  0.00000000E+00  0.00000000E+00  0.00000000E+00
  0.00000000E+00  0.00000000E+00  0.00000000E+00
  0.00000000E+00  0.00000000E+00  0.00000000E+00
  0.00000000E+00  0.00000000E+00  0.00000000E+00
  0.00000000E+00  0.00000000E+00  0.00000000E+00
  0.00000000E+00  0.00000000E+00  0.00000000E+00
  0.00000000E+00  0.00000000E+00  0.00000000E+00
  0.00000000E+00  0.00000000E+00  0.00000000E+00
  0.00000000E+00  0.00000000E+00  0.00000000E+00
  0.00000000E+00  0.00000000E+00  0.00000000E+00
  0.00000000E+00  0.00000000E+00  0.00000000E+00
  0.00000000E+00  0.00000000E+00  0.00000000E+00
  0.00000000E+00  0.00000000E+00  0.00000000E+00
  0.00000000E+00  0.00000000E+00  0.00000000E+00
  0.00000000E+00  0.00000000E+00  0.00000000E+00
  0.00000000E+00  0.00000000E+00  0.00000000E+00
  0.00000000E+00  0.00000000E+00  0.00000000E+00
  0.00000000E+00  0.00000000E+00  0.00000000E+00
  0.00000000E+00  0.00000000E+00  0.00000000E+00
  0.00000000E+00  0.00000000E+00  0.00000000E+00
  0.00000000E+00  0.00000000E+00  0.00000000E+00
  0.00000000E+00  0.00000000E+00  0.00000000E+00
  0.00000000E+00  0.00000000E+00  0.00000000E+00
  0.00000000E+00  0.00000000E+00  0.00000000E+00
  0.00000000E+00  0.00000000E+00  0.00000000E+00
  0.00000000E+00  0.00000000E+00  0.00000000E+00
  0.00000000E+00  0.00000000E+00  0.00000000E+00
  0.00000000E+00  0.00000000E+00  0.00000000E+00
  0.00000000E+00  0.00000000E+00  0.00000000E+00
  0.00000000E+00  0.00000000E+00  0.00000000E+00
  0.00000000E+00  0.00000000E+00  0.00000000E+00
  0.00000000E+00  0.00000000E+00  0.00000000E+00
  0.00000000E+00  0.00000000E+00  0.00000000E+00
  0.00000000E+00  0.00000000E+00  0.00000000E+00
  0.00000000E+00  0.00000000E+00  0.00000000E+00
  0.00000000E+00  0.00000000E+00  0.00000000E+00
  0.00000000E+00  0.00000000E+00  0.00000000E+00
  0.00000000E+00  0.00000000E+00  0.00000000E+00
  0.00000000E+00  0.00000000E+00  0.00000000E+00
  0.00000000E+00  0.00000000E+00  0.00000000E+00
  0.00000000E+00  0.00000000E+00  0.00000000E+00
  0.00000000E+00  0.00000000E+00  0.00000000E+00
  0.00000000E+00  0.00000000E+00  0.00000000E+00
  0.00000000E+00  0.00000000E+00  0.00000000E+00
  0.00000000E+00  0.00000000E+00  0.00000000E+00
  0.00000000E+00  0.00000000E+00  0.00000000E+00
  0.00000000E+00  0.00000000E+00  0.00000000E+00
  0.00000000E+00  0.00000000E+00  0.00000000E+00
  0.00000000E+00  0.00000000E+00  0.00000000E+00
  0.00000000E+00  0.00000000E+00  0.00000000E+00
  0.00000000E+00  0.00000000E+00  0.00000000E+00
  0.00000000E+00  0.00000000E+00  0.00000000E+00
  0.00000000E+00  0.00000000E+00  0.00000000E+00
  0.00000000E+00  0.00000000E+00  0.00000000E+00
  0.00000000E+00  0.00000000E+00  0.00000000E+00
  0.00000000E+00  0.00000000E+00  0.00000000E+00
  0.00000000E+00  0.00000000E+00  0.00000000E+00
  0.00000000E+00  0.00000000E+00  0.00000000E+00
  0.00000000E+00  0.00000000E+00  0.00000000E+00
  0.00000000E+00  0.00000000E+00  0.00000000E+00
  0.00000000E+00  0.00000000E+00  0.00000000E+00
  0.00000000E+00  0.00000000E+00  0.00000000E+00
  0.00000000E+00  0.00000000E+00  0.00000000E+00
  0.00000000E+00  0.00000000E+00  0.00000000E+00
  0.00000000E+00  0.00000000E+00  0.00000000E+00
  0.00000000E+00  0.00000000E+00  0.00000000E+00
  0.00000000E+00  0.00000000E+00  0.00000000E+00
  0.00000000E+00  0.00000000E+00  0.00000000E+00
