Mo48 H4 Se98 C1 O1
1.0
  33.0000000000000000    0.0000000000000000    0.0000000000000000
   0.0000000000000000   26.3120002699999986    0.0000000000000000
   0.0000000000000000    0.0000000000000000   18.0970000000000013
Mo Se O C H
48 98 1 1 4
direct
   0.2815673200000000    0.0386493100000000    0.4966854900000000 Mo
   0.2863203600000000    0.2814927300000000    0.5049363400000000 Mo
   0.2887793300000000    0.5256807900000000    0.5069795000000000 Mo
   0.2864702500000000    0.7803162600000000    0.5036062300000000 Mo
   0.4538531100000000    0.0360477800000000    0.5018221000000000 Mo
   0.4535863500000000    0.2859586000000000    0.5008542800000000 Mo
   0.4547241900000000    0.5350099000000000    0.5016914900000000 Mo
   0.4549452800000000    0.7853475900000000    0.5009230000000000 Mo
   0.6266158200000000    0.0367877000000000    0.4999942600000000 Mo
   0.6263972300000000    0.2854058600000000    0.4994997700000000 Mo
   0.6272050000000000    0.5340961000000000    0.4994364600000000 Mo
   0.6271868100000000    0.7855264800000000    0.4998116900000000 Mo
   0.2853846700000000    0.1654157200000000    0.5037946500000000 Mo
   0.2884034200000000    0.4207230100000000    0.5069486700000000 Mo
   0.2873396700000000    0.6646036500000000    0.5049439500000000 Mo
   0.2820461200000000    0.9069170700000000    0.4966506000000000 Mo
   0.4538836300000000    0.1607178700000000    0.5009249600000000 Mo
   0.4541446900000000    0.4105066800000000    0.5016187100000000 Mo
   0.4550777000000000    0.6598158300000000    0.5008394200000000 Mo
   0.4543803300000000    0.9104771400000000    0.5017285400000000 Mo
   0.6263851100000000    0.1617767100000000    0.4997126900000000 Mo
   0.6268211400000000    0.4090391400000000    0.4994701000000000 Mo
   0.6277559200000000    0.6596889200000000    0.4995238100000000 Mo
   0.6272866900000000    0.9113019600000000    0.5000325000000000 Mo
   0.3676268600000000    0.2242645800000000    0.5009670300000000 Mo
   0.3687642600000000    0.4728981700000000    0.5036170400000000 Mo
   0.3688503000000000    0.7216803300000000    0.5009835600000000 Mo
   0.3664304800000000    0.9730425200000000    0.5026437800000000 Mo
   0.5396477300000000    0.2234846800000000    0.5001562400000000 Mo
   0.5413154400000000    0.4721171100000000    0.5003194100000000 Mo
   0.5414410800000000    0.7225652000000000    0.5002225500000000 Mo
   0.5407236800000000    0.9735004800000000    0.5009437799999999 Mo
   0.7138443300000000    0.2271378300000000    0.4991090900000000 Mo
   0.7152197500000000    0.4615539100000000    0.4988755600000000 Mo
   0.7146168800000000    0.7143458900000000    0.4989754300000000 Mo
   0.7141584000000000    0.9658528100000000    0.4992699000000000 Mo
   0.3681566700000000    0.0989508100000000    0.5018994300000000 Mo
   0.3669275500000000    0.3487773100000000    0.5037377800000000 Mo
   0.3679348500000000    0.5970411200000000    0.5037114800000000 Mo
   0.3689613200000000    0.8471262500000000    0.5018233600000001 Mo
   0.5407004000000000    0.0987975200000000    0.5006226700000000 Mo
   0.5399423800000001    0.3476057800000000    0.5001988700000000 Mo
   0.5414686500000000    0.5974466800000000    0.5002180500000000 Mo
   0.5411305300000000    0.8483738100000000    0.5006672000000000 Mo
   0.7147502400000000    0.1092948100000000    0.4991785000000000 Mo
   0.7140253500000000    0.3435668400000000    0.4990246000000000 Mo
   0.7146404100000000    0.6052021200000000    0.4988556100000000 Mo
   0.7143555400000000    0.8567994400000000    0.4992323600000000 Mo
   0.2530899100000000    0.1035663000000000    0.5878078000000000 Se
   0.2467299400000000    0.3491976000000000    0.5589959900000000 Se
   0.2475510200000000    0.5972779000000000    0.5596031100000000 Se
   0.2538751900000000    0.8420862800000000    0.5876527000000000 Se
   0.4254639800000000    0.0983718100000000    0.5946738499999999 Se
   0.4254002100000000    0.3481360900000000    0.5945295800000000 Se
   0.4265095300000000    0.5978125800000000    0.5944372400000000 Se
   0.4263622700000000    0.8477513300000000    0.5944607900000000 Se
   0.5986279200000000    0.0988081700000000    0.5930864200000000 Se
   0.5975918800000000    0.3475137400000000    0.5923595800000000 Se
   0.5994524700000000    0.5969409900000000    0.5922362000000000 Se
   0.5991374800000000    0.8480476300000001    0.5926530900000000 Se
   0.4254612600000000    0.2233952600000000    0.5935320500000000 Se
   0.4269476200000000    0.4729329600000000    0.5955409699999999 Se
   0.4268426800000000    0.7223974700000000    0.5934117400000000 Se
   0.4247860200000000    0.9730326700000000    0.5941119500000001 Se
   0.5972814600000000    0.2234630900000000    0.5923496700000001 Se
   0.5992617000000000    0.4721434500000000    0.5927155800000000 Se
   0.5994262500000000    0.7227464900000000    0.5923195999999999 Se
   0.5987770900000000    0.9739874900000000    0.5928282700000000 Se
   0.3357256400000000    0.0368677700000000    0.5934381800000000 Se
   0.3385037900000000    0.2845993400000000    0.5992783699999999 Se
   0.3398751500000000    0.5343131000000000    0.6019113100000000 Se
   0.3420980000000000    0.7829666500000000    0.5966962000000000 Se
   0.5120319600000000    0.0360526900000000    0.5935673000000000 Se
   0.5111625900000000    0.2856412600000000    0.5933515100000000 Se
   0.5130884300000000    0.5350253600000000    0.5930956100000000 Se
   0.5129222700000000    0.7852836700000000    0.5929894300000000 Se
   0.6876695600000000    0.0375813300000000    0.5869856900000000 Se
   0.6847453600000000    0.2854289300000000    0.5951427800000000 Se
   0.6881983300000000    0.5333899500000000    0.5865522500000000 Se
   0.6880927400000000    0.7854610900000000    0.5872714900000000 Se
   0.3410495200000000    0.1630112900000000    0.5967816200000000 Se
   0.3393647900000000    0.4118025900000000    0.6019689499999999 Se
   0.3396568400000000    0.6613092100000000    0.5992031500000000 Se
   0.3362571700000000    0.9090679100000000    0.5933834400000000 Se
   0.5116117200000000    0.1608132000000000    0.5933007100000000 Se
   0.5122435800000000    0.4103143200000000    0.5933724200000000 Se
   0.5131108000000000    0.6600645200000000    0.5930343900000000 Se
   0.5124734900000000    0.9107308600000000    0.5937391400000001 Se
   0.6845106000000000    0.1641505500000000    0.5951015900000000 Se
   0.6849247500000000    0.4067567500000000    0.5948523600000000 Se
   0.6844456400000000    0.6596025100000000    0.5972325500000000 Se
   0.6840162900000000    0.9113786200000000    0.5975994600000000 Se
   0.2534110700000000    0.0995320700000000    0.4112359200000000 Se
   0.2542686700000000    0.8458337300000000    0.4109477600000000 Se
   0.4252815300000000    0.0981405300000000    0.4084877000000000 Se
   0.4240753200000000    0.3486236700000000    0.4094485300000000 Se
   0.4252652600000000    0.5972925000000000    0.4095374400000000 Se
   0.4261722400000000    0.8479571900000000    0.4085412200000000 Se
   0.5981706300000000    0.0985876100000000    0.4071180600000000 Se
   0.5971414200000000    0.3475024500000000    0.4070784300000000 Se
   0.5989321600000000    0.5969714400000000    0.4071489000000000 Se
   0.5986441400000000    0.8481795800000000    0.4076869200000000 Se
   0.2317158300000000    0.2242755300000000    0.4695942500000000 Se
   0.2280121600000000    0.4734714400000000    0.4970106300000000 Se
   0.2323503900000000    0.7217158299999999    0.4710771100000000 Se
   0.2305605200000000    0.9725779500000000    0.5097971100000001 Se
   0.4249630400000000    0.2234154500000000    0.4081667700000000 Se
   0.4254901700000000    0.4729643300000000    0.4092758500000000 Se
   0.4263653400000000    0.7224023800000000    0.4082329300000000 Se
   0.4247166900000000    0.9731041200000000    0.4101831000000000 Se
   0.5968763600000000    0.2233173700000000    0.4071688300000000 Se
   0.5987155900000000    0.4721482000000000    0.4067205600000000 Se
   0.5990070199999999    0.7229223299999999    0.4073322100000000 Se
   0.5982486100000000    0.9739440200000000    0.4078040700000000 Se
   0.3393575600000000    0.0355229500000000    0.4087507800000000 Se
   0.3362885600000000    0.2879221000000000    0.4076197900000000 Se
   0.3376918800000000    0.5349452900000000    0.4084599800000000 Se
   0.3393015600000000    0.7844345800000000    0.4076742100000000 Se
   0.5114712800000000    0.0358515500000000    0.4088502000000000 Se
   0.5106626100000000    0.2856953500000000    0.4074109900000000 Se
   0.5121684900000000    0.5349465900000000    0.4084226400000000 Se
   0.5125819000000000    0.7855560200000000    0.4082477900000000 Se
   0.6872373300000000    0.0374807600000000    0.4118972800000000 Se
   0.6844412300000000    0.2853323300000000    0.4032661800000000 Se
   0.6878582800000000    0.5334260100000000    0.4114399600000000 Se
   0.6876439500000000    0.7855949200000000    0.4114399100000000 Se
   0.3381174700000000    0.1613405600000000    0.4077314000000000 Se
   0.3371713000000000    0.4111579600000000    0.4083924700000000 Se
   0.3374801000000000    0.6580501900000000    0.4077201900000000 Se
   0.3398192600000000    0.9102955400000000    0.4086280900000000 Se
   0.5112671800000000    0.1605707500000000    0.4077740000000000 Se
   0.5113913700000000    0.4104010900000000    0.4079708600000000 Se
   0.5125953600000001    0.6600579600000001    0.4077372400000000 Se
   0.5119265600000000    0.9108856600000000    0.4084923700000000 Se
   0.6841051400000000    0.1640945700000000    0.4036021100000000 Se
   0.7750485600000000    0.9123074900000000    0.4987398600000000 Se
   0.7674514600000000    0.7856499300000001    0.4983750300000000 Se
   0.7754277500000000    0.6589106200000000    0.4979936100000000 Se
   0.7674474999999999    0.5324075300000000    0.4987948700000000 Se
   0.7740671500000000    0.4054209000000000    0.4991419800000000 Se
   0.7735850100000000    0.2851875200000000    0.4989391600000000 Se
   0.7737578100000000    0.1650981800000000    0.4987014200000000 Se
   0.7669976300000000    0.0385179200000000    0.4989479400000000 Se
   0.6845674600000000    0.4066888300000000    0.4033228500000000 Se
   0.6839943600000000    0.6597530700000001    0.4010581900000000 Se
   0.6834928200000000    0.9113438699999999    0.4014577200000000 Se
   0.2321511893939394    0.4929383602660556    0.5631572648228989 O
   0.1909481272727273    0.5109211173785767    0.5713662082941924 C
   0.1705290972727273    0.4783076405925338    0.5642872300104990 H
   0.1870075645454546    0.5275091120396150    0.6265918467978118 H
   0.2353227990909091    0.4521822326818413    0.5645637034591369 H
   0.1849808569696970    0.5395522386262810    0.5286666890368570 H
