Mo48 Se100                              
   1.00000000000000     
    33.0000000000000000    0.0000000000000000    0.0000000000000000
     0.0000000000000000   26.3120002747000008    0.0000000000000000
     0.0000000000000000    0.0000000000000000   18.0970001220999990
   Mo   Se   O    C 
    48    99     2     1
Direct
  0.2869394324612100  0.0268527123637702  0.5003997506449183
  0.2811434731597385  0.2876559244694570  0.5007697555268996
  0.2878595809678176  0.5296162990614735  0.5007891559404920
  0.2825765051859332  0.7877316335828309  0.5004866162796435
  0.4546541963046827  0.0362754079698748  0.4999000388138435
  0.4524436016663704  0.2861224199631782  0.5003666396682288
  0.4556730169302520  0.5361087092670760  0.5001545078636820
  0.4552405692897629  0.7857812367335928  0.4997617837935706
  0.6267279086072792  0.0374215396834746  0.4985105121013139
  0.6253518566957009  0.2851564905590192  0.4993114324609895
  0.6289760934920172  0.5345145063499710  0.4997562972343649
  0.6280088799626583  0.7862604799398955  0.4986878038284361
  0.2804168844950747  0.1526829314748804  0.5004933980890789
  0.2864929069770366  0.4209922499479572  0.5008056302401923
  0.2820506346943366  0.6553965526541657  0.5006866423989500
  0.2873945399709573  0.9180297891068224  0.5003982203240986
  0.4530176956886065  0.1608120427906861  0.5001241927550248
  0.4541968230249673  0.4110211053443548  0.5004340439687122
  0.4557135157967164  0.6605951194762353  0.4998621252399026
  0.4554085825947893  0.9106406857044014  0.4997841153286907
  0.6259735008832138  0.1620418199408983  0.4984466809429045
  0.6263695160010625  0.4090360194214310  0.5000326370225570
  0.6294411515519663  0.6599210529295807  0.4991330473067517
  0.6277488764989947  0.9120036753821384  0.4983385478948664
  0.3649678124303417  0.2239461173351497  0.5005161887060640
  0.3688582529601573  0.4738446214946146  0.5005670704414840
  0.3677308629450899  0.7235346127321645  0.5002342551195442
  0.3690384014693874  0.9729425165498968  0.5002151260695791
  0.5387332067317526  0.2236201560347600  0.4997720637949247
  0.5418569713560867  0.4727711398044042  0.5001272968824311
  0.5423469435323852  0.7228676805370761  0.4992647744712692
  0.5412611344949768  0.9738035634905936  0.4992092459455110
  0.7129002740224885  0.2265765843505605  0.4979992917296357
  0.7149817319434095  0.4594395250229662  0.5005025793163613
  0.7152567748723393  0.7169046302384713  0.4983706862053318
  0.7143546930650386  0.9675326231135224  0.4974196563705077
  0.3684112302923884  0.0976303078719193  0.5003206227174049
  0.3669433778670319  0.3496336450337292  0.5006674206487407
  0.3702103816280069  0.5980127531242090  0.5004301860413247
  0.3692110181335984  0.8487688661255431  0.5001767943565079
  0.5405924696883536  0.0992340703618957  0.4994070589039663
  0.5392456344956142  0.3478317396292951  0.5002561470677312
  0.5426263161530169  0.5979407619241811  0.4994470014305663
  0.5418123091919579  0.8485374765091682  0.4992241336302117
  0.7146353129579105  0.1100700174671914  0.4972902293677260
  0.7112225869677021  0.3421959170272756  0.4952058670867388
  0.7183509404380249  0.6079360454813866  0.5004734619554135
  0.7146571718457065  0.8582933976040570  0.4976487860631807
  0.2539013163885052  0.0906762434160402  0.5896137255200989
  0.2504312629346009  0.3539718565285732  0.5810870852721102
  0.2550659859919103  0.5937460227720455  0.5900873872310510
  0.2533765765035131  0.8521000992113341  0.5846630977105746
  0.4255616220011082  0.0982138175415514  0.5933195736176492
  0.4245807820568508  0.3488910275350646  0.5933152623122226
  0.4274889362363973  0.5987366583090371  0.5933611219448711
  0.4268457189946673  0.8481676088937130  0.5928394374423170
  0.5985422383300683  0.0990719062717566  0.5919046475865797
  0.5967642260017647  0.3471711194661123  0.5926038586734756
  0.6005917289386550  0.5974280251926907  0.5915942044365269
  0.5997369231595812  0.8487308002803725  0.5912622841735168
  0.4232271040229595  0.2232803094699848  0.5923937997929473
  0.4266689714120576  0.4739158563172087  0.5932162224325689
  0.4261606437640544  0.7232516417658909  0.5920292701803549
  0.4269253458919716  0.9731428014636206  0.5926735026920149
  0.5964218404091057  0.2230938558875164  0.5918099962150046
  0.5998033041273212  0.4728900983939666  0.5928185396071427
  0.6004187259839328  0.7232974368053640  0.5912274551677503
  0.5991681753843707  0.9744906933797781  0.5912742502592682
  0.3403472483118573  0.0345370528341576  0.5953972805612879
  0.3362523857737563  0.2869743328242416  0.5936213955947298
  0.3412872693274976  0.5359956271454089  0.5958837502704829
  0.3385697376685343  0.7862547727068188  0.5927833116111332
  0.5125435744703215  0.0362387569935499  0.5919516071903979
  0.5100329978661716  0.2856581213304965  0.5930245401972071
  0.5136314811923713  0.5358654716828556  0.5923359446808076
  0.5134013107549131  0.7855811716604478  0.5916974978327454
  0.6878638882530594  0.0384682149052929  0.5856223007442550
  0.6834879783139519  0.2841297330029097  0.5946075803557367
  0.6887983460010426  0.5354697318854127  0.5880548252946624
  0.6885614194963156  0.7875169395019411  0.5867756752383591
  0.3368024191756676  0.1601413699748204  0.5924356717635686
  0.3390208917344603  0.4129541196921405  0.5963716406267555
  0.3389555787037606  0.6606220011662698  0.5923024002318036
  0.3404828116713565  0.9113397891479683  0.5958177482891069
  0.5108559138385410  0.1608119582881480  0.5925118842231145
  0.5119285199621166  0.4110064660497332  0.5929448309296169
  0.5138406966556178  0.6606392160212566  0.5920962606390687
  0.5132449379221603  0.9108898828260283  0.5921523077095553
  0.6843191852361757  0.1641556555445860  0.5938480756254082
  0.6848509222813074  0.4037865136260749  0.5948850592494548
  0.6860311447595406  0.6613866822162500  0.5970457167254861
  0.6844594463334462  0.9128544263368554  0.5959203815358601
  0.2539162499499269  0.0907413362918388  0.4111887491350660
  0.2503616174868260  0.3540554500438755  0.4206166262618834
  0.2548089068929706  0.5936565612267689  0.4117251899368558
  0.2533143337360392  0.8521153980008991  0.4162559686845676
  0.4253436612281140  0.0983678020565104  0.4069366932653861
  0.4244101715905204  0.3489458373050038  0.4076841645323765
  0.4272205676132073  0.5985302202967188  0.4069259527028784
  0.4265620872573123  0.8481495842240341  0.4069831607690745
  0.5979324005899064  0.0990853584428538  0.4057626898500796
  0.5963313665227172  0.3477381940293953  0.4072882304710909
  0.6007953900373856  0.5969405659323643  0.4070187174075067
  0.5992972826449254  0.8485454690767940  0.4062778257449920
  0.2303206345434024  0.2208731107380945  0.4999746667938489
  0.2277201016382212  0.4771180392167282  0.5006997095401601
  0.2307723146205782  0.7218151742383506  0.4999561332927466
  0.2277214784612054  0.9726000212801948  0.5003119897948023
  0.4230503113787850  0.2234624688773440  0.4083267177785820
  0.4264917401571562  0.4737562262295071  0.4075552433150065
  0.4259057197837246  0.7231775091830733  0.4078807773789107
  0.4266657836878719  0.9732201552282828  0.4072782453767169
  0.5958024126168264  0.2234176709420972  0.4065545057502829
  0.5995433829754500  0.4728898877457130  0.4069867826376587
  0.6002534920025723  0.7229015717147245  0.4067684146374255
  0.5986607847837762  0.9745375324319837  0.4061102231095102
  0.3402271031405372  0.0346221627836455  0.4052561777725061
  0.3361235803142871  0.2870748247727745  0.4077216922073145
  0.3410758762066034  0.5359111828454914  0.4053246055734803
  0.3383615049253483  0.7861856001378182  0.4077858836046855
  0.5121205203579553  0.0363853197488359  0.4070107149372237
  0.5098060919212584  0.2859951477182499  0.4072898718612505
  0.5133973671958550  0.5355094838977169  0.4074442715107719
  0.5130985488544821  0.7855280685948703  0.4071366900573436
  0.6871899660928474  0.0384692246444138  0.4099305546014609
  0.6826486547206025  0.2838731168289499  0.4014008827426495
  0.6921585974660369  0.5345694419172912  0.4148308807784555
  0.6880801079140393  0.7869393953171279  0.4097282412129979
  0.3367162587457273  0.1602709943384533  0.4084492410042941
  0.3388812391074879  0.4128843741158160  0.4050284794431079
  0.3387394341807229  0.6604932127001799  0.4086129346299388
  0.3403298467455249  0.9113582069113262  0.4047295771253802
  0.5104986486078649  0.1610524857670427  0.4070840891818147
  0.5117346847523001  0.4109642161657191  0.4076389386326348
  0.5135444839692179  0.6604783585297682  0.4069398148105112
  0.5128744160139409  0.9108928075259011  0.4067258603838392
  0.6834685715433333  0.1639922859298799  0.4014806588908111
  0.7751689337818930  0.9134377918360376  0.4955672295308210
  0.7679289285868570  0.7882978654926031  0.4993402993249104
  0.7768545756442539  0.6654863936766473  0.4914906523013965
  0.7686115984722567  0.3983351867228010  0.4548603983693825
  0.7717383228642969  0.2846036570468692  0.5128037087873853
  0.7735081202599302  0.1649668238281033  0.4909950066047011
  0.7672798131177224  0.0388185501014557  0.4981202693406954
  0.6817800546346239  0.4073034196968655  0.4027732658280146
  0.6860262236038146  0.6597349417774012  0.4016374726335039
  0.6839188705471944  0.9126903130688918  0.3994696630841862
  0.7697898673718006  0.5584332597314809  0.5077602108144146
  0.7725890949473581  0.4808131666764640  0.5677283964239754
  0.7598854738440942  0.5125096324907471  0.5214880032728576
 
  0.00000000E+00  0.00000000E+00  0.00000000E+00
  0.00000000E+00  0.00000000E+00  0.00000000E+00
  0.00000000E+00  0.00000000E+00  0.00000000E+00
  0.00000000E+00  0.00000000E+00  0.00000000E+00
  0.00000000E+00  0.00000000E+00  0.00000000E+00
  0.00000000E+00  0.00000000E+00  0.00000000E+00
  0.00000000E+00  0.00000000E+00  0.00000000E+00
  0.00000000E+00  0.00000000E+00  0.00000000E+00
  0.00000000E+00  0.00000000E+00  0.00000000E+00
  0.00000000E+00  0.00000000E+00  0.00000000E+00
  0.00000000E+00  0.00000000E+00  0.00000000E+00
  0.00000000E+00  0.00000000E+00  0.00000000E+00
  0.00000000E+00  0.00000000E+00  0.00000000E+00
  0.00000000E+00  0.00000000E+00  0.00000000E+00
  0.00000000E+00  0.00000000E+00  0.00000000E+00
  0.00000000E+00  0.00000000E+00  0.00000000E+00
  0.00000000E+00  0.00000000E+00  0.00000000E+00
  0.00000000E+00  0.00000000E+00  0.00000000E+00
  0.00000000E+00  0.00000000E+00  0.00000000E+00
  0.00000000E+00  0.00000000E+00  0.00000000E+00
  0.00000000E+00  0.00000000E+00  0.00000000E+00
  0.00000000E+00  0.00000000E+00  0.00000000E+00
  0.00000000E+00  0.00000000E+00  0.00000000E+00
  0.00000000E+00  0.00000000E+00  0.00000000E+00
  0.00000000E+00  0.00000000E+00  0.00000000E+00
  0.00000000E+00  0.00000000E+00  0.00000000E+00
  0.00000000E+00  0.00000000E+00  0.00000000E+00
  0.00000000E+00  0.00000000E+00  0.00000000E+00
  0.00000000E+00  0.00000000E+00  0.00000000E+00
  0.00000000E+00  0.00000000E+00  0.00000000E+00
  0.00000000E+00  0.00000000E+00  0.00000000E+00
  0.00000000E+00  0.00000000E+00  0.00000000E+00
  0.00000000E+00  0.00000000E+00  0.00000000E+00
  0.00000000E+00  0.00000000E+00  0.00000000E+00
  0.00000000E+00  0.00000000E+00  0.00000000E+00
  0.00000000E+00  0.00000000E+00  0.00000000E+00
  0.00000000E+00  0.00000000E+00  0.00000000E+00
  0.00000000E+00  0.00000000E+00  0.00000000E+00
  0.00000000E+00  0.00000000E+00  0.00000000E+00
  0.00000000E+00  0.00000000E+00  0.00000000E+00
  0.00000000E+00  0.00000000E+00  0.00000000E+00
  0.00000000E+00  0.00000000E+00  0.00000000E+00
  0.00000000E+00  0.00000000E+00  0.00000000E+00
  0.00000000E+00  0.00000000E+00  0.00000000E+00
  0.00000000E+00  0.00000000E+00  0.00000000E+00
  0.00000000E+00  0.00000000E+00  0.00000000E+00
  0.00000000E+00  0.00000000E+00  0.00000000E+00
  0.00000000E+00  0.00000000E+00  0.00000000E+00
  0.00000000E+00  0.00000000E+00  0.00000000E+00
  0.00000000E+00  0.00000000E+00  0.00000000E+00
  0.00000000E+00  0.00000000E+00  0.00000000E+00
  0.00000000E+00  0.00000000E+00  0.00000000E+00
  0.00000000E+00  0.00000000E+00  0.00000000E+00
  0.00000000E+00  0.00000000E+00  0.00000000E+00
  0.00000000E+00  0.00000000E+00  0.00000000E+00
  0.00000000E+00  0.00000000E+00  0.00000000E+00
  0.00000000E+00  0.00000000E+00  0.00000000E+00
  0.00000000E+00  0.00000000E+00  0.00000000E+00
  0.00000000E+00  0.00000000E+00  0.00000000E+00
  0.00000000E+00  0.00000000E+00  0.00000000E+00
  0.00000000E+00  0.00000000E+00  0.00000000E+00
  0.00000000E+00  0.00000000E+00  0.00000000E+00
  0.00000000E+00  0.00000000E+00  0.00000000E+00
  0.00000000E+00  0.00000000E+00  0.00000000E+00
  0.00000000E+00  0.00000000E+00  0.00000000E+00
  0.00000000E+00  0.00000000E+00  0.00000000E+00
  0.00000000E+00  0.00000000E+00  0.00000000E+00
  0.00000000E+00  0.00000000E+00  0.00000000E+00
  0.00000000E+00  0.00000000E+00  0.00000000E+00
  0.00000000E+00  0.00000000E+00  0.00000000E+00
  0.00000000E+00  0.00000000E+00  0.00000000E+00
  0.00000000E+00  0.00000000E+00  0.00000000E+00
  0.00000000E+00  0.00000000E+00  0.00000000E+00
  0.00000000E+00  0.00000000E+00  0.00000000E+00
  0.00000000E+00  0.00000000E+00  0.00000000E+00
  0.00000000E+00  0.00000000E+00  0.00000000E+00
  0.00000000E+00  0.00000000E+00  0.00000000E+00
  0.00000000E+00  0.00000000E+00  0.00000000E+00
  0.00000000E+00  0.00000000E+00  0.00000000E+00
  0.00000000E+00  0.00000000E+00  0.00000000E+00
  0.00000000E+00  0.00000000E+00  0.00000000E+00
  0.00000000E+00  0.00000000E+00  0.00000000E+00
  0.00000000E+00  0.00000000E+00  0.00000000E+00
  0.00000000E+00  0.00000000E+00  0.00000000E+00
  0.00000000E+00  0.00000000E+00  0.00000000E+00
  0.00000000E+00  0.00000000E+00  0.00000000E+00
  0.00000000E+00  0.00000000E+00  0.00000000E+00
  0.00000000E+00  0.00000000E+00  0.00000000E+00
  0.00000000E+00  0.00000000E+00  0.00000000E+00
  0.00000000E+00  0.00000000E+00  0.00000000E+00
  0.00000000E+00  0.00000000E+00  0.00000000E+00
  0.00000000E+00  0.00000000E+00  0.00000000E+00
  0.00000000E+00  0.00000000E+00  0.00000000E+00
  0.00000000E+00  0.00000000E+00  0.00000000E+00
  0.00000000E+00  0.00000000E+00  0.00000000E+00
  0.00000000E+00  0.00000000E+00  0.00000000E+00
  0.00000000E+00  0.00000000E+00  0.00000000E+00
  0.00000000E+00  0.00000000E+00  0.00000000E+00
  0.00000000E+00  0.00000000E+00  0.00000000E+00
  0.00000000E+00  0.00000000E+00  0.00000000E+00
  0.00000000E+00  0.00000000E+00  0.00000000E+00
  0.00000000E+00  0.00000000E+00  0.00000000E+00
  0.00000000E+00  0.00000000E+00  0.00000000E+00
  0.00000000E+00  0.00000000E+00  0.00000000E+00
  0.00000000E+00  0.00000000E+00  0.00000000E+00
  0.00000000E+00  0.00000000E+00  0.00000000E+00
  0.00000000E+00  0.00000000E+00  0.00000000E+00
  0.00000000E+00  0.00000000E+00  0.00000000E+00
  0.00000000E+00  0.00000000E+00  0.00000000E+00
  0.00000000E+00  0.00000000E+00  0.00000000E+00
  0.00000000E+00  0.00000000E+00  0.00000000E+00
  0.00000000E+00  0.00000000E+00  0.00000000E+00
  0.00000000E+00  0.00000000E+00  0.00000000E+00
  0.00000000E+00  0.00000000E+00  0.00000000E+00
  0.00000000E+00  0.00000000E+00  0.00000000E+00
  0.00000000E+00  0.00000000E+00  0.00000000E+00
  0.00000000E+00  0.00000000E+00  0.00000000E+00
  0.00000000E+00  0.00000000E+00  0.00000000E+00
  0.00000000E+00  0.00000000E+00  0.00000000E+00
  0.00000000E+00  0.00000000E+00  0.00000000E+00
  0.00000000E+00  0.00000000E+00  0.00000000E+00
  0.00000000E+00  0.00000000E+00  0.00000000E+00
  0.00000000E+00  0.00000000E+00  0.00000000E+00
  0.00000000E+00  0.00000000E+00  0.00000000E+00
  0.00000000E+00  0.00000000E+00  0.00000000E+00
  0.00000000E+00  0.00000000E+00  0.00000000E+00
  0.00000000E+00  0.00000000E+00  0.00000000E+00
  0.00000000E+00  0.00000000E+00  0.00000000E+00
  0.00000000E+00  0.00000000E+00  0.00000000E+00
  0.00000000E+00  0.00000000E+00  0.00000000E+00
  0.00000000E+00  0.00000000E+00  0.00000000E+00
  0.00000000E+00  0.00000000E+00  0.00000000E+00
  0.00000000E+00  0.00000000E+00  0.00000000E+00
  0.00000000E+00  0.00000000E+00  0.00000000E+00
  0.00000000E+00  0.00000000E+00  0.00000000E+00
  0.00000000E+00  0.00000000E+00  0.00000000E+00
  0.00000000E+00  0.00000000E+00  0.00000000E+00
  0.00000000E+00  0.00000000E+00  0.00000000E+00
  0.00000000E+00  0.00000000E+00  0.00000000E+00
  0.00000000E+00  0.00000000E+00  0.00000000E+00
  0.00000000E+00  0.00000000E+00  0.00000000E+00
  0.00000000E+00  0.00000000E+00  0.00000000E+00
  0.00000000E+00  0.00000000E+00  0.00000000E+00
  0.00000000E+00  0.00000000E+00  0.00000000E+00
  0.00000000E+00  0.00000000E+00  0.00000000E+00
  0.00000000E+00  0.00000000E+00  0.00000000E+00
  0.00000000E+00  0.00000000E+00  0.00000000E+00
  0.00000000E+00  0.00000000E+00  0.00000000E+00
  0.00000000E+00  0.00000000E+00  0.00000000E+00
  0.00000000E+00  0.00000000E+00  0.00000000E+00
