Mo48 Se100                              
1.0
  33.0000000000         0.0000000000         0.0000000000
   0.0000000000        26.3120002747         0.0000000000
   0.0000000000         0.0000000000        18.0970001221
Mo Se O C
48 99 2 1
Cartesian
     9.458478473         0.722383323         9.048631175
     9.242635359         7.654438758         9.048012648
     9.452277285        13.894193808         9.048407041
     9.279899430        20.793750645         9.048579674
    15.014064133         0.945605477         9.048487532
    14.952658731         7.513691347         9.048434986
    15.007444324        14.091473197         9.048581951
    14.999374751        20.666622607         9.048544858
    20.707348381         0.963937809         9.048479299
    20.676121381         7.515340767         9.048550729
    20.743383613        14.056201329         9.048608994
    20.711186614        20.654722022         9.048581652
     9.251494332         4.087922292         9.048306174
     9.442137641        11.016702706         9.048223660
     9.272095436        17.250067817         9.048498142
     9.470417174        24.155980038         9.048482534
    14.969724624         4.221260660         9.048496586
    14.993514549        10.795927193         9.048500149
    15.000361716        17.367924244         9.048563692
    15.027521887        23.950745655         9.048532363
    20.694540787         4.259761473         9.048503248
    20.662028475        10.775932558         9.048548752
    20.726964527        17.354045920         9.048549640
    20.731142359        23.964653304         9.048506275
    12.071242730         5.867861426         9.048327406
    12.159147680        12.448013282         9.048361678
    12.107171823        19.020588703         9.048561611
    12.175918932        25.601262007         9.048541600
    17.809351803         5.876452117         9.048539244
    17.864286041        12.433915830         9.048568642
    17.858906717        19.008976856         9.048541028
    17.875943248        25.607732377         9.048506284
    23.570938753         5.948729633         9.048535907
    23.507913154        12.155448266         9.048600995
    23.586211274        18.790114232         9.048686527
    23.599893800        25.406683515         9.048548969
    12.158477990         2.559386279         9.048448112
    12.145470162         9.181320055         9.048231939
    12.171910486        15.714468919         9.048532281
    12.181734483        22.329882873         9.048547353
    17.863071254         2.600614857         9.048490245
    17.810323666         9.143455813         9.048594432
    17.864342058        15.721209636         9.048663163
    17.873539241        22.312146629         9.048508108
    23.612907385         2.875736262         9.048501964
    23.545372649         9.023059213         9.048531626
    23.483628014        15.944409506         9.048656051
    23.603721079        22.535845834         9.048633148
     8.359454522         2.427125805        10.634691518
     8.349594573         9.311154039        10.638194297
     8.367908440        15.602064685        10.639877631
     8.378169176        22.450637622        10.634536406
    14.045413560         2.577358079        10.733248872
    14.028145806         9.160237417        10.733294138
    14.057916160        15.733521644        10.733547898
    14.069313411        22.310620235        10.732141491
    19.767651245         2.598448366        10.728316217
    19.699438039         9.145154319        10.724812765
    19.773990259        15.690730695        10.713500185
    19.779705821        22.305460639        10.720362385
    13.983212520         5.862799588        10.716284304
    14.061438571        12.447273440        10.726739839
    14.025605635        19.017829613        10.714237632
    14.082940613        25.600626407        10.724030245
    19.708156636         5.877930276        10.720446643
    19.764948912        12.445543797        10.730334525
    19.763001573        19.014751758        10.719028518
    19.781166833        25.618622524        10.721251112
    11.216705549         0.906289327        10.771792314
    11.108133024         7.531309773        10.709043333
    11.213327321        14.070290133        10.770688695
    11.146508997        20.681668408        10.711439268
    16.920643103         0.944336396        10.719482436
    16.846271145         7.506538377        10.728474265
    16.908477150        14.081470288        10.722722061
    16.909341668        20.663120767        10.717745938
    22.715012910         0.983491919        10.629736344
    22.589947076         7.495776463        10.779191474
    22.799729457        14.049342817        10.649876858
    22.712558596        20.658045984        10.637379633
    11.114601553         4.206341799        10.711403729
    11.199785696        10.832203215        10.771232785
    11.140191715        17.364171831        10.711131967
    11.231092364        23.977599440        10.770491391
    16.874011442         4.225630527        10.724303955
    16.889387099        10.800218392        10.726402379
    16.907299051        17.370281740        10.724691037
    16.930087687        23.958665574        10.725187918
    22.601478809         4.312253899        10.783658466
    22.555481938        10.674388521        10.775398462
    22.549892636        17.384403490        10.843968103
    22.592382723        23.969750276        10.820084147
     8.359492407         2.426927516         7.462273535
     8.349924679         9.311456529         7.458020768
     8.368041696        15.602179996         7.456846314
     8.377580039        22.450463314         7.462986510
    14.045477684         2.577314192         7.363735436
    14.028361827         9.160282999         7.363419484
    14.057940631        15.733526721         7.363505102
    14.069293180        22.310631154         7.364969809
    19.767660831         2.598435298         7.368696530
    19.699402064         9.145160819         7.372269570
    19.773951950        15.690678182         7.383665907
    19.779750441        22.305404476         7.376695214
     7.581401829         5.868019892         9.047625008
     7.488890298        12.460774735         9.048349144
     7.600407518        19.024766067         9.048493319
     7.507450270        25.587277659         9.048507877
    13.983348406         5.862729089         7.380533107
    14.061613817        12.447335468         7.370203096
    14.025567549        19.017796764         7.382849247
    14.082915399        25.600620165         7.373046857
    19.708169740         5.877933743         7.376616748
    19.764968913        12.445600371         7.366707081
    19.763035416        19.014796326         7.378015043
    19.781156291        25.618609324         7.375762401
    11.216579621         0.906190475         7.325298151
    11.108463371         7.531228297         7.387222655
    11.213308752        14.070472748         7.326150671
    11.146494503        20.681682417         7.385624286
    16.920667322         0.944303492         7.377549901
    16.846469162         7.506538954         7.368554968
    16.908478477        14.081595324         7.374430811
    16.909304460        20.663103392         7.379305883
    22.715099933         0.983406023         7.467279507
    22.589922622         7.495767253         7.317892281
    22.799769547        14.049405258         7.447397912
    22.712699703        20.657996436         7.459927737
    11.114645367         4.206308322         7.385316948
    11.199964893        10.832315078         7.325117334
    11.140207132        17.364230238         7.385918061
    11.231154842        23.977653774         7.326511286
    16.874028698         4.225638864         7.372719616
    16.889478414        10.800233209         7.370645582
    16.907327008        17.370243541         7.372387075
    16.930059455        23.958664867         7.371884716
    22.601496350         4.312244670         7.313334638
    25.608583235        23.969423187         9.048490077
    25.342438741        20.589120971         9.048851878
    25.554085734        17.102613654         9.048835118
    25.539928181        10.986151811         9.048537203
    25.529309975         7.617994401         9.048641677
    25.555442892         4.382906359         9.048584403
    25.339973259         1.013673921         9.048629699
    22.555522798        10.674470397         7.321706010
    22.550014572        17.384486980         7.253220361
    22.592460444        23.969658608         7.277028319
    25.498000000        15.209000000         9.048600000
    25.498000000        12.899000000         9.048600000
    25.498000000        14.049000000         9.048600000
