Mo48 Se97                               
   1.00000000000000     
    33.0000000000000000    0.0000000000000000    0.0000000000000000
     0.0000000000000000   26.3120002747000008    0.0000000000000000
     0.0000000000000000    0.0000000000000000   18.0970001220999990
   Mo   Se   O    C 
    48    97     2     1
Direct
  0.2883144231947271  0.0256242982280836  0.5132478747711058
  0.2863503863423893  0.2807408354213697  0.5091260956870258
  0.2899236455099606  0.5215736771058930  0.4984748168288364
  0.2888443056415730  0.7765574846584837  0.5095198937505621
  0.4541113336146319  0.0357677897087189  0.5049170784402952
  0.4534345036170815  0.2858402747782471  0.5026984116698695
  0.4554495824036539  0.5351370889845309  0.5024931853859385
  0.4549470904895072  0.7851410343483166  0.5037760276684823
  0.6267134471201150  0.0368852190872447  0.4994607416996718
  0.6265430213610250  0.2853705379420370  0.4992486357931922
  0.6276034641133184  0.5341633767675380  0.4991920129145151
  0.6273959513081088  0.7855282905892481  0.4995996687678964
  0.2876329391571780  0.1685595136147035  0.5090948841916674
  0.2889647452687337  0.4259734744969205  0.4985251225858742
  0.2874363735139941  0.6648967899556557  0.5092302132342099
  0.2887153927103189  0.9196082561038443  0.5135402635406090
  0.4537108417189324  0.1608223626023073  0.5034414741625399
  0.4547678086833419  0.4103410848243166  0.5024481714683923
  0.4551258020038682  0.6599052401237174  0.5028466824164711
  0.4547249158041506  0.9106050297592883  0.5051060608575194
  0.6264824219421611  0.1618628661586202  0.4993037389787648
  0.6271400973520339  0.4090081646735479  0.4992438197760155
  0.6280588512707229  0.6598144555951740  0.4992944366169962
  0.6274314586260741  0.9113563951226316  0.4996046559645475
  0.3672006852506289  0.2223720653188516  0.5051902179930440
  0.3705033307805800  0.4729514506728772  0.5026794803153127
  0.3686258158086822  0.7233982751365714  0.5054121828028642
  0.3682538014449045  0.9728647454546737  0.5094057241640306
  0.5396505629384931  0.2234144815595262  0.5010836171784272
  0.5417890531987782  0.4720898708752154  0.5008794052093548
  0.5415934863139755  0.7225677155631804  0.5012906222038870
  0.5409713343118842  0.9735006616345235  0.5019373507878077
  0.7140050298749522  0.2271570300042057  0.4972237033140803
  0.7155309823632474  0.4616346313155092  0.4974199346840462
  0.7149180821988208  0.7145138925585186  0.4977145198446256
  0.7142857954744403  0.9659733805918621  0.4974125757900515
  0.3666659444053166  0.0980381049284786  0.5082377262641119
  0.3671925146985745  0.3480948507068550  0.5043617240611671
  0.3685045042825787  0.5976419353281144  0.5042368345888800
  0.3675124390169503  0.8477660071484944  0.5085131709239099
  0.5407669114778964  0.0989191494871578  0.5014984367072025
  0.5402108385072119  0.3475005738390257  0.5009266804253895
  0.5418751220485885  0.5974818014920539  0.5009607715476736
  0.5413238854834138  0.8482104080230265  0.5017779732442614
  0.7148652626916885  0.1093761560547935  0.4971295521319952
  0.7142549356708453  0.3435718256307222  0.4973252876242734
  0.7149538417422424  0.6053456039398059  0.4975514529847006
  0.7145397082511159  0.8569112283472807  0.4976899978985437
  0.2453057887893326  0.0996163291934771  0.5770954565231052
  0.2471817519558765  0.3507156662600053  0.5553340578935526
  0.2481805769623820  0.5949579033001529  0.5573064093402925
  0.2462277748757890  0.8454889717939436  0.5777175829627488
  0.4260442453054733  0.0986748406673220  0.5976901741069156
  0.4252071624208286  0.3486427030690106  0.5956884145663791
  0.4265608590795046  0.5972262655545305  0.5956930262655133
  0.4270665056479206  0.8472880362611569  0.5978057372538768
  0.5991979133640418  0.0989285644443724  0.5930260528518282
  0.5981194220391205  0.3475024572761263  0.5925061526090623
  0.6001541861139409  0.5969982849399221  0.5922981411202509
  0.5998354221441992  0.8480695048734300  0.5927643194514415
  0.4257851244405615  0.2234699723241310  0.5963226037297679
  0.4274486257104486  0.4729421163891996  0.5961459089572609
  0.4273457959894940  0.7222337565309657  0.5965254532493203
  0.4274847108367980  0.9730037202822460  0.5992810956871100
  0.5977229402239889  0.2234813585473163  0.5924815392658507
  0.5999652873919886  0.4721934550634015  0.5927945985322838
  0.6000003737306578  0.7227091830537816  0.5925485025622255
  0.5994916537122046  0.9740671071795397  0.5928330427371208
  0.3403367050504391  0.0352976615237372  0.6067269213630795
  0.3395505709349351  0.2849458556564338  0.6019356418919107
  0.3387791764469238  0.5331816792433904  0.5991937727605707
  0.3409151539944074  0.7831404447920571  0.6050657020964364
  0.5130216353834690  0.0362183306478757  0.5950403807946385
  0.5114707885051860  0.2857277826713038  0.5944384849580170
  0.5136862166854753  0.5349645095068083  0.5938899277951790
  0.5135524893720331  0.7851110872030064  0.5946264252280696
  0.6882413786378244  0.0377450697465991  0.5854870584127004
  0.6854323934139283  0.2853875068513548  0.5938335207645297
  0.6889094733281516  0.5334440935538295  0.5855724272613974
  0.6886891057233446  0.7856413931918014  0.5862074415503952
  0.3396802400785416  0.1624817371752811  0.6047595576267435
  0.3378422494599269  0.4130267263126057  0.5989988929905447
  0.3407346689119190  0.6607399784808080  0.6017604373667402
  0.3408620741503845  0.9102737945018889  0.6069833039816283
  0.5120598606883383  0.1608905214589812  0.5946688572944835
  0.5127785608718295  0.4102990336696992  0.5941822414890091
  0.5135550080945545  0.6598396207207617  0.5942131836953553
  0.5135874408545091  0.9105776166799989  0.5954592487193844
  0.6851762621981586  0.1642022353319678  0.5936684142988949
  0.6856596948484458  0.4067280704555957  0.5937422871684778
  0.6851137730504450  0.6597609853383740  0.5962789762080419
  0.6846386509401645  0.9115639589049739  0.5963565675526847
  0.2423688711569089  0.0955970363823366  0.4491147947885545
  0.2432722111263345  0.8491523498528220  0.4497435993575146
  0.4237482412282036  0.0976669104751817  0.4132570184329241
  0.4243994015084260  0.3480068981278510  0.4104631579468942
  0.4258719092374071  0.5979976530344639  0.4105294077916210
  0.4247508519361975  0.8482489446500951  0.4137402386250427
  0.5977791246748793  0.0987398387444587  0.4071053746877267
  0.5970551832640226  0.3474739188629278  0.4071889581476687
  0.5990083126397330  0.5970736685997030  0.4072339735952532
  0.5984047031608366  0.8480859548763293  0.4078357517358458
  0.2317365742595365  0.2233806046236478  0.4739706811589183
  0.2319370982926308  0.7221080403592323  0.4784857285309856
  0.2281941120237954  0.9722728787406080  0.5208167860912700
  0.4241288715639240  0.2229394603326292  0.4108398576779149
  0.4274012119934121  0.4729282669370345  0.4092592076290004
  0.4257205315725672  0.7228942725629386  0.4111483910614300
  0.4248607993146868  0.9728721569777967  0.4136728524271404
  0.5965166441429517  0.2233763822380483  0.4073112406308544
  0.5988779471669549  0.4721629667249918  0.4067636475541399
  0.5987725257144387  0.7229577319595691  0.4075564234064645
  0.5979722578393624  0.9739686034227641  0.4077467853553068
  0.3373584329698465  0.0342652856481740  0.4140079524188965
  0.3354599966631430  0.2864056417736943  0.4109993111066958
  0.3416767122350256  0.5346410060352819  0.4058106932151618
  0.3385199202250004  0.7859288513797291  0.4117915121833305
  0.5110386146088914  0.0358828038413548  0.4104586884369674
  0.5103508625933874  0.2855341019325232  0.4086994011608113
  0.5127122566636625  0.5350935817845393  0.4089923006691967
  0.5120423897304071  0.7854901591306149  0.4098679139631525
  0.6869039024128653  0.0375482985385532  0.4103409153497926
  0.6840907762780026  0.2854440907828348  0.4020618914460277
  0.6878647705689617  0.5335554223743001  0.4104222880861003
  0.6875093312373177  0.7856308558556281  0.4103925005137475
  0.3373572708130275  0.1595970127042904  0.4115358011061674
  0.3406577888819563  0.4115963586129143  0.4062390729764627
  0.3367789502389789  0.6596146698972678  0.4112510117373910
  0.3377035759045626  0.9110844486706559  0.4141822631838775
  0.5106190587537309  0.1605557272538749  0.4092152282740527
  0.5118214119198902  0.4102225479438084  0.4085859834127542
  0.5124552843738970  0.6601751811141229  0.4091152450822609
  0.5115732270052669  0.9107033234933402  0.4103492266640817
  0.6837374480768077  0.1641922979022472  0.4021836681719710
  0.7752037091031174  0.9126008952049860  0.4966878101563816
  0.7677066301914497  0.7859906706577133  0.4966038943086284
  0.7757341658286350  0.6590707408945721  0.4965665445612240
  0.7677588916108019  0.5323882028137491  0.4966233837982119
  0.7743197887936096  0.4053334219369867  0.4962770023328062
  0.7737632954333680  0.2851613586495096  0.4956589918061005
  0.7739016028959986  0.1651593377754371  0.4958990573261415
  0.7671287636640094  0.0386993492731560  0.4954958314173195
  0.6844490127375337  0.4067959394316764  0.4022647351714606
  0.6839489386143893  0.6599739893305184  0.4001437236162237
  0.6832265593380538  0.9113388113186829  0.4002160523966726
  0.2378116491274366  0.5187128042147726  0.4181169717111816
  0.2368067478772828  0.4296031651379406  0.4200799194529053
  0.2466323872693052  0.4742581185738778  0.4379926626002759
 
  0.00000000E+00  0.00000000E+00  0.00000000E+00
  0.00000000E+00  0.00000000E+00  0.00000000E+00
  0.00000000E+00  0.00000000E+00  0.00000000E+00
  0.00000000E+00  0.00000000E+00  0.00000000E+00
  0.00000000E+00  0.00000000E+00  0.00000000E+00
  0.00000000E+00  0.00000000E+00  0.00000000E+00
  0.00000000E+00  0.00000000E+00  0.00000000E+00
  0.00000000E+00  0.00000000E+00  0.00000000E+00
  0.00000000E+00  0.00000000E+00  0.00000000E+00
  0.00000000E+00  0.00000000E+00  0.00000000E+00
  0.00000000E+00  0.00000000E+00  0.00000000E+00
  0.00000000E+00  0.00000000E+00  0.00000000E+00
  0.00000000E+00  0.00000000E+00  0.00000000E+00
  0.00000000E+00  0.00000000E+00  0.00000000E+00
  0.00000000E+00  0.00000000E+00  0.00000000E+00
  0.00000000E+00  0.00000000E+00  0.00000000E+00
  0.00000000E+00  0.00000000E+00  0.00000000E+00
  0.00000000E+00  0.00000000E+00  0.00000000E+00
  0.00000000E+00  0.00000000E+00  0.00000000E+00
  0.00000000E+00  0.00000000E+00  0.00000000E+00
  0.00000000E+00  0.00000000E+00  0.00000000E+00
  0.00000000E+00  0.00000000E+00  0.00000000E+00
  0.00000000E+00  0.00000000E+00  0.00000000E+00
  0.00000000E+00  0.00000000E+00  0.00000000E+00
  0.00000000E+00  0.00000000E+00  0.00000000E+00
  0.00000000E+00  0.00000000E+00  0.00000000E+00
  0.00000000E+00  0.00000000E+00  0.00000000E+00
  0.00000000E+00  0.00000000E+00  0.00000000E+00
  0.00000000E+00  0.00000000E+00  0.00000000E+00
  0.00000000E+00  0.00000000E+00  0.00000000E+00
  0.00000000E+00  0.00000000E+00  0.00000000E+00
  0.00000000E+00  0.00000000E+00  0.00000000E+00
  0.00000000E+00  0.00000000E+00  0.00000000E+00
  0.00000000E+00  0.00000000E+00  0.00000000E+00
  0.00000000E+00  0.00000000E+00  0.00000000E+00
  0.00000000E+00  0.00000000E+00  0.00000000E+00
  0.00000000E+00  0.00000000E+00  0.00000000E+00
  0.00000000E+00  0.00000000E+00  0.00000000E+00
  0.00000000E+00  0.00000000E+00  0.00000000E+00
  0.00000000E+00  0.00000000E+00  0.00000000E+00
  0.00000000E+00  0.00000000E+00  0.00000000E+00
  0.00000000E+00  0.00000000E+00  0.00000000E+00
  0.00000000E+00  0.00000000E+00  0.00000000E+00
  0.00000000E+00  0.00000000E+00  0.00000000E+00
  0.00000000E+00  0.00000000E+00  0.00000000E+00
  0.00000000E+00  0.00000000E+00  0.00000000E+00
  0.00000000E+00  0.00000000E+00  0.00000000E+00
  0.00000000E+00  0.00000000E+00  0.00000000E+00
  0.00000000E+00  0.00000000E+00  0.00000000E+00
  0.00000000E+00  0.00000000E+00  0.00000000E+00
  0.00000000E+00  0.00000000E+00  0.00000000E+00
  0.00000000E+00  0.00000000E+00  0.00000000E+00
  0.00000000E+00  0.00000000E+00  0.00000000E+00
  0.00000000E+00  0.00000000E+00  0.00000000E+00
  0.00000000E+00  0.00000000E+00  0.00000000E+00
  0.00000000E+00  0.00000000E+00  0.00000000E+00
  0.00000000E+00  0.00000000E+00  0.00000000E+00
  0.00000000E+00  0.00000000E+00  0.00000000E+00
  0.00000000E+00  0.00000000E+00  0.00000000E+00
  0.00000000E+00  0.00000000E+00  0.00000000E+00
  0.00000000E+00  0.00000000E+00  0.00000000E+00
  0.00000000E+00  0.00000000E+00  0.00000000E+00
  0.00000000E+00  0.00000000E+00  0.00000000E+00
  0.00000000E+00  0.00000000E+00  0.00000000E+00
  0.00000000E+00  0.00000000E+00  0.00000000E+00
  0.00000000E+00  0.00000000E+00  0.00000000E+00
  0.00000000E+00  0.00000000E+00  0.00000000E+00
  0.00000000E+00  0.00000000E+00  0.00000000E+00
  0.00000000E+00  0.00000000E+00  0.00000000E+00
  0.00000000E+00  0.00000000E+00  0.00000000E+00
  0.00000000E+00  0.00000000E+00  0.00000000E+00
  0.00000000E+00  0.00000000E+00  0.00000000E+00
  0.00000000E+00  0.00000000E+00  0.00000000E+00
  0.00000000E+00  0.00000000E+00  0.00000000E+00
  0.00000000E+00  0.00000000E+00  0.00000000E+00
  0.00000000E+00  0.00000000E+00  0.00000000E+00
  0.00000000E+00  0.00000000E+00  0.00000000E+00
  0.00000000E+00  0.00000000E+00  0.00000000E+00
  0.00000000E+00  0.00000000E+00  0.00000000E+00
  0.00000000E+00  0.00000000E+00  0.00000000E+00
  0.00000000E+00  0.00000000E+00  0.00000000E+00
  0.00000000E+00  0.00000000E+00  0.00000000E+00
  0.00000000E+00  0.00000000E+00  0.00000000E+00
  0.00000000E+00  0.00000000E+00  0.00000000E+00
  0.00000000E+00  0.00000000E+00  0.00000000E+00
  0.00000000E+00  0.00000000E+00  0.00000000E+00
  0.00000000E+00  0.00000000E+00  0.00000000E+00
  0.00000000E+00  0.00000000E+00  0.00000000E+00
  0.00000000E+00  0.00000000E+00  0.00000000E+00
  0.00000000E+00  0.00000000E+00  0.00000000E+00
  0.00000000E+00  0.00000000E+00  0.00000000E+00
  0.00000000E+00  0.00000000E+00  0.00000000E+00
  0.00000000E+00  0.00000000E+00  0.00000000E+00
  0.00000000E+00  0.00000000E+00  0.00000000E+00
  0.00000000E+00  0.00000000E+00  0.00000000E+00
  0.00000000E+00  0.00000000E+00  0.00000000E+00
  0.00000000E+00  0.00000000E+00  0.00000000E+00
  0.00000000E+00  0.00000000E+00  0.00000000E+00
  0.00000000E+00  0.00000000E+00  0.00000000E+00
  0.00000000E+00  0.00000000E+00  0.00000000E+00
  0.00000000E+00  0.00000000E+00  0.00000000E+00
  0.00000000E+00  0.00000000E+00  0.00000000E+00
  0.00000000E+00  0.00000000E+00  0.00000000E+00
  0.00000000E+00  0.00000000E+00  0.00000000E+00
  0.00000000E+00  0.00000000E+00  0.00000000E+00
  0.00000000E+00  0.00000000E+00  0.00000000E+00
  0.00000000E+00  0.00000000E+00  0.00000000E+00
  0.00000000E+00  0.00000000E+00  0.00000000E+00
  0.00000000E+00  0.00000000E+00  0.00000000E+00
  0.00000000E+00  0.00000000E+00  0.00000000E+00
  0.00000000E+00  0.00000000E+00  0.00000000E+00
  0.00000000E+00  0.00000000E+00  0.00000000E+00
  0.00000000E+00  0.00000000E+00  0.00000000E+00
  0.00000000E+00  0.00000000E+00  0.00000000E+00
  0.00000000E+00  0.00000000E+00  0.00000000E+00
  0.00000000E+00  0.00000000E+00  0.00000000E+00
  0.00000000E+00  0.00000000E+00  0.00000000E+00
  0.00000000E+00  0.00000000E+00  0.00000000E+00
  0.00000000E+00  0.00000000E+00  0.00000000E+00
  0.00000000E+00  0.00000000E+00  0.00000000E+00
  0.00000000E+00  0.00000000E+00  0.00000000E+00
  0.00000000E+00  0.00000000E+00  0.00000000E+00
  0.00000000E+00  0.00000000E+00  0.00000000E+00
  0.00000000E+00  0.00000000E+00  0.00000000E+00
  0.00000000E+00  0.00000000E+00  0.00000000E+00
  0.00000000E+00  0.00000000E+00  0.00000000E+00
  0.00000000E+00  0.00000000E+00  0.00000000E+00
  0.00000000E+00  0.00000000E+00  0.00000000E+00
  0.00000000E+00  0.00000000E+00  0.00000000E+00
  0.00000000E+00  0.00000000E+00  0.00000000E+00
  0.00000000E+00  0.00000000E+00  0.00000000E+00
  0.00000000E+00  0.00000000E+00  0.00000000E+00
  0.00000000E+00  0.00000000E+00  0.00000000E+00
  0.00000000E+00  0.00000000E+00  0.00000000E+00
  0.00000000E+00  0.00000000E+00  0.00000000E+00
  0.00000000E+00  0.00000000E+00  0.00000000E+00
  0.00000000E+00  0.00000000E+00  0.00000000E+00
  0.00000000E+00  0.00000000E+00  0.00000000E+00
  0.00000000E+00  0.00000000E+00  0.00000000E+00
  0.00000000E+00  0.00000000E+00  0.00000000E+00
  0.00000000E+00  0.00000000E+00  0.00000000E+00
  0.00000000E+00  0.00000000E+00  0.00000000E+00
  0.00000000E+00  0.00000000E+00  0.00000000E+00
  0.00000000E+00  0.00000000E+00  0.00000000E+00
  0.00000000E+00  0.00000000E+00  0.00000000E+00
  0.00000000E+00  0.00000000E+00  0.00000000E+00
  0.00000000E+00  0.00000000E+00  0.00000000E+00
  0.00000000E+00  0.00000000E+00  0.00000000E+00
