Mo48 Se97
1.0
  33.0000000000         0.0000000000         0.0000000000
   0.0000000000        26.3120002747         0.0000000000
   0.0000000000         0.0000000000        18.0970001221
Mo Se O C
48 97 2 1
Cartesian
     9.465008850         0.685535223         9.082935576
     9.438659010         8.179273416         9.144237354
     9.641725500        13.714361833         9.160308214
     9.411426420        20.674067195         9.090398960
    14.975429700         0.948752054         9.063863328
    14.945705610         7.540957972         9.091759492
    15.059223300        14.075392209         9.100355567
    14.985024120        20.649924356         9.072359327
    20.663296830         0.969117016         9.040235885
    20.673356550         7.501523388         9.045823153
    20.725414050        14.054737289         9.048756857
    20.697500340        20.669042392         9.042787019
     9.376718340         4.155026107         9.108099816
     9.565472070        11.428420769         9.164606794
     9.515575080        16.718011382         9.144626439
     9.486600420        24.165389409         9.076722876
    14.934745650         4.240551159         9.076687948
    15.033280680        10.805081062         9.100864274
    15.023245380        17.347042637         9.088551799
    14.995949760        23.950319065         9.060893792
    20.659262910         4.254638867         9.043388020
    20.706569400        10.756750128         9.047747407
    20.733921780        17.362196507         9.046112162
    20.689251330        23.976352948         9.039540236
    12.016372830         5.900720499         9.105490591
    12.331442310        12.449265862         9.130990712
    12.072854970        18.977566246         9.097473801
    12.155706090        25.594635951         9.070810043
    17.789940300         5.878720246         9.063454517
    17.904367140        12.419357537         9.074366646
    17.867727900        19.010897761         9.063491797
    17.837033280        25.612897795         9.050029619
    23.554936350         5.967010952         9.027201883
    23.622721980        12.141505446         9.019683303
    23.593805070        18.802294381         9.022821142
    23.555709870        25.414793955         9.027173108
    12.117164400         2.584719090         9.084129254
    12.148881690         9.169525283         9.125437466
    12.231202500        15.735009523         9.121982387
    12.149273400        22.292861704         9.076371070
    17.823998280         2.607452132         9.054820981
    17.831964480         9.134987889         9.070860714
    17.897802450        15.727588223         9.072214370
    17.846209260        22.311414821         9.053634542
    23.576057340         2.872482912         9.027809037
    23.573676390         9.029740414         9.023230496
    23.602741800        15.928758989         9.020134280
    23.568837600        22.547514505         9.026063581
     8.259141000         2.444242478        10.539385946
     7.653490680         9.858595524         9.178038207
     7.626609210        15.144349058         9.194957635
     8.264767830        22.388597127        10.505094483
    14.021656770         2.584764873        10.754676546
    14.048178210         9.174521669        10.792725489
    14.123511600        15.726709666        10.795805236
    14.055791310        22.300926332        10.746597502
    19.738656300         2.597598288        10.728126256
    19.739314650         9.136491093        10.731131625
    19.816271970        15.712515394        10.731819673
    19.761898200        22.311931589        10.717982707
    13.961871660         5.886389405        10.749290879
    14.185279680        12.444120813        10.823475549
    14.024348580        19.000586878        10.741381766
    14.064182220        25.598756147        10.743502372
    19.702155660         5.873466529        10.724835679
    19.817431920        12.421501176        10.742084110
    19.789909590        19.020593470        10.723685795
    19.748125980        25.625142347        10.718053466
    11.197454070         0.900802907        10.806348910
    11.069422980         7.587326557        10.847104621
    11.296378500        14.039374501        10.899814849
    11.169292530        20.643046136        10.801980838
    16.890561600         0.947712993        10.725724784
    16.859222490         7.508340564        10.755802722
    16.981938270        14.080437535        10.754522902
    16.907645700        20.658623367        10.732937525
    22.679004150         0.987982457        10.615956344
    22.606675410         7.502386158        10.767314405
    22.746663060        14.035565576        10.612684768
    22.710996000        20.671063943        10.621330972
    11.138046480         4.229258575        10.816075143
    11.217709140        10.899309598        10.876792569
    11.140296750        17.304122765        10.851136090
    11.211444750        23.959161213        10.803671278
    16.852473330         4.231026741        10.739870123
    16.948755450        10.789276759        10.761567884
    16.944553560        17.374109528        10.751508666
    16.906942470        23.957979015        10.729761501
    22.581837960         4.314137930        10.765772541
    22.632937140        10.696715879        10.763069211
    22.612503540        17.360787236        10.805908248
    22.561685520        23.980434991        10.805486950
     8.252242350         2.465607032         7.655862247
     8.267477460        22.376707524         7.657144600
    14.005064370         2.597304119         7.394369825
    14.014387200         9.184449187         7.420401273
    14.091229680        15.713165037         7.412548261
    14.044345260        22.289749783         7.390809240
    19.721959290         2.601545614         7.364041967
    19.712427240         9.138567899         7.378814729
    19.786458780        15.709541348         7.381275740
    19.746953160        22.308656271         7.372130421
     8.052421740         6.144759039         9.135156822
     8.042342550        18.727118102         9.098769727
     7.511698260        25.565309385         9.056521737
    13.938699060         5.901846126         7.434390797
    14.148590280        12.442701281         7.398367452
    14.004952170        18.983486182         7.430702991
    14.053532790        25.601230001         7.384888806
    19.679557590         5.876066417         7.377341995
    19.786660410        12.422565233         7.372179102
    19.766962380        19.017251320         7.378238521
    19.736012340        25.626155622         7.368325889
    11.184963570         0.914027581         7.352875575
    11.038402980         7.606478273         7.404367874
    11.255192520        14.029900602         7.379080574
    11.162493540        20.622444892         7.373493125
    16.876061400         0.952928821         7.385856634
    16.831790250         7.517479774         7.394586808
    16.950923220        14.077937895         7.410502033
    16.891040430        20.648825567         7.393835601
    22.665558960         0.987398331         7.447259212
    22.582356060         7.500007290         7.296176407
    22.714865250        14.036637264         7.443881407
    22.690402350        20.672150103         7.440333671
    11.118965550         4.249608013         7.382972877
    11.174100300        10.904086804         7.410631427
    11.106827490        17.278663537         7.393432581
    11.203988730        23.954184298         7.346429785
    16.832107710         4.240771127         7.388866165
    16.916550420        10.793476681         7.402356031
    16.920456630        17.364906380         7.397713969
    16.895807940        23.954955503         7.378498755
    22.563155340         4.314288961         7.299977139
    25.568043600        24.013413400         9.017903463
    25.329650280        20.684368080         9.010977922
    25.604641920        17.345230529         8.998845512
    25.345279740        14.004735542         9.000657384
    25.558828350        10.654956629         9.003512909
    25.532422080         7.489517748         9.013938048
    25.528557780         4.335169901         9.024109648
    25.301606550         1.013567720         9.022671299
    22.601556450        10.694694854         7.296804373
    22.581733680        17.363935204         7.254381385
    22.545859710        23.979739565         7.256594105
     8.050000000        13.609000000         9.131000000
     8.050000000        11.289000000         9.131000000
     8.050000000        12.449000000         9.131000000
