W36 S72                                 
   1.00000000000000     
    18.9192008971999996    0.0000000000000000    0.0000000000000000
    -9.4596004485999998   16.3845085963000017    0.0000000000000000
     0.0000000000000000    0.0000000000000000   24.6459999084000003
   W    S    O    C 
    36    69     1     1
Direct
  0.1220789867635830  0.0479595832341104  0.5006867359422245
  0.1237389184814361  0.2147477826054285  0.5006261471454607
  0.1237388214233022  0.3812131331950113  0.5006261472018423
  0.1220790931079563  0.5463417593367694  0.5006867117734970
  0.1206791112331160  0.7127758089276242  0.5010530011745402
  0.1206789428939530  0.8801257642765705  0.5010532866288955
  0.2882744939033017  0.0484976092606715  0.4982247384536649
  0.2930812558478877  0.2170737894300601  0.4943823059852974
  0.2910986542535454  0.3816603232024462  0.4944005704678744
  0.2930814379280591  0.5482296576044376  0.4943822911815019
  0.2882745959707549  0.7119995986550194  0.4982244738625354
  0.2874747651034255  0.8798486691261544  0.4999928819927391
  0.4536331432316416  0.0469316996247429  0.5003857430628358
  0.4512147003177986  0.2153343699356398  0.4956056614181961
  0.4507536178409453  0.3759957106482616  0.4934878636612368
  0.4507536621083190  0.5469801751592414  0.4934876655111253
  0.4512151437028180  0.7081026548413760  0.4956055991721016
  0.4536333589419712  0.8789237323998407  0.5003856695564295
  0.6202397610812653  0.0462309409695365  0.5025158405878827
  0.6191337092620941  0.2129701266878570  0.5015695702841754
  0.6167775413193795  0.3782088384500426  0.4992948640004258
  0.6156076154581456  0.5439150049323942  0.4998426328981935
  0.6167776470754447  0.7107909236106593  0.4992947072354639
  0.6191340048860070  0.8783857121471783  0.5015696699460435
  0.7871644328686358  0.0462120688776864  0.5036548810050974
  0.7871643072593884  0.2131745029840104  0.5036546798149786
  0.7861823332515172  0.3793556054961016  0.5027316964333437
  0.7849540560734312  0.5454228094575129  0.5022305462478087
  0.7849540850698347  0.7117534906704535  0.5022306227068896
  0.7861823309882823  0.8790488540775527  0.5027319587610037
  0.9546107150532492  0.0469059670543075  0.5030464812629063
  0.9554996455988061  0.2138608775321771  0.5034103835164458
  0.9546106793549569  0.3799267111707820  0.5030462076985458
  0.9536839643722814  0.5461345263430317  0.5025958205733119
  0.9530549126816155  0.7126386308974375  0.5024547607274883
  0.9536838535394310  0.8797717989145326  0.5025961164528994
  0.0686271339167348  0.1043671362300600  0.5656521751259902
  0.0703384113117735  0.2712802691933121  0.5658120735064713
  0.0686266555410739  0.4364820317965723  0.5656519422518684
  0.0670578666245945  0.6021549830052564  0.5655614115612906
  0.0659371850714265  0.7690796001246056  0.5655718156711842
  0.0670576265250986  0.9371251296737952  0.5655619942637671
  0.2387725185891156  0.1097267771913693  0.5616643098929401
  0.2428878276133375  0.2741593927823729  0.5607565782121213
  0.2428876093887169  0.4409504188498872  0.5607566938078250
  0.2387726208346876  0.6012684076394308  0.5616640196289708
  0.2335057015832120  0.7678892382661218  0.5636876305091647
  0.2335057902291027  0.9378388767953041  0.5636878855374476
  0.3980180525308086  0.1072287486243155  0.5621127440220661
  0.3980182024490873  0.7630115734926335  0.5621126671592052
  0.3978121200023921  0.9350170652269369  0.5644525083594587
  0.5630935449650920  0.1018760312751965  0.5657705783960196
  0.5576867450811349  0.2681751575920330  0.5630346026226576
  0.5538423487150439  0.4282359559927471  0.5619999884848710
  0.5538420934895214  0.5978285513702559  0.5620001549634992
  0.5576872949712381  0.7617337888206777  0.5630348468316058
  0.5630936611231050  0.9334396810829446  0.5657705918460110
  0.7307378656400374  0.1014800921016104  0.5675531636737148
  0.7293895050589114  0.2684090315949135  0.5668899607590561
  0.7268278722818096  0.4333892666124441  0.5654421004638479
  0.7257988324096516  0.5990104202885149  0.5654945771537783
  0.7268276835952747  0.7656605648714176  0.5654422660484215
  0.7293897107179461  0.9332028779163863  0.5668902856382800
  0.8994532638967314  0.1024288523676020  0.5675994983226076
  0.8994529637410338  0.2692464921657347  0.5675992381886488
  0.8980588429159724  0.4353131088869233  0.5669498048193518
  0.8968038164949590  0.6011934390762264  0.5664868337195301
  0.8968037689769801  0.7678325859823616  0.5664869875492613
  0.8980583477935653  0.9349676099152688  0.5669504065111326
  0.0643121164140013  0.1021285185527816  0.4377241772091978
  0.0649555136833371  0.2685886936047694  0.4378342050461725
  0.0643120920690947  0.4344059818170436  0.4377241167759678
  0.0639251631738063  0.6009688986794117  0.4375409431969501
  0.0635708443099148  0.7678967402586423  0.4376052916270083
  0.0639250290875140  0.9351784778490142  0.4375410041826271
  0.2306921146143281  0.1021742176073346  0.4338117578263763
  0.2305338560808465  0.2668931762494822  0.4323720102641460
  0.2305337919775496  0.4358625867509147  0.4323720215762563
  0.2306921276392799  0.6007402768005505  0.4338116073187308
  0.2307597866687559  0.7683964599187192  0.4358475545755596
  0.2307597961824683  0.9345862316495754  0.4358478869587259
  0.3996990236941258  0.1022370745556245  0.4340063702935808
  0.3989822074234937  0.2681669173628620  0.4279888539715415
  0.4004430543127953  0.4363323932993595  0.4291388804182361
  0.3989822462364003  0.6030377084624376  0.4279885787151656
  0.3996992898901510  0.7696843993705613  0.4340062875871098
  0.3989410339651869  0.9355816281037264  0.4362291695764853
  0.5660006714544252  0.1020719422374299  0.4375680328062046
  0.5649244013550216  0.2674026736955426  0.4347753327152901
  0.5645539131636923  0.4353527406009903  0.4332622460223803
  0.5645538953483609  0.6014231468959537  0.4332621826409806
  0.5649245997444439  0.7697441094399551  0.4347753133326790
  0.5660011268131200  0.9361509798774890  0.4375681155399818
  0.7325067531411946  0.1023643046201457  0.4393679615329518
  0.7320390465467028  0.2683276053500734  0.4387498598437176
  0.7316133346899321  0.4349722492711479  0.4376735077671299
  0.7301397742650693  0.6011809486456841  0.4377544742181811
  0.7316136994776912  0.7688636997953111  0.4376735661797326
  0.7320393967418397  0.9359338562131185  0.4387502112247716
  0.8984952184827719  0.1023730402396339  0.4395385583535543
  0.8984953369008792  0.2683441655514471  0.4395382983868217
  0.8979831359349717  0.4346444129495879  0.4389254696738547
  0.8971996379920597  0.6012268365476103  0.4386049880230161
  0.8971995726247712  0.7681952133798688  0.4386050634478948
  0.8979829471806653  0.9355607375800687  0.4389259812996400
  0.4009588525539627  0.4365905436144786  0.5971800343649107
  0.3999376503197141  0.4360798384023425  0.5474638087420729
 
  0.00000000E+00  0.00000000E+00  0.00000000E+00
  0.00000000E+00  0.00000000E+00  0.00000000E+00
  0.00000000E+00  0.00000000E+00  0.00000000E+00
  0.00000000E+00  0.00000000E+00  0.00000000E+00
  0.00000000E+00  0.00000000E+00  0.00000000E+00
  0.00000000E+00  0.00000000E+00  0.00000000E+00
  0.00000000E+00  0.00000000E+00  0.00000000E+00
  0.00000000E+00  0.00000000E+00  0.00000000E+00
  0.00000000E+00  0.00000000E+00  0.00000000E+00
  0.00000000E+00  0.00000000E+00  0.00000000E+00
  0.00000000E+00  0.00000000E+00  0.00000000E+00
  0.00000000E+00  0.00000000E+00  0.00000000E+00
  0.00000000E+00  0.00000000E+00  0.00000000E+00
  0.00000000E+00  0.00000000E+00  0.00000000E+00
  0.00000000E+00  0.00000000E+00  0.00000000E+00
  0.00000000E+00  0.00000000E+00  0.00000000E+00
  0.00000000E+00  0.00000000E+00  0.00000000E+00
  0.00000000E+00  0.00000000E+00  0.00000000E+00
  0.00000000E+00  0.00000000E+00  0.00000000E+00
  0.00000000E+00  0.00000000E+00  0.00000000E+00
  0.00000000E+00  0.00000000E+00  0.00000000E+00
  0.00000000E+00  0.00000000E+00  0.00000000E+00
  0.00000000E+00  0.00000000E+00  0.00000000E+00
  0.00000000E+00  0.00000000E+00  0.00000000E+00
  0.00000000E+00  0.00000000E+00  0.00000000E+00
  0.00000000E+00  0.00000000E+00  0.00000000E+00
  0.00000000E+00  0.00000000E+00  0.00000000E+00
  0.00000000E+00  0.00000000E+00  0.00000000E+00
  0.00000000E+00  0.00000000E+00  0.00000000E+00
  0.00000000E+00  0.00000000E+00  0.00000000E+00
  0.00000000E+00  0.00000000E+00  0.00000000E+00
  0.00000000E+00  0.00000000E+00  0.00000000E+00
  0.00000000E+00  0.00000000E+00  0.00000000E+00
  0.00000000E+00  0.00000000E+00  0.00000000E+00
  0.00000000E+00  0.00000000E+00  0.00000000E+00
  0.00000000E+00  0.00000000E+00  0.00000000E+00
  0.00000000E+00  0.00000000E+00  0.00000000E+00
  0.00000000E+00  0.00000000E+00  0.00000000E+00
  0.00000000E+00  0.00000000E+00  0.00000000E+00
  0.00000000E+00  0.00000000E+00  0.00000000E+00
  0.00000000E+00  0.00000000E+00  0.00000000E+00
  0.00000000E+00  0.00000000E+00  0.00000000E+00
  0.00000000E+00  0.00000000E+00  0.00000000E+00
  0.00000000E+00  0.00000000E+00  0.00000000E+00
  0.00000000E+00  0.00000000E+00  0.00000000E+00
  0.00000000E+00  0.00000000E+00  0.00000000E+00
  0.00000000E+00  0.00000000E+00  0.00000000E+00
  0.00000000E+00  0.00000000E+00  0.00000000E+00
  0.00000000E+00  0.00000000E+00  0.00000000E+00
  0.00000000E+00  0.00000000E+00  0.00000000E+00
  0.00000000E+00  0.00000000E+00  0.00000000E+00
  0.00000000E+00  0.00000000E+00  0.00000000E+00
  0.00000000E+00  0.00000000E+00  0.00000000E+00
  0.00000000E+00  0.00000000E+00  0.00000000E+00
  0.00000000E+00  0.00000000E+00  0.00000000E+00
  0.00000000E+00  0.00000000E+00  0.00000000E+00
  0.00000000E+00  0.00000000E+00  0.00000000E+00
  0.00000000E+00  0.00000000E+00  0.00000000E+00
  0.00000000E+00  0.00000000E+00  0.00000000E+00
  0.00000000E+00  0.00000000E+00  0.00000000E+00
  0.00000000E+00  0.00000000E+00  0.00000000E+00
  0.00000000E+00  0.00000000E+00  0.00000000E+00
  0.00000000E+00  0.00000000E+00  0.00000000E+00
  0.00000000E+00  0.00000000E+00  0.00000000E+00
  0.00000000E+00  0.00000000E+00  0.00000000E+00
  0.00000000E+00  0.00000000E+00  0.00000000E+00
  0.00000000E+00  0.00000000E+00  0.00000000E+00
  0.00000000E+00  0.00000000E+00  0.00000000E+00
  0.00000000E+00  0.00000000E+00  0.00000000E+00
  0.00000000E+00  0.00000000E+00  0.00000000E+00
  0.00000000E+00  0.00000000E+00  0.00000000E+00
  0.00000000E+00  0.00000000E+00  0.00000000E+00
  0.00000000E+00  0.00000000E+00  0.00000000E+00
  0.00000000E+00  0.00000000E+00  0.00000000E+00
  0.00000000E+00  0.00000000E+00  0.00000000E+00
  0.00000000E+00  0.00000000E+00  0.00000000E+00
  0.00000000E+00  0.00000000E+00  0.00000000E+00
  0.00000000E+00  0.00000000E+00  0.00000000E+00
  0.00000000E+00  0.00000000E+00  0.00000000E+00
  0.00000000E+00  0.00000000E+00  0.00000000E+00
  0.00000000E+00  0.00000000E+00  0.00000000E+00
  0.00000000E+00  0.00000000E+00  0.00000000E+00
  0.00000000E+00  0.00000000E+00  0.00000000E+00
  0.00000000E+00  0.00000000E+00  0.00000000E+00
  0.00000000E+00  0.00000000E+00  0.00000000E+00
  0.00000000E+00  0.00000000E+00  0.00000000E+00
  0.00000000E+00  0.00000000E+00  0.00000000E+00
  0.00000000E+00  0.00000000E+00  0.00000000E+00
  0.00000000E+00  0.00000000E+00  0.00000000E+00
  0.00000000E+00  0.00000000E+00  0.00000000E+00
  0.00000000E+00  0.00000000E+00  0.00000000E+00
  0.00000000E+00  0.00000000E+00  0.00000000E+00
  0.00000000E+00  0.00000000E+00  0.00000000E+00
  0.00000000E+00  0.00000000E+00  0.00000000E+00
  0.00000000E+00  0.00000000E+00  0.00000000E+00
  0.00000000E+00  0.00000000E+00  0.00000000E+00
  0.00000000E+00  0.00000000E+00  0.00000000E+00
  0.00000000E+00  0.00000000E+00  0.00000000E+00
  0.00000000E+00  0.00000000E+00  0.00000000E+00
  0.00000000E+00  0.00000000E+00  0.00000000E+00
  0.00000000E+00  0.00000000E+00  0.00000000E+00
  0.00000000E+00  0.00000000E+00  0.00000000E+00
  0.00000000E+00  0.00000000E+00  0.00000000E+00
  0.00000000E+00  0.00000000E+00  0.00000000E+00
  0.00000000E+00  0.00000000E+00  0.00000000E+00
  0.00000000E+00  0.00000000E+00  0.00000000E+00
  0.00000000E+00  0.00000000E+00  0.00000000E+00
