Mo48 Se100                              
   1.00000000000000     
    33.0000000000000000    0.0000000000000000    0.0000000000000000
     0.0000000000000000   26.3120002747000008    0.0000000000000000
     0.0000000000000000    0.0000000000000000   18.0970001220999990
   Mo   Se   O    C 
    48    99     1     1
Direct
  0.2865749582606227  0.0274003676879033  0.5000051449413192
  0.2801834616308341  0.2911481945582253  0.4999208399475705
  0.2868227766664901  0.5284464375796460  0.4999380205479298
  0.2815419330738607  0.7899198914686920  0.5000127779141081
  0.4545368508832581  0.0361516294719451  0.5000124099399770
  0.4528957189564693  0.2858141119929982  0.4999968055815671
  0.4553852974686734  0.5358725243213982  0.5000072192787357
  0.4548533749095469  0.7855218319273050  0.5000240034846684
  0.6268484829328358  0.0371301266095472  0.5000109786269249
  0.6258816923220181  0.2853627039065003  0.5000110099006747
  0.6303020923806670  0.5350600238949497  0.5000120589013548
  0.6275843149523013  0.7859660045178316  0.5000175079183933
  0.2803673064434307  0.1556474832163772  0.4999774105076540
  0.2863125911160225  0.4192338929249360  0.4998617900128295
  0.2813514088831752  0.6558588189908647  0.4999984757567404
  0.2870624376891371  0.9179776486512168  0.5000325012847142
  0.4532613139830701  0.1606366230162237  0.4999960569575777
  0.4545681785113445  0.4107338239518867  0.5000038434582095
  0.4551758855326185  0.6602039165847273  0.5000141176698207
  0.4552387460961498  0.9104281717559104  0.5000238496309990
  0.6265243228668211  0.1619540964992296  0.5000083706590175
  0.6261437873076829  0.4089780083701768  0.5000148105600957
  0.6291252223028323  0.6598873320060932  0.5000189087401239
  0.6276021478425520  0.9117317574539783  0.5000148133144222
  0.3654859861860942  0.2232593497866020  0.4999787077416329
  0.3687387760806118  0.4734566154937383  0.4999757966479450
  0.3672621771796685  0.7229700661158702  0.5000159510302069
  0.3688439783212303  0.9730176988221473  0.5000358186657721
  0.5391993626176728  0.2234121103392752  0.5000111539817240
  0.5419820734279455  0.4729547303436163  0.5000104621794748
  0.5418717220433678  0.7225823575961954  0.5000126700449457
  0.5411543422746945  0.9736532686034352  0.5000100694772129
  0.7135984599512852  0.2249138202441614  0.4999998697795149
  0.7120941746830027  0.4582591093439277  0.5000330453841215
  0.7144397450228368  0.7165824926171851  0.5000081666742133
  0.7143402053577859  0.9668481494959380  0.5000108613664835
  0.3681757319434098  0.0974439336560167  0.4999969279480965
  0.3680482916995729  0.3492788324462381  0.4999543562646593
  0.3693144177946337  0.5974352656287678  0.5000011091636267
  0.3692478870077238  0.8486485940413715  0.5000395064164138
  0.5407647152483079  0.0990864437004078  0.5000085742390468
  0.5394605689655734  0.3475961782445225  0.5000090460388833
  0.5424741980450918  0.5977313365556114  0.5000118695904732
  0.5415264062928884  0.8483356518926612  0.5000182366679979
  0.7148722411445263  0.1094960193566337  0.4999993092423836
  0.7128673701781238  0.3419027693627683  0.5000083432925777
  0.7167691279740183  0.6073840329155757  0.5000083926490007
  0.7144227351215804  0.8584279849922467  0.5000094411974274
  0.2531563306004543  0.0923271489484137  0.5872567758394212
  0.2529198169959344  0.3543932275848434  0.5872646358072302
  0.2538773774016008  0.5932649895382767  0.5878796188033490
  0.2539302461774398  0.8529871006172414  0.5872955323165101
  0.4253100445504856  0.0981924623354544  0.5931571180349664
  0.4251420095593872  0.3485752652696448  0.5930335515456022
  0.4265344657124572  0.5981700837485988  0.5930935963451347
  0.4264741086130783  0.8479403853439322  0.5930472534857145
  0.5984102381628489  0.0989881480767920  0.5929506266741029
  0.5965239399627791  0.3474449423964217  0.5927233658402074
  0.6006872937328538  0.5968713653636968  0.5921357614422504
  0.5991367376302748  0.8484118382757941  0.5924980093890539
  0.4234323122207897  0.2230973962834710  0.5921113254877071
  0.4264444593864098  0.4734787493727239  0.5927260144055424
  0.4254895923825757  0.7228448185988796  0.5920577091183219
  0.4265730367919645  0.9730791156249410  0.5926736891046716
  0.5966260008458235  0.2233175590777066  0.5925266382960928
  0.5999682433432909  0.4736288251347176  0.5923694373540584
  0.5996749326486039  0.7228605486094040  0.5923701054500299
  0.5987405809803121  0.9743463441305451  0.5925866348014139
  0.3397831614490343  0.0344812157875083  0.5952497806207830
  0.3365478822776566  0.2866405056300962  0.5918496095510122
  0.3401685525444691  0.5350794570270452  0.5952009229435831
  0.3380396066199864  0.7859933108315502  0.5920060223793655
  0.5121912746243495  0.0362326872029755  0.5923827754362989
  0.5102025653019595  0.2854567076104431  0.5929002099187812
  0.5132226111355180  0.5355714908863405  0.5924478809049134
  0.5127961935448937  0.7853195322400381  0.5922262935829963
  0.6875986925138946  0.0380685034260395  0.5876303695781431
  0.6838553752679104  0.2840203834798558  0.5955787007546647
  0.6931536780235419  0.5329065655123273  0.5872987997511743
  0.6878209876892711  0.7868634140329007  0.5883453480026830
  0.3366447118110827  0.1600307848328342  0.5920209553558280
  0.3395240151848569  0.4120781677375192  0.5951462950970878
  0.3379882785167396  0.6600363358150005  0.5918596710547774
  0.3403704318183429  0.9112287337058262  0.5952451279621940
  0.5108974954996910  0.1607751546070375  0.5927147245141242
  0.5120881712046099  0.4109435947330482  0.5926721627841260
  0.5131580431290459  0.6602055738799848  0.5925502078404534
  0.5128142797832211  0.9107729152688719  0.5927223926459106
  0.6842133767689731  0.1636695749415082  0.5962132986201496
  0.6828390036761789  0.4040563261832943  0.5967167390960597
  0.6852782747972910  0.6609566642234270  0.5991488265702500
  0.6838328322701059  0.9124773509880058  0.5982103270491876
  0.2531662828512538  0.0923205311427182  0.4127127908082713
  0.2529844391593059  0.3543485160709352  0.4124454870870267
  0.2538944028936356  0.5932963517813121  0.4120352257758384
  0.2539312023593183  0.8529966511747986  0.4127443295577535
  0.4253174611742381  0.0981735016281959  0.4068461377613346
  0.4251808641980972  0.3485775847976598  0.4069391794649491
  0.4265431490964886  0.5981772424166749  0.4069208448906565
  0.4264675182976347  0.8479403478796144  0.4070154453738084
  0.5984084723331193  0.0989857133370506  0.4070696025651870
  0.5965273345443478  0.3474488842645584  0.4072970977076267
  0.6006868781083483  0.5968810027038671  0.4079081053697990
  0.5991371447746587  0.8484087812669543  0.4075287674768830
  0.2298073824445623  0.2233086498260022  0.4999997309129540
  0.2271777516045077  0.4742627689714709  0.4997529926985251
  0.2304607903395137  0.7229813117886437  0.4999645847182066
  0.2275268937357637  0.9723252214652049  0.4999957047191401
  0.4234409038037512  0.2230953405384142  0.4078663926497725
  0.4264620092567668  0.4734834237893395  0.4072680587590725
  0.4254951318384457  0.7228585110812560  0.4079852189344493
  0.4265634504154363  0.9730778633875872  0.4073803307866015
  0.5966237578678388  0.2233168857695986  0.4074912027263125
  0.5999702443016872  0.4736296765387351  0.4076583784650154
  0.5996733885283163  0.7228653506115705  0.4076598777879283
  0.5987398658934637  0.9743443050715470  0.4074365871022394
  0.3397873467269648  0.0344589295566351  0.4047692137700523
  0.3365794086276281  0.2866231905926000  0.4080574198496834
  0.3401983544262777  0.5350946050918708  0.4047506060874184
  0.3380544545215756  0.7860032485881447  0.4080504093909525
  0.5121913525282977  0.0362301982233220  0.4076378501233080
  0.5102110232357617  0.2854528852076896  0.4071127080822947
  0.5132251756232336  0.5355720158112192  0.4075731864398549
  0.5127928100333321  0.7853238648763394  0.4078048382874897
  0.6875929237401124  0.0380630908514945  0.4123818960465400
  0.6838487221924368  0.2840286293142427  0.4044370356406475
  0.6931579802586256  0.5328947962057597  0.4127401461654969
  0.6878161706537611  0.7868605596854081  0.4116692891588301
  0.3366539121524568  0.1600170960935046  0.4079516180593004
  0.3395951383252722  0.4120863450372951  0.4047061456724208
  0.3379911695274629  0.6600450683492909  0.4081416793032844
  0.3403776667466474  0.9112304337190196  0.4048401228301728
  0.5109063341864655  0.1607725425205047  0.4072943883486886
  0.5120926912644705  0.4109471198919366  0.4073429047693509
  0.5131583433242568  0.6602071929975537  0.4074760163361262
  0.5128081995192773  0.9107725473271415  0.4073118299047920
  0.6842081670342068  0.1636718012771539  0.4037897605068110
  0.7752475917118957  0.9125360386472110  0.5000466873827278
  0.7674675804277697  0.7868731066648280  0.4999758818245041
  0.7765035443032318  0.6650906608875147  0.5000036637524943
  0.7737767033175871  0.4143489231606949  0.4999925752448036
  0.7729032144275152  0.2883560807173424  0.5000009834429449
  0.7740057545633405  0.1662758266980902  0.4999970776488283
  0.7674070766239041  0.0389946965098602  0.4999992557333570
  0.6828442906046419  0.4040766680538042  0.4033429216296938
  0.6852689287444633  0.6609594504086331  0.4008752858210016
  0.6838326218857631  0.9124794134525800  0.4018152099641910
  0.7994334562652980  0.5434603372340376  0.5000022837274258
  0.7695113893840784  0.5667215981109308  0.4999992046007762
 
  0.00000000E+00  0.00000000E+00  0.00000000E+00
  0.00000000E+00  0.00000000E+00  0.00000000E+00
  0.00000000E+00  0.00000000E+00  0.00000000E+00
  0.00000000E+00  0.00000000E+00  0.00000000E+00
  0.00000000E+00  0.00000000E+00  0.00000000E+00
  0.00000000E+00  0.00000000E+00  0.00000000E+00
  0.00000000E+00  0.00000000E+00  0.00000000E+00
  0.00000000E+00  0.00000000E+00  0.00000000E+00
  0.00000000E+00  0.00000000E+00  0.00000000E+00
  0.00000000E+00  0.00000000E+00  0.00000000E+00
  0.00000000E+00  0.00000000E+00  0.00000000E+00
  0.00000000E+00  0.00000000E+00  0.00000000E+00
  0.00000000E+00  0.00000000E+00  0.00000000E+00
  0.00000000E+00  0.00000000E+00  0.00000000E+00
  0.00000000E+00  0.00000000E+00  0.00000000E+00
  0.00000000E+00  0.00000000E+00  0.00000000E+00
  0.00000000E+00  0.00000000E+00  0.00000000E+00
  0.00000000E+00  0.00000000E+00  0.00000000E+00
  0.00000000E+00  0.00000000E+00  0.00000000E+00
  0.00000000E+00  0.00000000E+00  0.00000000E+00
  0.00000000E+00  0.00000000E+00  0.00000000E+00
  0.00000000E+00  0.00000000E+00  0.00000000E+00
  0.00000000E+00  0.00000000E+00  0.00000000E+00
  0.00000000E+00  0.00000000E+00  0.00000000E+00
  0.00000000E+00  0.00000000E+00  0.00000000E+00
  0.00000000E+00  0.00000000E+00  0.00000000E+00
  0.00000000E+00  0.00000000E+00  0.00000000E+00
  0.00000000E+00  0.00000000E+00  0.00000000E+00
  0.00000000E+00  0.00000000E+00  0.00000000E+00
  0.00000000E+00  0.00000000E+00  0.00000000E+00
  0.00000000E+00  0.00000000E+00  0.00000000E+00
  0.00000000E+00  0.00000000E+00  0.00000000E+00
  0.00000000E+00  0.00000000E+00  0.00000000E+00
  0.00000000E+00  0.00000000E+00  0.00000000E+00
  0.00000000E+00  0.00000000E+00  0.00000000E+00
  0.00000000E+00  0.00000000E+00  0.00000000E+00
  0.00000000E+00  0.00000000E+00  0.00000000E+00
  0.00000000E+00  0.00000000E+00  0.00000000E+00
  0.00000000E+00  0.00000000E+00  0.00000000E+00
  0.00000000E+00  0.00000000E+00  0.00000000E+00
  0.00000000E+00  0.00000000E+00  0.00000000E+00
  0.00000000E+00  0.00000000E+00  0.00000000E+00
  0.00000000E+00  0.00000000E+00  0.00000000E+00
  0.00000000E+00  0.00000000E+00  0.00000000E+00
  0.00000000E+00  0.00000000E+00  0.00000000E+00
  0.00000000E+00  0.00000000E+00  0.00000000E+00
  0.00000000E+00  0.00000000E+00  0.00000000E+00
  0.00000000E+00  0.00000000E+00  0.00000000E+00
  0.00000000E+00  0.00000000E+00  0.00000000E+00
  0.00000000E+00  0.00000000E+00  0.00000000E+00
  0.00000000E+00  0.00000000E+00  0.00000000E+00
  0.00000000E+00  0.00000000E+00  0.00000000E+00
  0.00000000E+00  0.00000000E+00  0.00000000E+00
  0.00000000E+00  0.00000000E+00  0.00000000E+00
  0.00000000E+00  0.00000000E+00  0.00000000E+00
  0.00000000E+00  0.00000000E+00  0.00000000E+00
  0.00000000E+00  0.00000000E+00  0.00000000E+00
  0.00000000E+00  0.00000000E+00  0.00000000E+00
  0.00000000E+00  0.00000000E+00  0.00000000E+00
  0.00000000E+00  0.00000000E+00  0.00000000E+00
  0.00000000E+00  0.00000000E+00  0.00000000E+00
  0.00000000E+00  0.00000000E+00  0.00000000E+00
  0.00000000E+00  0.00000000E+00  0.00000000E+00
  0.00000000E+00  0.00000000E+00  0.00000000E+00
  0.00000000E+00  0.00000000E+00  0.00000000E+00
  0.00000000E+00  0.00000000E+00  0.00000000E+00
  0.00000000E+00  0.00000000E+00  0.00000000E+00
  0.00000000E+00  0.00000000E+00  0.00000000E+00
  0.00000000E+00  0.00000000E+00  0.00000000E+00
  0.00000000E+00  0.00000000E+00  0.00000000E+00
  0.00000000E+00  0.00000000E+00  0.00000000E+00
  0.00000000E+00  0.00000000E+00  0.00000000E+00
  0.00000000E+00  0.00000000E+00  0.00000000E+00
  0.00000000E+00  0.00000000E+00  0.00000000E+00
  0.00000000E+00  0.00000000E+00  0.00000000E+00
  0.00000000E+00  0.00000000E+00  0.00000000E+00
  0.00000000E+00  0.00000000E+00  0.00000000E+00
  0.00000000E+00  0.00000000E+00  0.00000000E+00
  0.00000000E+00  0.00000000E+00  0.00000000E+00
  0.00000000E+00  0.00000000E+00  0.00000000E+00
  0.00000000E+00  0.00000000E+00  0.00000000E+00
  0.00000000E+00  0.00000000E+00  0.00000000E+00
  0.00000000E+00  0.00000000E+00  0.00000000E+00
  0.00000000E+00  0.00000000E+00  0.00000000E+00
  0.00000000E+00  0.00000000E+00  0.00000000E+00
  0.00000000E+00  0.00000000E+00  0.00000000E+00
  0.00000000E+00  0.00000000E+00  0.00000000E+00
  0.00000000E+00  0.00000000E+00  0.00000000E+00
  0.00000000E+00  0.00000000E+00  0.00000000E+00
  0.00000000E+00  0.00000000E+00  0.00000000E+00
  0.00000000E+00  0.00000000E+00  0.00000000E+00
  0.00000000E+00  0.00000000E+00  0.00000000E+00
  0.00000000E+00  0.00000000E+00  0.00000000E+00
  0.00000000E+00  0.00000000E+00  0.00000000E+00
  0.00000000E+00  0.00000000E+00  0.00000000E+00
  0.00000000E+00  0.00000000E+00  0.00000000E+00
  0.00000000E+00  0.00000000E+00  0.00000000E+00
  0.00000000E+00  0.00000000E+00  0.00000000E+00
  0.00000000E+00  0.00000000E+00  0.00000000E+00
  0.00000000E+00  0.00000000E+00  0.00000000E+00
  0.00000000E+00  0.00000000E+00  0.00000000E+00
  0.00000000E+00  0.00000000E+00  0.00000000E+00
  0.00000000E+00  0.00000000E+00  0.00000000E+00
  0.00000000E+00  0.00000000E+00  0.00000000E+00
  0.00000000E+00  0.00000000E+00  0.00000000E+00
  0.00000000E+00  0.00000000E+00  0.00000000E+00
  0.00000000E+00  0.00000000E+00  0.00000000E+00
  0.00000000E+00  0.00000000E+00  0.00000000E+00
  0.00000000E+00  0.00000000E+00  0.00000000E+00
  0.00000000E+00  0.00000000E+00  0.00000000E+00
  0.00000000E+00  0.00000000E+00  0.00000000E+00
  0.00000000E+00  0.00000000E+00  0.00000000E+00
  0.00000000E+00  0.00000000E+00  0.00000000E+00
  0.00000000E+00  0.00000000E+00  0.00000000E+00
  0.00000000E+00  0.00000000E+00  0.00000000E+00
  0.00000000E+00  0.00000000E+00  0.00000000E+00
  0.00000000E+00  0.00000000E+00  0.00000000E+00
  0.00000000E+00  0.00000000E+00  0.00000000E+00
  0.00000000E+00  0.00000000E+00  0.00000000E+00
  0.00000000E+00  0.00000000E+00  0.00000000E+00
  0.00000000E+00  0.00000000E+00  0.00000000E+00
  0.00000000E+00  0.00000000E+00  0.00000000E+00
  0.00000000E+00  0.00000000E+00  0.00000000E+00
  0.00000000E+00  0.00000000E+00  0.00000000E+00
  0.00000000E+00  0.00000000E+00  0.00000000E+00
  0.00000000E+00  0.00000000E+00  0.00000000E+00
  0.00000000E+00  0.00000000E+00  0.00000000E+00
  0.00000000E+00  0.00000000E+00  0.00000000E+00
  0.00000000E+00  0.00000000E+00  0.00000000E+00
  0.00000000E+00  0.00000000E+00  0.00000000E+00
  0.00000000E+00  0.00000000E+00  0.00000000E+00
  0.00000000E+00  0.00000000E+00  0.00000000E+00
  0.00000000E+00  0.00000000E+00  0.00000000E+00
  0.00000000E+00  0.00000000E+00  0.00000000E+00
  0.00000000E+00  0.00000000E+00  0.00000000E+00
  0.00000000E+00  0.00000000E+00  0.00000000E+00
  0.00000000E+00  0.00000000E+00  0.00000000E+00
  0.00000000E+00  0.00000000E+00  0.00000000E+00
  0.00000000E+00  0.00000000E+00  0.00000000E+00
  0.00000000E+00  0.00000000E+00  0.00000000E+00
  0.00000000E+00  0.00000000E+00  0.00000000E+00
  0.00000000E+00  0.00000000E+00  0.00000000E+00
  0.00000000E+00  0.00000000E+00  0.00000000E+00
  0.00000000E+00  0.00000000E+00  0.00000000E+00
  0.00000000E+00  0.00000000E+00  0.00000000E+00
  0.00000000E+00  0.00000000E+00  0.00000000E+00
  0.00000000E+00  0.00000000E+00  0.00000000E+00
  0.00000000E+00  0.00000000E+00  0.00000000E+00
  0.00000000E+00  0.00000000E+00  0.00000000E+00
