Mo48 Se99                               
   1.00000000000000     
    33.0000000000000000    0.0000000000000000    0.0000000000000000
     0.0000000000000000   26.3120002747000008    0.0000000000000000
     0.0000000000000000    0.0000000000000000   18.0970001220999990
   Mo   Se   O    C 
    48    99     2     1
Direct
  0.2891359168363768  0.0255247558822389  0.4988712305992554
  0.2872953708679293  0.2731680990529110  0.4844884224093829
  0.2829326563476611  0.5420609994595158  0.4984157970395026
  0.2834239138677223  0.7928258059845827  0.5034766128638789
  0.4561016778436895  0.0359629237159821  0.4999333412345748
  0.4534753985317447  0.2853354081026217  0.4986896108914977
  0.4543162850988233  0.5356763059552773  0.5001422387830992
  0.4567211061298954  0.7861695264342837  0.5008026530814685
  0.6284848578095574  0.0372412163686407  0.5007735319344597
  0.6265374590867792  0.2858638113300304  0.5008069589770238
  0.6272873980542373  0.5341514502521006  0.5010682821227546
  0.6288448433295072  0.7854988898811557  0.5009003334474803
  0.2881124309512465  0.1667706226406565  0.4959036503755225
  0.2811623363673103  0.4061617904858192  0.4935717980925693
  0.2836623461248634  0.6636130864732885  0.5080426229364430
  0.2901524340180470  0.9184868352477387  0.5017108468449908
  0.4547037169113985  0.1603218537104701  0.4991733470034154
  0.4533679255536672  0.4103500219414393  0.4994432668750646
  0.4557383289773492  0.6605570437853212  0.5007290735279363
  0.4571675158057684  0.9109254016349402  0.5006036919572587
  0.6274645110993657  0.1623449384767497  0.5007426133788841
  0.6265992334465668  0.4092901606188306  0.5008677279770336
  0.6285559628771168  0.6596281584015659  0.5009746657062946
  0.6294180433331051  0.9114985455586508  0.5008245876590360
  0.3680135320736684  0.2212587327424023  0.4955691509342984
  0.3660986836868488  0.4732421030742990  0.4986836725759661
  0.3693529735865416  0.7245586227168598  0.5014484821442444
  0.3705363928889169  0.9740535694783535  0.5001423118205079
  0.5401516978196762  0.2235886469274072  0.5002271646401039
  0.5408948702269488  0.4722489040179677  0.5006301166066356
  0.5426526655659931  0.7227913530272196  0.5008044013960297
  0.5430503841651038  0.9738053502840777  0.5005680033798036
  0.7144680120975547  0.2278330913844096  0.5008977563201752
  0.7151853193630241  0.4616673246931680  0.5010799964903460
  0.7157723269294373  0.7141128246727610  0.5007991744888616
  0.7161171069662532  0.9661109261053181  0.5008443134379266
  0.3677451787873813  0.0974617682486384  0.4983370585108115
  0.3667310489796317  0.3469349812974254  0.4950785004755903
  0.3696681345678844  0.5987457932136971  0.5007151807977387
  0.3716121075820566  0.8494736735105293  0.5013796772188698
  0.5422856836975638  0.0990854839459459  0.5003391356832493
  0.5395765277549740  0.3478343670195677  0.5003248015865487
  0.5416916863719888  0.5975808885208782  0.5008624832718157
  0.5432842013220622  0.8485214165234858  0.5007227819985094
  0.7161454061330493  0.1099078378632428  0.5009262722030439
  0.7140594249048978  0.3441115239823754  0.5009438590310868
  0.7152052505734503  0.6050180341938094  0.5009003571540429
  0.7162310069901047  0.8567997813365509  0.5008573164911435
  0.2434920676463901  0.0961668063605241  0.5607382189543908
  0.2500115794329799  0.3399987244547199  0.5667462510576066
  0.2545875070309542  0.6042275612164358  0.5951307378721831
  0.2578323540316567  0.8549551448059149  0.5935594627835932
  0.4257530311985173  0.0980305261809786  0.5914296047426020
  0.4231634157588769  0.3476811363665264  0.5903645093869244
  0.4268141613718511  0.5981326445283764  0.5937398985325300
  0.4289126233761757  0.8486150231392460  0.5940731076086166
  0.5998525190277482  0.0991250018377637  0.5935911492627176
  0.5969238538181623  0.3478065080109865  0.5932474630344705
  0.5994456668800139  0.5970821151881190  0.5935471840395450
  0.6009876580078840  0.8482787500762362  0.5933347610911957
  0.4247272255246040  0.2227073163759855  0.5908165349631870
  0.4239194059519373  0.4728200271497665  0.5913920252412154
  0.4276484912507142  0.7236957889044284  0.5933302196508129
  0.4283447171367545  0.9735930635596771  0.5931215305737727
  0.5974631715535028  0.2237021571238537  0.5932021046442311
  0.5985756427726965  0.4723039176150709  0.5937815511128703
  0.6004129537108449  0.7229362904005130  0.5933609626410343
  0.6007373873606986  0.9742775012657194  0.5933212609670271
  0.3394973716802848  0.0351466213118144  0.5957287002591054
  0.3358300225403651  0.2828973802254691  0.5869644198767434
  0.3380946594253543  0.5364300219129443  0.5926619822306965
  0.3408402037093649  0.7872369740500631  0.5941192396904780
  0.5137949298511980  0.0363040545025815  0.5927355207166048
  0.5104160150042002  0.2856059122397340  0.5926298186446277
  0.5121104253799910  0.5350235954158634  0.5928634205546154
  0.5144689776215370  0.7857914670975255  0.5932311871617031
  0.6892787091673974  0.0379065796658889  0.5883896352772747
  0.6847614844483279  0.2858563232061331  0.5968092068527941
  0.6881647087521020  0.5334875388140059  0.5886435127777891
  0.6895140034645205  0.7855123722132488  0.5887541542585208
  0.3384293207223577  0.1603242443938495  0.5934816123148445
  0.3357586168185501  0.4097206803271050  0.5896678041840648
  0.3424420044652011  0.6621951559132337  0.5948329960084353
  0.3434714750505782  0.9121555965872938  0.5965517895805397
  0.5119997297320893  0.1606855793826031  0.5926745076651134
  0.5107490842302838  0.4104289285672230  0.5928307539892685
  0.5134903557426120  0.6604679567372297  0.5933986608224727
  0.5148007782926535  0.9110845679835241  0.5933446224912470
  0.6853741185950138  0.1646519904640902  0.5966148850305106
  0.6844715191947843  0.4070024064644271  0.5967396573895644
  0.6850973156079241  0.6596818498516721  0.5989591438136455
  0.6858532201688821  0.9115201168469774  0.5989430348722325
  0.2440382143174063  0.0949120329060503  0.4330539079876833
  0.2525787063580100  0.6021846070684782  0.4129748107240492
  0.2560668771454726  0.8541882684114688  0.4141799423964997
  0.4264402015594780  0.0974093167045571  0.4068849832721336
  0.4256994072903676  0.3483043989009321  0.4054631370408703
  0.4265985647765380  0.5988217520195387  0.4072652212556204
  0.4285567652495345  0.8484371188177950  0.4077300615263869
  0.6001282485786328  0.0990839830130492  0.4076134947948823
  0.5972803942482040  0.3478537437883473  0.4081179266682963
  0.5995638349435337  0.5970559785554481  0.4085257811412560
  0.6010666757409470  0.8482018347484880  0.4083250003568206
  0.2278277902494251  0.2193977847540608  0.4884372584422331
  0.2340542491250932  0.4783022297323684  0.5223765593753757
  0.2309138164229187  0.7274818972639432  0.5021252480793348
  0.2297059015478910  0.9701024175953260  0.5010496907289805
  0.4268519382937947  0.2220048494663663  0.4051316320547189
  0.4248689939604528  0.4735396601325044  0.4074170422447718
  0.4270270820824887  0.7237441031146389  0.4087540090817897
  0.4284379216280538  0.9730230237654213  0.4074046231204298
  0.5978087421368261  0.2237286907793441  0.4080107125085102
  0.5988136041077075  0.4724329004053707  0.4079323082505183
  0.6004752105839591  0.7229081706902534  0.4084317777758801
  0.6008731771665058  0.9742141333443026  0.4082110651657587
  0.3399694644086174  0.0338735251863238  0.4023667403679671
  0.3428547320224034  0.2833173424327984  0.3964364388387911
  0.3394267149239148  0.5372270945172900  0.4063573338362706
  0.3396576167320820  0.7869073808076591  0.4100328208821377
  0.5140759783830378  0.0360999665471542  0.4078385709672219
  0.5114298625105798  0.2856613163017512  0.4069056178683916
  0.5124504105652438  0.5353026667296580  0.4083536268400123
  0.5144183915793128  0.7857173644430482  0.4082635551966022
  0.6893401226711320  0.0379425944041771  0.4133287603147801
  0.6848210593120193  0.2858981759615210  0.4050025979152727
  0.6881564577599887  0.5334160051119806  0.4135274897493300
  0.6895105109763877  0.7854920521625658  0.4130255753589712
  0.3391497571952719  0.1588400137205165  0.3998825702743522
  0.3378733918415183  0.4106649427850745  0.4037766157283268
  0.3378775033389997  0.6623036362464454  0.4108326419582715
  0.3428701115900364  0.9112582507185109  0.4057747008813935
  0.5127710129043459  0.1605405631435440  0.4072490709999163
  0.5114760209795047  0.4107172008765372  0.4075427527947466
  0.5135539760777041  0.6604739509380044  0.4081554779764229
  0.5148589662097381  0.9109274203576732  0.4078703129139052
  0.6854898365047103  0.1646420467266597  0.4051360143110852
  0.7769774919539060  0.9124669754123288  0.5004786214955456
  0.7689752989430909  0.7852399499521708  0.5012853358013958
  0.7762882943694857  0.6581867438380506  0.4991065532030176
  0.7677628682751835  0.5320503825479601  0.5012740460284476
  0.7741261745839506  0.4057572364401049  0.5006815516147561
  0.7739235924244519  0.2861531772331803  0.5006288771552703
  0.7748036296607316  0.1662475484964626  0.5007761654981679
  0.7686713086616811  0.0392943936575228  0.5009223087101198
  0.6846114168786837  0.4070346105258087  0.4051872327629469
  0.6849735042189530  0.6595719777671838  0.4028028168679318
  0.6858744213220722  0.9115347577388183  0.4027042585266489
  0.2374905056713741  0.3982629869680005  0.3921500748882561
  0.2550490451322428  0.3131102161483962  0.3963329082183526
  0.2566505516365460  0.3597794257476199  0.4130722464307127
 
  0.00000000E+00  0.00000000E+00  0.00000000E+00
  0.00000000E+00  0.00000000E+00  0.00000000E+00
  0.00000000E+00  0.00000000E+00  0.00000000E+00
  0.00000000E+00  0.00000000E+00  0.00000000E+00
  0.00000000E+00  0.00000000E+00  0.00000000E+00
  0.00000000E+00  0.00000000E+00  0.00000000E+00
  0.00000000E+00  0.00000000E+00  0.00000000E+00
  0.00000000E+00  0.00000000E+00  0.00000000E+00
  0.00000000E+00  0.00000000E+00  0.00000000E+00
  0.00000000E+00  0.00000000E+00  0.00000000E+00
  0.00000000E+00  0.00000000E+00  0.00000000E+00
  0.00000000E+00  0.00000000E+00  0.00000000E+00
  0.00000000E+00  0.00000000E+00  0.00000000E+00
  0.00000000E+00  0.00000000E+00  0.00000000E+00
  0.00000000E+00  0.00000000E+00  0.00000000E+00
  0.00000000E+00  0.00000000E+00  0.00000000E+00
  0.00000000E+00  0.00000000E+00  0.00000000E+00
  0.00000000E+00  0.00000000E+00  0.00000000E+00
  0.00000000E+00  0.00000000E+00  0.00000000E+00
  0.00000000E+00  0.00000000E+00  0.00000000E+00
  0.00000000E+00  0.00000000E+00  0.00000000E+00
  0.00000000E+00  0.00000000E+00  0.00000000E+00
  0.00000000E+00  0.00000000E+00  0.00000000E+00
  0.00000000E+00  0.00000000E+00  0.00000000E+00
  0.00000000E+00  0.00000000E+00  0.00000000E+00
  0.00000000E+00  0.00000000E+00  0.00000000E+00
  0.00000000E+00  0.00000000E+00  0.00000000E+00
  0.00000000E+00  0.00000000E+00  0.00000000E+00
  0.00000000E+00  0.00000000E+00  0.00000000E+00
  0.00000000E+00  0.00000000E+00  0.00000000E+00
  0.00000000E+00  0.00000000E+00  0.00000000E+00
  0.00000000E+00  0.00000000E+00  0.00000000E+00
  0.00000000E+00  0.00000000E+00  0.00000000E+00
  0.00000000E+00  0.00000000E+00  0.00000000E+00
  0.00000000E+00  0.00000000E+00  0.00000000E+00
  0.00000000E+00  0.00000000E+00  0.00000000E+00
  0.00000000E+00  0.00000000E+00  0.00000000E+00
  0.00000000E+00  0.00000000E+00  0.00000000E+00
  0.00000000E+00  0.00000000E+00  0.00000000E+00
  0.00000000E+00  0.00000000E+00  0.00000000E+00
  0.00000000E+00  0.00000000E+00  0.00000000E+00
  0.00000000E+00  0.00000000E+00  0.00000000E+00
  0.00000000E+00  0.00000000E+00  0.00000000E+00
  0.00000000E+00  0.00000000E+00  0.00000000E+00
  0.00000000E+00  0.00000000E+00  0.00000000E+00
  0.00000000E+00  0.00000000E+00  0.00000000E+00
  0.00000000E+00  0.00000000E+00  0.00000000E+00
  0.00000000E+00  0.00000000E+00  0.00000000E+00
  0.00000000E+00  0.00000000E+00  0.00000000E+00
  0.00000000E+00  0.00000000E+00  0.00000000E+00
  0.00000000E+00  0.00000000E+00  0.00000000E+00
  0.00000000E+00  0.00000000E+00  0.00000000E+00
  0.00000000E+00  0.00000000E+00  0.00000000E+00
  0.00000000E+00  0.00000000E+00  0.00000000E+00
  0.00000000E+00  0.00000000E+00  0.00000000E+00
  0.00000000E+00  0.00000000E+00  0.00000000E+00
  0.00000000E+00  0.00000000E+00  0.00000000E+00
  0.00000000E+00  0.00000000E+00  0.00000000E+00
  0.00000000E+00  0.00000000E+00  0.00000000E+00
  0.00000000E+00  0.00000000E+00  0.00000000E+00
  0.00000000E+00  0.00000000E+00  0.00000000E+00
  0.00000000E+00  0.00000000E+00  0.00000000E+00
  0.00000000E+00  0.00000000E+00  0.00000000E+00
  0.00000000E+00  0.00000000E+00  0.00000000E+00
  0.00000000E+00  0.00000000E+00  0.00000000E+00
  0.00000000E+00  0.00000000E+00  0.00000000E+00
  0.00000000E+00  0.00000000E+00  0.00000000E+00
  0.00000000E+00  0.00000000E+00  0.00000000E+00
  0.00000000E+00  0.00000000E+00  0.00000000E+00
  0.00000000E+00  0.00000000E+00  0.00000000E+00
  0.00000000E+00  0.00000000E+00  0.00000000E+00
  0.00000000E+00  0.00000000E+00  0.00000000E+00
  0.00000000E+00  0.00000000E+00  0.00000000E+00
  0.00000000E+00  0.00000000E+00  0.00000000E+00
  0.00000000E+00  0.00000000E+00  0.00000000E+00
  0.00000000E+00  0.00000000E+00  0.00000000E+00
  0.00000000E+00  0.00000000E+00  0.00000000E+00
  0.00000000E+00  0.00000000E+00  0.00000000E+00
  0.00000000E+00  0.00000000E+00  0.00000000E+00
  0.00000000E+00  0.00000000E+00  0.00000000E+00
  0.00000000E+00  0.00000000E+00  0.00000000E+00
  0.00000000E+00  0.00000000E+00  0.00000000E+00
  0.00000000E+00  0.00000000E+00  0.00000000E+00
  0.00000000E+00  0.00000000E+00  0.00000000E+00
  0.00000000E+00  0.00000000E+00  0.00000000E+00
  0.00000000E+00  0.00000000E+00  0.00000000E+00
  0.00000000E+00  0.00000000E+00  0.00000000E+00
  0.00000000E+00  0.00000000E+00  0.00000000E+00
  0.00000000E+00  0.00000000E+00  0.00000000E+00
  0.00000000E+00  0.00000000E+00  0.00000000E+00
  0.00000000E+00  0.00000000E+00  0.00000000E+00
  0.00000000E+00  0.00000000E+00  0.00000000E+00
  0.00000000E+00  0.00000000E+00  0.00000000E+00
  0.00000000E+00  0.00000000E+00  0.00000000E+00
  0.00000000E+00  0.00000000E+00  0.00000000E+00
  0.00000000E+00  0.00000000E+00  0.00000000E+00
  0.00000000E+00  0.00000000E+00  0.00000000E+00
  0.00000000E+00  0.00000000E+00  0.00000000E+00
  0.00000000E+00  0.00000000E+00  0.00000000E+00
  0.00000000E+00  0.00000000E+00  0.00000000E+00
  0.00000000E+00  0.00000000E+00  0.00000000E+00
  0.00000000E+00  0.00000000E+00  0.00000000E+00
  0.00000000E+00  0.00000000E+00  0.00000000E+00
  0.00000000E+00  0.00000000E+00  0.00000000E+00
  0.00000000E+00  0.00000000E+00  0.00000000E+00
  0.00000000E+00  0.00000000E+00  0.00000000E+00
  0.00000000E+00  0.00000000E+00  0.00000000E+00
  0.00000000E+00  0.00000000E+00  0.00000000E+00
  0.00000000E+00  0.00000000E+00  0.00000000E+00
  0.00000000E+00  0.00000000E+00  0.00000000E+00
  0.00000000E+00  0.00000000E+00  0.00000000E+00
  0.00000000E+00  0.00000000E+00  0.00000000E+00
  0.00000000E+00  0.00000000E+00  0.00000000E+00
  0.00000000E+00  0.00000000E+00  0.00000000E+00
  0.00000000E+00  0.00000000E+00  0.00000000E+00
  0.00000000E+00  0.00000000E+00  0.00000000E+00
  0.00000000E+00  0.00000000E+00  0.00000000E+00
  0.00000000E+00  0.00000000E+00  0.00000000E+00
  0.00000000E+00  0.00000000E+00  0.00000000E+00
  0.00000000E+00  0.00000000E+00  0.00000000E+00
  0.00000000E+00  0.00000000E+00  0.00000000E+00
  0.00000000E+00  0.00000000E+00  0.00000000E+00
  0.00000000E+00  0.00000000E+00  0.00000000E+00
  0.00000000E+00  0.00000000E+00  0.00000000E+00
  0.00000000E+00  0.00000000E+00  0.00000000E+00
  0.00000000E+00  0.00000000E+00  0.00000000E+00
  0.00000000E+00  0.00000000E+00  0.00000000E+00
  0.00000000E+00  0.00000000E+00  0.00000000E+00
  0.00000000E+00  0.00000000E+00  0.00000000E+00
  0.00000000E+00  0.00000000E+00  0.00000000E+00
  0.00000000E+00  0.00000000E+00  0.00000000E+00
  0.00000000E+00  0.00000000E+00  0.00000000E+00
  0.00000000E+00  0.00000000E+00  0.00000000E+00
  0.00000000E+00  0.00000000E+00  0.00000000E+00
  0.00000000E+00  0.00000000E+00  0.00000000E+00
  0.00000000E+00  0.00000000E+00  0.00000000E+00
  0.00000000E+00  0.00000000E+00  0.00000000E+00
  0.00000000E+00  0.00000000E+00  0.00000000E+00
  0.00000000E+00  0.00000000E+00  0.00000000E+00
  0.00000000E+00  0.00000000E+00  0.00000000E+00
  0.00000000E+00  0.00000000E+00  0.00000000E+00
  0.00000000E+00  0.00000000E+00  0.00000000E+00
  0.00000000E+00  0.00000000E+00  0.00000000E+00
  0.00000000E+00  0.00000000E+00  0.00000000E+00
  0.00000000E+00  0.00000000E+00  0.00000000E+00
  0.00000000E+00  0.00000000E+00  0.00000000E+00
  0.00000000E+00  0.00000000E+00  0.00000000E+00
  0.00000000E+00  0.00000000E+00  0.00000000E+00
  0.00000000E+00  0.00000000E+00  0.00000000E+00
  0.00000000E+00  0.00000000E+00  0.00000000E+00
