Mo48 Se99
1.0
  33.0000000000         0.0000000000         0.0000000000
   0.0000000000        26.3120002747         0.0000000000
   0.0000000000         0.0000000000        18.0970001221
Mo Se O C
48 99 2 1
Cartesian
     9.493792110         0.698520195         9.071801939
     9.487239300         7.283831053         9.016380238
     9.492576390        13.849503424         9.102242360
     9.295598070        20.843484376         9.093861640
    15.003559890         0.947536177         9.064850158
    14.957546340         7.506735795         9.038727319
    15.004435380        14.077080650         9.067402559
    15.011637300        20.671682275         9.082890514
    20.695324980         0.968755226         9.052118918
    20.669589600         7.508755241         9.045696836
    20.693387880        14.053089631         9.047860151
    20.707812180        20.665943628         9.054836364
     9.484262040         4.465098033         9.027603998
     9.488535210        11.002061379         9.050893570
     9.308421870        17.269053079         9.097206146
     9.512643360        24.176534909         9.096597363
    14.973546390         4.226756830         9.046424697
    14.982337920        10.788752887         9.048709262
    15.007241040        17.368232480         9.079832664
    15.026648340        23.960497073         9.076307188
    20.679369480         4.258293341         9.047246301
    20.681143560        10.761436295         9.045927030
    20.716832400        17.355746120         9.049620446
    20.718316410        23.975720407         9.055656339
    12.127577550         5.852789770         9.026224102
    12.160175610        12.422613647         9.059418524
    12.121948410        19.018231968         9.096040156
    12.172083660        25.633555609         9.081383758
    17.808462210         5.875658581         9.046116686
    17.859146910        12.418896288         9.052800813
    17.867565540        19.011601607         9.067558555
    17.867540790        25.615250351         9.064114334
    23.561200740         5.980450596         9.044029378
    23.599184400        12.142943133         9.040283118
    23.589125010        18.790509236         9.034474343
    23.583728190        25.412672156         9.042621793
    12.096493530         2.581618747         9.058849735
    12.096177060         9.144845416         9.040789653
    12.174076860        15.712309634         9.091330050
    12.204259320        22.337502906         9.093685013
    17.856904890         2.601063052         9.054281148
    17.813244570         9.142454971         9.045679825
    17.862577920        15.720550816         9.062447781
    17.872943220        22.318370398         9.067663879
    23.599043160         2.878766217         9.043601022
    23.561969970         9.042344125         9.043404127
    23.583933120        15.919961309         9.034546007
    23.587953180        22.540571820         9.039467305
     8.026773480         2.598147419        10.203029854
     8.042868570         9.147625016         9.797767443
     8.377000830        15.570009074        10.636369398
     8.420473710        22.473210205        10.709593480
    14.022803520         2.589474721        10.725633394
    14.002683420         9.147246650        10.711852891
    14.076982260        15.722989938        10.761633576
    14.094988380        22.317868102        10.770736548
    19.763762700         2.600553388        10.734357415
    19.709100510         9.141876370        10.721388200
    19.776164430        15.706595457        10.727612120
    19.786142970        22.312818303        10.734415507
    14.021890410         5.864398361        10.721177732
    14.063228190        12.425420348        10.740166733
    14.049324960        19.019701493        10.752703611
    14.085298590        25.616246786        10.752375874
    19.704958680         5.876874985        10.721950655
    19.766612580        12.421470917        10.731498994
    19.785317970        19.015877044        10.729930346
    19.778341440        25.627427281        10.732801797
    11.166434070         0.938070961        10.818086806
    11.127605280         7.479688900        10.773901532
    11.263458030        14.038645396        10.812430226
    11.170560720        20.685134022        10.752502010
    16.915374960         0.954194428        10.733751528
    16.851069510         7.510507883        10.723000281
    16.918996710        14.068979975        10.732127684
    16.930532190        20.664017327        10.744769343
    22.707579840         0.989453824        10.630589578
    22.592674170         7.511745073        10.779388905
    22.707891030        14.034606767        10.623820938
    22.720453140        20.662996947        10.633761802
    11.153925750         4.249806142        10.788730757
    11.137842540        10.797348492        10.794273868
    11.162926500        17.359265613        10.765628850
    11.269653450        23.990861122        10.813893731
    16.875860430         4.227952973        10.726267694
    16.885026180        10.789498306        10.726872496
    16.924282650        17.368471919        10.746351383
    16.936778760        23.965563975        10.746859366
    22.593716970         4.320906429        10.777530885
    22.595382150        10.701839351        10.776589299
    22.590571740        17.353489866        10.814537984
    22.591253520        23.976545552        10.821971870
     8.016247140         2.551619909         7.892359274
     8.399396610        15.594199012         7.524419211
     8.424975240        22.480607824         7.478439801
    14.022562620         2.569995684         7.388152600
    14.011546890         9.158747362         7.368816317
    14.055722670        15.734844547         7.397069897
    14.079424590        22.311146176         7.398558194
    19.758526590         2.595269412         7.368350320
    19.708570860         9.141786383         7.369727501
    19.760151180        15.709246128         7.378287202
    19.771814700        22.312947758         7.386333852
     7.512114390         5.879319633         8.786824497
     7.519208070        12.451471070         8.922726634
     7.648723500        19.046708130         8.943638080
     7.529084310        25.556119129         9.101267837
    14.033045730         5.857410946         7.353924296
    14.054593080        12.444509968         7.377891239
    14.033222610        19.022304803         7.420555098
    14.075924610        25.603212084         7.396392707
    19.705137540         5.874938422         7.370412835
    19.759431780        12.424217890         7.365612606
    19.766917500        19.020537426         7.385049869
    19.766402700        25.623585203         7.383525740
    11.166239700         0.911036433         7.322335439
    11.143272030         7.510605238         7.286309198
    11.213409240        14.075291960         7.364073094
    11.164077540        20.682724896         7.436652380
    16.908324510         0.943075240         7.390213848
    16.857291000         7.509818509         7.362907104
    16.906542180        14.079664752         7.390085541
    16.913245140        20.664115207         7.402507865
    22.698852000         0.988133225         7.461815715
    22.590518280         7.511081485         7.308579548
    22.695253350        14.031862425         7.456235686
    22.700554140        20.666498548         7.452472596
    11.162426220         4.215902077         7.295339420
    11.129620260        10.794674140         7.305265806
    11.151138240        17.371696718         7.426597505
    11.259193770        23.980398155         7.369934712
    16.880851680         4.219318427         7.371780244
    16.884377730        10.796842775         7.370870689
    16.907113740        17.373193608         7.394275177
    16.925228430        23.961274067         7.392143170
    22.589356350         4.320429129         7.311481764
    25.592027010        24.003758738         9.017760135
    25.335986280        20.666628793         9.023124447
    25.593366150        17.327837508         9.011168664
    25.325503170        14.002672681         9.030682660
    25.542985050        10.666313152         9.043273466
    25.531082610         7.508760766         9.045773205
    25.542172260         4.353429114         9.047484638
    25.325678400         1.017790007         9.039799928
    22.590006780        10.700890277         7.310424718
    22.571144970        17.354022947         7.265587952
    22.572674850        23.978864691         7.271466401
     9.488000000        11.002000000         7.305000000
     9.488000000         8.682000000         7.305000000
     9.488000000         9.842000000         7.305000000
