Mo48 H4 Se97 C1 O1                      
   1.00000000000000     
    33.0000000000000000    0.0000000000000000    0.0000000000000000
     0.0000000000000000   26.3120002699999986    0.0000000000000000
     0.0000000000000000    0.0000000000000000   18.0970000000000013
   Mo   Se   O    C    H 
    48    97     1     1     4
Direct
  0.2866224553247367  0.0260904088012326  0.4979001565641882
  0.2809197350819972  0.2888166799131640  0.4980379095419044
  0.2866398093321336  0.5250689693523621  0.4978387154241545
  0.2806312242994576  0.7881547102289882  0.4980305414922933
  0.4547255304582266  0.0337304711350969  0.4984697256025403
  0.4547086258584754  0.2838140246007679  0.4988400147453834
  0.4549852878755067  0.5332206729519926  0.4988302005164532
  0.4536526478916263  0.7834495086997337  0.4984776812688241
  0.6270291758708850  0.0332210184540433  0.4985344262656969
  0.6294550619255351  0.2823375610569673  0.4997016172426885
  0.6288970999941377  0.5331239534047565  0.5001650588040925
  0.6267001549105995  0.7832564717785577  0.4985823116559701
  0.2809210812971326  0.1538157390599881  0.4979439261918246
  0.2868364925248442  0.4158566464470526  0.4979649624274564
  0.2805655255947527  0.6526038011943305  0.4978348580790869
  0.2863974111811510  0.9164690109706168  0.4979788174742947
  0.4544045844988299  0.1586404437624851  0.4985613683964538
  0.4556820928790351  0.4080739069516784  0.4989957684209704
  0.4539415222670765  0.6579988274853146  0.4984879194951861
  0.4546992753182392  0.9081122552770691  0.4984078904489290
  0.6272961128830965  0.1579510514705716  0.4989673491331945
  0.6310480911715356  0.4100143865091015  0.5009558510338074
  0.6266979822792808  0.6590387610544688  0.4990545250817359
  0.6275420475477903  0.9081222201518904  0.4984687930713270
  0.3669451192767377  0.2211878908407587  0.4983662733974156
  0.3690627002042492  0.4705931960003458  0.4984633328713701
  0.3661853319740704  0.7206925447411261  0.4981851257386312
  0.3686069070122500  0.9710518643449816  0.4981401706756178
  0.5412159528237666  0.2212564056711641  0.4989931591797745
  0.5423038032569120  0.4707718611633006  0.4995732692321920
  0.5400633718654225  0.7208079945678546  0.4986824094095329
  0.5410829845745327  0.9707026260360202  0.4985293809117984
  0.7103841166325581  0.2096766118667811  0.4992473341371315
  0.7073848197338807  0.4704632897687438  0.5011462836997117
  0.7139899488813238  0.7130298165681530  0.4985773116477505
  0.7150550166966845  0.9621822740309223  0.4982412504178175
  0.3688473747939844  0.0955177087468652  0.4982013054337324
  0.3692515032797302  0.3468196596047432  0.4984942062534678
  0.3686987948100173  0.5948231208764336  0.4982336687621580
  0.3683531852611928  0.8466455760891216  0.4982165715809018
  0.5407336129963187  0.0960700531500797  0.4986652657815283
  0.5422934563682397  0.3459083649570934  0.4994300910404749
  0.5406750943203157  0.5958550930850769  0.4990912194245123
  0.5408010011889209  0.8458083252843666  0.4985433096509008
  0.7141409332701746  0.1026159808044129  0.4986940158507298
  0.7065171225646562  0.3499805494788769  0.4999834651192365
  0.7089043822333341  0.6050366783468988  0.4994724391571378
  0.7150553641711436  0.8536978095900064  0.4981753941171486
  0.2536909845029029  0.0909155975843530  0.5858305997571543
  0.2537478186931203  0.3512968587766473  0.5862678902030656
  0.2533802241945423  0.5897580944655940  0.5857040671972542
  0.2534117818485042  0.8514283036799062  0.5855042313138742
  0.4258933114521709  0.0961398303530211  0.5914953626674628
  0.4262561305560444  0.3459608256173947  0.5919343357946368
  0.4256790265045601  0.5956575717439943  0.5916028634615095
  0.4254617124001381  0.8459143036602705  0.5914668518393408
  0.5980845039874300  0.0950925892185963  0.5913227861333500
  0.6003876075963352  0.3456503040225283  0.5915387460810150
  0.5982096208709606  0.5956159957750100  0.5912520998061465
  0.5985235177291361  0.8456521238040888  0.5911596736916872
  0.4248776944238597  0.2211425153504331  0.5907063374569899
  0.4266199178651053  0.4705934811905099  0.5914784926630148
  0.4241528141936258  0.7207004497596268  0.5903986609778625
  0.4262318923715718  0.9709095960946768  0.5909888941272793
  0.5988365717169655  0.2212362922791091  0.5914611285775007
  0.5997867406954516  0.4712616610640392  0.5928452444447248
  0.5974368258746359  0.7217359251369748  0.5914021445160461
  0.5987839983569700  0.9707915120446879  0.5910900553866330
  0.3398928708191508  0.0328246180793414  0.5931585272060532
  0.3375545003799379  0.2841281565900899  0.5900019336440944
  0.3398255300488827  0.5322767855894245  0.5932423663266965
  0.3369788356790938  0.7838915364293443  0.5900735567756920
  0.5121856852653078  0.0332660606856764  0.5911736030064613
  0.5123944348032717  0.2835553543160951  0.5916101165410482
  0.5123749488897347  0.5332275089469620  0.5917271306062837
  0.5113047179419955  0.7834909589015239  0.5910629936530678
  0.6877009036497244  0.0324501274222006  0.5865657032009520
  0.6902617548225921  0.2788919501817472  0.5918543169855314
  0.6885154865448466  0.5383993908209914  0.5941034898455914
  0.6876115692230628  0.7835326770691853  0.5863024065318382
  0.3374199473991294  0.1581632887161143  0.5899942571511666
  0.3400288527195169  0.4092319608884377  0.5935580184000817
  0.3369978923630452  0.6575115728792487  0.5898821860541811
  0.3396032646985931  0.9095737708972838  0.5932665641850566
  0.5120026336221192  0.1586572113593379  0.5913290048047927
  0.5133075044076298  0.4081770394720681  0.5919850001918568
  0.5114116893715430  0.6584500097528264  0.5914352612526554
  0.5122539494724114  0.9082713174509036  0.5912081867673171
  0.6823161280525755  0.1548903046993640  0.5983098638307038
  0.6876085037480284  0.4093558216798678  0.6025250250969707
  0.6817487591009745  0.6616174410067182  0.5980133504069604
  0.6842288050756834  0.9078855347974064  0.5959585442806679
  0.2537239771657877  0.0910428987461265  0.4100028183536506
  0.2540156401904312  0.3512485220162863  0.4093451204324408
  0.2537019581972806  0.5897667744640753  0.4095669300063508
  0.2532400303483112  0.8513380009478752  0.4107669487123567
  0.4260765268997747  0.0962255980464521  0.4053738354283336
  0.4265291471240603  0.3460484831395640  0.4056767206732718
  0.4259527559751878  0.5954597372581600  0.4054685882161557
  0.4255967897317987  0.8458669734012575  0.4053255933345956
  0.5981469488684283  0.0953804787863615  0.4061382367339051
  0.6010041577028313  0.3463083694540585  0.4083198855340316
  0.5985630441710349  0.5948854815388795  0.4076299481858225
  0.5985027258240604  0.8455703045716448  0.4059301585793951
  0.2302528296847992  0.2213370710132222  0.4997745535248934
  0.2273487957645142  0.4702998592830677  0.4975788442326438
  0.2301239622749761  0.7204054283501190  0.4995249625677221
  0.2272338547896283  0.9715094653707906  0.4979283436896068
  0.4250967278413498  0.2213397910766716  0.4064687432668305
  0.4269132504489655  0.4704932078318529  0.4060765762351751
  0.4243628175246594  0.7207250424661403  0.4063246520250643
  0.4263910543906833  0.9709357324766078  0.4057355008444881
  0.5989939339035368  0.2218001635569622  0.4069766038805507
  0.6002695554755999  0.4710004016407414  0.4072525969735092
  0.5975325518470451  0.7214121750385660  0.4061735474276366
  0.5987413611166397  0.9708652417633103  0.4059215199860201
  0.3400752549926251  0.0328340341914025  0.4029462200954880
  0.3378301227945459  0.2842259146191000  0.4065988388990263
  0.3401718445577484  0.5320272203210407  0.4030758560907116
  0.3371172942014509  0.7838651989153950  0.4062408410910425
  0.5122730685528765  0.0333585481227883  0.4060154117282737
  0.5126718012377907  0.2838413441131390  0.4065698410331487
  0.5127065617397875  0.5329589906762461  0.4066058698418779
  0.5114087462228231  0.7833905296246293  0.4061419795461313
  0.6876134284115553  0.0326228309813182  0.4102680753104325
  0.6902772867704323  0.2793999959033926  0.4074797950480441
  0.6889911456200730  0.5372156400605731  0.4068277409270540
  0.6874315298821314  0.7833037523887363  0.4104542662443738
  0.3376815119958684  0.1582596588368669  0.4063742356074839
  0.3403766747744808  0.4091915247013400  0.4031084740554042
  0.3372923024880569  0.6574203127296080  0.4062807349504948
  0.3397499553672708  0.9094465289878131  0.4029344880215278
  0.5121674903392711  0.1588775656829710  0.4060713415869286
  0.5136375882682488  0.4082815649729187  0.4066852170587884
  0.5116710036515097  0.6581774059294216  0.4059463071565788
  0.5123246558075806  0.9082581676321673  0.4057155181602323
  0.6823598524342623  0.1553854933630011  0.3996079640852370
  0.7759364694069504  0.9078795166683021  0.4978000816466452
  0.7680866397309658  0.7799545423084033  0.4980550745603147
  0.7728900166831291  0.6469486314528479  0.4985796871395910
  0.7738438332510678  0.1675612985276297  0.4995955557347029
  0.7681365560443736  0.0356241865660795  0.4979547610174352
  0.6890228204709238  0.4107840145352527  0.3996469574415451
  0.6817325552029841  0.6608952982706696  0.3999292139135386
  0.6840188726610722  0.9079679620801364  0.4007025178635987
  0.7713966624840746  0.4626065796956252  0.5364187380697281
  0.8018010040017660  0.5024990981971601  0.5273491616540908
  0.8319515963806022  0.4861032330080718  0.5366580282220401
  0.7958675561829885  0.5341143068178172  0.5654374147279486
  0.7727548215103025  0.4488097432649168  0.5864141971343770
  0.7990527836822195  0.5158748786192863  0.4703193105200938
 
  0.00000000E+00  0.00000000E+00  0.00000000E+00
  0.00000000E+00  0.00000000E+00  0.00000000E+00
  0.00000000E+00  0.00000000E+00  0.00000000E+00
  0.00000000E+00  0.00000000E+00  0.00000000E+00
  0.00000000E+00  0.00000000E+00  0.00000000E+00
  0.00000000E+00  0.00000000E+00  0.00000000E+00
  0.00000000E+00  0.00000000E+00  0.00000000E+00
  0.00000000E+00  0.00000000E+00  0.00000000E+00
  0.00000000E+00  0.00000000E+00  0.00000000E+00
  0.00000000E+00  0.00000000E+00  0.00000000E+00
  0.00000000E+00  0.00000000E+00  0.00000000E+00
  0.00000000E+00  0.00000000E+00  0.00000000E+00
  0.00000000E+00  0.00000000E+00  0.00000000E+00
  0.00000000E+00  0.00000000E+00  0.00000000E+00
  0.00000000E+00  0.00000000E+00  0.00000000E+00
  0.00000000E+00  0.00000000E+00  0.00000000E+00
  0.00000000E+00  0.00000000E+00  0.00000000E+00
  0.00000000E+00  0.00000000E+00  0.00000000E+00
  0.00000000E+00  0.00000000E+00  0.00000000E+00
  0.00000000E+00  0.00000000E+00  0.00000000E+00
  0.00000000E+00  0.00000000E+00  0.00000000E+00
  0.00000000E+00  0.00000000E+00  0.00000000E+00
  0.00000000E+00  0.00000000E+00  0.00000000E+00
  0.00000000E+00  0.00000000E+00  0.00000000E+00
  0.00000000E+00  0.00000000E+00  0.00000000E+00
  0.00000000E+00  0.00000000E+00  0.00000000E+00
  0.00000000E+00  0.00000000E+00  0.00000000E+00
  0.00000000E+00  0.00000000E+00  0.00000000E+00
  0.00000000E+00  0.00000000E+00  0.00000000E+00
  0.00000000E+00  0.00000000E+00  0.00000000E+00
  0.00000000E+00  0.00000000E+00  0.00000000E+00
  0.00000000E+00  0.00000000E+00  0.00000000E+00
  0.00000000E+00  0.00000000E+00  0.00000000E+00
  0.00000000E+00  0.00000000E+00  0.00000000E+00
  0.00000000E+00  0.00000000E+00  0.00000000E+00
  0.00000000E+00  0.00000000E+00  0.00000000E+00
  0.00000000E+00  0.00000000E+00  0.00000000E+00
  0.00000000E+00  0.00000000E+00  0.00000000E+00
  0.00000000E+00  0.00000000E+00  0.00000000E+00
  0.00000000E+00  0.00000000E+00  0.00000000E+00
  0.00000000E+00  0.00000000E+00  0.00000000E+00
  0.00000000E+00  0.00000000E+00  0.00000000E+00
  0.00000000E+00  0.00000000E+00  0.00000000E+00
  0.00000000E+00  0.00000000E+00  0.00000000E+00
  0.00000000E+00  0.00000000E+00  0.00000000E+00
  0.00000000E+00  0.00000000E+00  0.00000000E+00
  0.00000000E+00  0.00000000E+00  0.00000000E+00
  0.00000000E+00  0.00000000E+00  0.00000000E+00
  0.00000000E+00  0.00000000E+00  0.00000000E+00
  0.00000000E+00  0.00000000E+00  0.00000000E+00
  0.00000000E+00  0.00000000E+00  0.00000000E+00
  0.00000000E+00  0.00000000E+00  0.00000000E+00
  0.00000000E+00  0.00000000E+00  0.00000000E+00
  0.00000000E+00  0.00000000E+00  0.00000000E+00
  0.00000000E+00  0.00000000E+00  0.00000000E+00
  0.00000000E+00  0.00000000E+00  0.00000000E+00
  0.00000000E+00  0.00000000E+00  0.00000000E+00
  0.00000000E+00  0.00000000E+00  0.00000000E+00
  0.00000000E+00  0.00000000E+00  0.00000000E+00
  0.00000000E+00  0.00000000E+00  0.00000000E+00
  0.00000000E+00  0.00000000E+00  0.00000000E+00
  0.00000000E+00  0.00000000E+00  0.00000000E+00
  0.00000000E+00  0.00000000E+00  0.00000000E+00
  0.00000000E+00  0.00000000E+00  0.00000000E+00
  0.00000000E+00  0.00000000E+00  0.00000000E+00
  0.00000000E+00  0.00000000E+00  0.00000000E+00
  0.00000000E+00  0.00000000E+00  0.00000000E+00
  0.00000000E+00  0.00000000E+00  0.00000000E+00
  0.00000000E+00  0.00000000E+00  0.00000000E+00
  0.00000000E+00  0.00000000E+00  0.00000000E+00
  0.00000000E+00  0.00000000E+00  0.00000000E+00
  0.00000000E+00  0.00000000E+00  0.00000000E+00
  0.00000000E+00  0.00000000E+00  0.00000000E+00
  0.00000000E+00  0.00000000E+00  0.00000000E+00
  0.00000000E+00  0.00000000E+00  0.00000000E+00
  0.00000000E+00  0.00000000E+00  0.00000000E+00
  0.00000000E+00  0.00000000E+00  0.00000000E+00
  0.00000000E+00  0.00000000E+00  0.00000000E+00
  0.00000000E+00  0.00000000E+00  0.00000000E+00
  0.00000000E+00  0.00000000E+00  0.00000000E+00
  0.00000000E+00  0.00000000E+00  0.00000000E+00
  0.00000000E+00  0.00000000E+00  0.00000000E+00
  0.00000000E+00  0.00000000E+00  0.00000000E+00
  0.00000000E+00  0.00000000E+00  0.00000000E+00
  0.00000000E+00  0.00000000E+00  0.00000000E+00
  0.00000000E+00  0.00000000E+00  0.00000000E+00
  0.00000000E+00  0.00000000E+00  0.00000000E+00
  0.00000000E+00  0.00000000E+00  0.00000000E+00
  0.00000000E+00  0.00000000E+00  0.00000000E+00
  0.00000000E+00  0.00000000E+00  0.00000000E+00
  0.00000000E+00  0.00000000E+00  0.00000000E+00
  0.00000000E+00  0.00000000E+00  0.00000000E+00
  0.00000000E+00  0.00000000E+00  0.00000000E+00
  0.00000000E+00  0.00000000E+00  0.00000000E+00
  0.00000000E+00  0.00000000E+00  0.00000000E+00
  0.00000000E+00  0.00000000E+00  0.00000000E+00
  0.00000000E+00  0.00000000E+00  0.00000000E+00
  0.00000000E+00  0.00000000E+00  0.00000000E+00
  0.00000000E+00  0.00000000E+00  0.00000000E+00
  0.00000000E+00  0.00000000E+00  0.00000000E+00
  0.00000000E+00  0.00000000E+00  0.00000000E+00
  0.00000000E+00  0.00000000E+00  0.00000000E+00
  0.00000000E+00  0.00000000E+00  0.00000000E+00
  0.00000000E+00  0.00000000E+00  0.00000000E+00
  0.00000000E+00  0.00000000E+00  0.00000000E+00
  0.00000000E+00  0.00000000E+00  0.00000000E+00
  0.00000000E+00  0.00000000E+00  0.00000000E+00
  0.00000000E+00  0.00000000E+00  0.00000000E+00
  0.00000000E+00  0.00000000E+00  0.00000000E+00
  0.00000000E+00  0.00000000E+00  0.00000000E+00
  0.00000000E+00  0.00000000E+00  0.00000000E+00
  0.00000000E+00  0.00000000E+00  0.00000000E+00
  0.00000000E+00  0.00000000E+00  0.00000000E+00
  0.00000000E+00  0.00000000E+00  0.00000000E+00
  0.00000000E+00  0.00000000E+00  0.00000000E+00
  0.00000000E+00  0.00000000E+00  0.00000000E+00
  0.00000000E+00  0.00000000E+00  0.00000000E+00
  0.00000000E+00  0.00000000E+00  0.00000000E+00
  0.00000000E+00  0.00000000E+00  0.00000000E+00
  0.00000000E+00  0.00000000E+00  0.00000000E+00
  0.00000000E+00  0.00000000E+00  0.00000000E+00
  0.00000000E+00  0.00000000E+00  0.00000000E+00
  0.00000000E+00  0.00000000E+00  0.00000000E+00
  0.00000000E+00  0.00000000E+00  0.00000000E+00
  0.00000000E+00  0.00000000E+00  0.00000000E+00
  0.00000000E+00  0.00000000E+00  0.00000000E+00
  0.00000000E+00  0.00000000E+00  0.00000000E+00
  0.00000000E+00  0.00000000E+00  0.00000000E+00
  0.00000000E+00  0.00000000E+00  0.00000000E+00
  0.00000000E+00  0.00000000E+00  0.00000000E+00
  0.00000000E+00  0.00000000E+00  0.00000000E+00
  0.00000000E+00  0.00000000E+00  0.00000000E+00
  0.00000000E+00  0.00000000E+00  0.00000000E+00
  0.00000000E+00  0.00000000E+00  0.00000000E+00
  0.00000000E+00  0.00000000E+00  0.00000000E+00
  0.00000000E+00  0.00000000E+00  0.00000000E+00
  0.00000000E+00  0.00000000E+00  0.00000000E+00
  0.00000000E+00  0.00000000E+00  0.00000000E+00
  0.00000000E+00  0.00000000E+00  0.00000000E+00
  0.00000000E+00  0.00000000E+00  0.00000000E+00
  0.00000000E+00  0.00000000E+00  0.00000000E+00
  0.00000000E+00  0.00000000E+00  0.00000000E+00
  0.00000000E+00  0.00000000E+00  0.00000000E+00
  0.00000000E+00  0.00000000E+00  0.00000000E+00
  0.00000000E+00  0.00000000E+00  0.00000000E+00
  0.00000000E+00  0.00000000E+00  0.00000000E+00
  0.00000000E+00  0.00000000E+00  0.00000000E+00
  0.00000000E+00  0.00000000E+00  0.00000000E+00
  0.00000000E+00  0.00000000E+00  0.00000000E+00
  0.00000000E+00  0.00000000E+00  0.00000000E+00
  0.00000000E+00  0.00000000E+00  0.00000000E+00
