Mo48 H4 Se97 C1 O1
1.0
  33.0000000000000000    0.0000000000000000    0.0000000000000000
   0.0000000000000000   26.3120002699999986    0.0000000000000000
   0.0000000000000000    0.0000000000000000   18.0970000000000013
Mo Se O C H
48 97 1 1 4
direct
   0.2867401500000000    0.0276835000000000    0.5000016800000000 Mo
   0.2807650900000000    0.2910459500000000    0.4999793600000000 Mo
   0.2867283800000000    0.5276246500000000    0.4999983600000000 Mo
   0.2811849300000000    0.7900692300000000    0.4999959600000000 Mo
   0.4546593200000000    0.0357997600000000    0.5000011900000000 Mo
   0.4539707400000000    0.2858243600000000    0.4999959700000000 Mo
   0.4549413500000000    0.5356120400000000    0.4999962100000000 Mo
   0.4540866500000000    0.7855531300000000    0.4999935400000000 Mo
   0.6270197100000000    0.0356760100000000    0.5000025600000000 Mo
   0.6286300000000000    0.2855533800000000    0.4999992100000000 Mo
   0.6284643800000000    0.5363211200000000    0.5000063200000000 Mo
   0.6270492800000000    0.7855327700000000    0.5000004900000000 Mo
   0.2809625300000000    0.1561907600000000    0.4999866100000000 Mo
   0.2866996700000000    0.4183996600000000    0.4999846600000000 Mo
   0.2810253600000000    0.6554416800000000    0.4999988900000000 Mo
   0.2868664100000000    0.9181963500000000    0.5000016700000000 Mo
   0.4541025000000000    0.1606532100000000    0.4999961900000000 Mo
   0.4552610500000000    0.4102176800000000    0.4999960500000000 Mo
   0.4542801200000000    0.6601637100000000    0.4999942900000000 Mo
   0.4549755600000000    0.9102661900000000    0.5000010499999999 Mo
   0.6271691900000000    0.1603941200000000    0.4999968300000000 Mo
   0.6294671300000000    0.4098823000000000    0.5000064200000000 Mo
   0.6273576900000000    0.6606224800000000    0.5000020900000000 Mo
   0.6277090500000000    0.9105797500000000    0.5000010700000000 Mo
   0.3664283500000000    0.2231195300000000    0.4999885800000000 Mo
   0.3688910500000000    0.4729480900000000    0.4999949200000000 Mo
   0.3665960800000000    0.7228488300000000    0.4999952800000000 Mo
   0.3687692200000000    0.9729843100000000    0.5000051100000000 Mo
   0.5406731800000000    0.2231945000000000    0.4999949900000000 Mo
   0.5415958200000000    0.4728299200000000    0.4999978000000000 Mo
   0.5405894600000000    0.7228860800000000    0.4999966200000000 Mo
   0.5412043800000000    0.9729649300000000    0.5000020100000000 Mo
   0.7097672200000000    0.2134247000000000    0.5000008400000000 Mo
   0.7077933100000000    0.4648228600000000    0.5000153500000000 Mo
   0.7139780400000000    0.7155651800000000    0.5000030500000000 Mo
   0.7150820900000000    0.9649369900000000    0.5000033500000000 Mo
   0.3685996500000000    0.0974646200000000    0.4999990500000000 Mo
   0.3688580300000000    0.3489954900000000    0.4999877000000000 Mo
   0.3688318400000000    0.5971514100000000    0.4999973200000000 Mo
   0.3688237300000000    0.8486927500000000    0.4999982100000000 Mo
   0.5405994800000000    0.0983234300000000    0.4999993200000000 Mo
   0.5413991800000000    0.3481053100000000    0.4999970400000000 Mo
   0.5411590300000000    0.5979964100000000    0.4999993100000000 Mo
   0.5411112200000000    0.8480852000000000    0.4999990100000000 Mo
   0.7139809600000000    0.1058751600000000    0.5000024000000000 Mo
   0.7050861000000000    0.3533927000000000    0.5000130400000000 Mo
   0.7103591100000000    0.6083773400000000    0.5000065000000000 Mo
   0.7150497200000000    0.8563558000000000    0.4999993100000000 Mo
   0.2534841600000000    0.0928336700000000    0.5870111200000000 Se
   0.2536002300000000    0.3537430800000000    0.5880255500000000 Se
   0.2536281300000000    0.5925333699999999    0.5876379700000000 Se
   0.2536888200000000    0.8532030600000000    0.5872739400000000 Se
   0.4258077200000000    0.0981827700000000    0.5930582599999999 Se
   0.4259525600000000    0.3481815600000000    0.5931860900000000 Se
   0.4259669900000000    0.5979048600000000    0.5931204400000000 Se
   0.4259918000000000    0.8480042200000000    0.5931201400000000 Se
   0.5980687500000000    0.0976238900000000    0.5925929100000000 Se
   0.5991964900000000    0.3474147700000000    0.5923525800000000 Se
   0.5987359400000000    0.5975212300000000    0.5924162500000000 Se
   0.5987982200000000    0.8479439000000000    0.5926043900000000 Se
   0.4244836300000000    0.2231159700000000    0.5921241000000000 Se
   0.4266109600000000    0.4728671800000000    0.5926619200000000 Se
   0.4246944500000000    0.7228098500000000    0.5920775300000000 Se
   0.4264716700000000    0.9729576300000000    0.5926928400000000 Se
   0.5985092400000001    0.2238093200000000    0.5919336300000000 Se
   0.5996750000000000    0.4735426900000000    0.5918034000000000 Se
   0.5981395100000000    0.7235166000000000    0.5924864600000000 Se
   0.5988806500000000    0.9731915900000000    0.5926299800000000 Se
   0.3399772700000000    0.0346047800000000    0.5952356100000000 Se
   0.3373842900000000    0.2863320600000000    0.5917777100000000 Se
   0.3400382700000000    0.5345259800000000    0.5952116900000000 Se
   0.3375958100000000    0.7860007600000000    0.5919896700000000 Se
   0.5122130100000000    0.0355077500000000    0.5924991900000000 Se
   0.5117670200000000    0.2856523200000000    0.5923270400000000 Se
   0.5125236800000000    0.5354151100000000    0.5925216200000000 Se
   0.5118605400000000    0.7855700700000000    0.5923614300000000 Se
   0.6876981000000000    0.0353923700000000    0.5880681200000000 Se
   0.6898489300000000    0.2826478700000000    0.5923226300000000 Se
   0.6906431000000000    0.5375242200000000    0.5906056400000000 Se
   0.6876525999999999    0.7859117600000000    0.5881369000000000 Se
   0.3372981800000000    0.1600803600000000    0.5920425900000000 Se
   0.3400218300000000    0.4115265300000000    0.5952127500000000 Se
   0.3374951600000000    0.6597974300000000    0.5919678600000000 Se
   0.3400862400000000    0.9113648300000000    0.5952701900000000 Se
   0.5117908700000000    0.1607917700000000    0.5927345100000000 Se
   0.5128619400000000    0.4105241200000000    0.5928953900000000 Se
   0.5119703400000000    0.6604593600000001    0.5927070200000000 Se
   0.5125629500000000    0.9105040000000000    0.5927808800000000 Se
   0.6821470400000000    0.1583170600000000    0.5993778800000000 Se
   0.6852376999999999    0.4101097400000000    0.6036360700000000 Se
   0.6823430500000000    0.6627359000000000    0.5995285200000000 Se
   0.6842767700000000    0.9106458300000000    0.5977750600000000 Se
   0.2534784600000000    0.0928318100000000    0.4129882000000000 Se
   0.2536043400000000    0.3537411400000000    0.4119290900000000 Se
   0.2536279600000000    0.5925326900000000    0.4123659500000000 Se
   0.2536875600000000    0.8532037900000000    0.4127238600000000 Se
   0.4258060800000000    0.0981805600000000    0.4069471800000000 Se
   0.4259582000000000    0.3481784200000000    0.4068155700000000 Se
   0.4259667100000000    0.5979029900000000    0.4068749000000000 Se
   0.4259933900000000    0.8480070800000000    0.4068782700000000 Se
   0.5980688700000000    0.0976176200000000    0.4074135800000000 Se
   0.5991992200000000    0.3474158000000000    0.4076559200000000 Se
   0.5987374400000000    0.5975195599999999    0.4076026500000000 Se
   0.5987991300000000    0.8479402600000000    0.4074032200000000 Se
   0.2301553200000000    0.2235255800000000    0.4999557600000000 Se
   0.2273262200000000    0.4729665600000000    0.5000031500000000 Se
   0.2303308300000000    0.7228249300000000    0.5000003300000000 Se
   0.2275238500000000    0.9727421800000000    0.4999867800000000 Se
   0.4244845200000000    0.2231140000000000    0.4078699500000000 Se
   0.4266105200000000    0.4728687100000000    0.4073382300000000 Se
   0.4246945200000000    0.7228097100000000    0.4079181300000000 Se
   0.4264713900000000    0.9729542500000000    0.4073140600000000 Se
   0.5985109700000000    0.2238074900000000    0.4080639100000000 Se
   0.5996791000000000    0.4735436700000000    0.4082126200000000 Se
   0.5981397200000000    0.7235158200000000    0.4075188600000000 Se
   0.5988812900000000    0.9731912300000000    0.4073821900000000 Se
   0.3399781700000000    0.0346024100000000    0.4047737600000000 Se
   0.3373916500000000    0.2863289100000000    0.4081917700000000 Se
   0.3400390600000000    0.5345246600000000    0.4047848700000000 Se
   0.3375997200000000    0.7860098100000000    0.4080030300000000 Se
   0.5122071600000000    0.0355083600000000    0.4075115800000000 Se
   0.5117673100000000    0.2856509300000000    0.4076742700000000 Se
   0.5125248700000000    0.5354174900000001    0.4074779300000000 Se
   0.5118632900000000    0.7855703100000000    0.4076411400000000 Se
   0.6877028700000000    0.0353889800000000    0.4119427800000000 Se
   0.6898559100000000    0.2826513000000000    0.4076875400000000 Se
   0.6906519200000000    0.5375251599999999    0.4094206800000000 Se
   0.6876502200000000    0.7859125400000000    0.4118617800000000 Se
   0.3373020200000000    0.1600768100000000    0.4079407900000000 Se
   0.3400221100000000    0.4115271600000000    0.4047680700000000 Se
   0.3374958700000000    0.6597983300000000    0.4080300300000000 Se
   0.3400886300000000    0.9113738500000000    0.4047409900000000 Se
   0.5117901100000000    0.1607894600000000    0.4072683500000000 Se
   0.5128613300000000    0.4105273000000000    0.4071104700000000 Se
   0.5119727300000000    0.6604587400000000    0.4072966200000000 Se
   0.5125638000000000    0.9105064200000000    0.4072296800000000 Se
   0.6821492300000001    0.1583157200000000    0.4006241100000000 Se
   0.7759228000000000    0.9106031999999999    0.5000072800000001 Se
   0.7679232700000000    0.7827888600000000    0.4999995900000000 Se
   0.7735828800000000    0.6510761800000000    0.5000072100000000 Se
   0.7731912800000000    0.1708709100000000    0.5000004000000000 Se
   0.7679526200000000    0.0385950000000000    0.5000003600000000 Se
   0.6852442600000000    0.4101059200000000    0.3963944600000000 Se
   0.6823437600000000    0.6627416200000000    0.4004821400000000 Se
   0.6842757300000000    0.9106479100000000    0.4022356400000000 Se
   0.7644214506060606    0.4320804302660556    0.4990953627092888 O
   0.8056245127272728    0.4500631873785767    0.5073043061805823 C
   0.8260435427272728    0.4174497105925338    0.5002253278968889 H
   0.8095650754545456    0.4666511820396151    0.5625299446842017 H
   0.7612498409090909    0.3913243026818414    0.5005018013455268 H
   0.8115917830303031    0.4786943086262811    0.4646047869232469 H
