Mo36 Se72                               
   1.00000000000000     
    19.7339992522999985    0.0000000000000000    0.0000000000000000
    -9.8669996262000002   17.0901446708000009    0.0000000000000000
     0.0000000000000000    0.0000000000000000   25.8540000915999997
   Mo   Se   O    C 
    36    70     2     1
Direct
  0.1221841177043587  0.0476645974147087  0.4999547114968663
  0.1218342030162659  0.2129229933564893  0.5000798823973387
  0.1208182435647366  0.3789201091182154  0.5001747029448568
  0.1204262580678039  0.5456937461454663  0.4999644826437333
  0.1204726833536440  0.7127973843224199  0.4999772577098378
  0.1209651949575337  0.8801650562270597  0.4999021615303366
  0.2887842683673597  0.0489281651286672  0.4970918264760600
  0.2941200822021363  0.2155570186290053  0.4954846905186556
  0.2899619157984532  0.3815557691040312  0.4996696902924459
  0.2869356953778161  0.5452921877869978  0.4999009325391061
  0.2870374367107959  0.7126062328599274  0.5001971303816198
  0.2875059776884564  0.8801299964494762  0.4994708236190759
  0.4538479193245080  0.0466845187820190  0.4984247634817135
  0.4517806229793869  0.2139506942267247  0.4930425905743366
  0.4534767952342843  0.3666767241808322  0.4959021435712846
  0.4502406352733884  0.5432724065967464  0.5011888867546384
  0.4531774069476679  0.7122603834609033  0.5010818914836715
  0.4535774688501737  0.8793760172423480  0.5003561289276337
  0.6203949130971924  0.0455642694832434  0.5001126848089181
  0.6198788066248256  0.2120999480125762  0.4979644256295266
  0.6196751458675426  0.3775850628657564  0.4958560881697692
  0.6173447949465827  0.5429976351905877  0.4999570862613247
  0.6188682924877168  0.7106072734272671  0.5020177574744944
  0.6201690830519068  0.8786766907285087  0.5014380731331902
  0.7872087530882245  0.0454499715421011  0.5011410078746762
  0.7870991035664838  0.2122076142998348  0.5000244659562337
  0.7870194534577311  0.3785334786966977  0.4987822141715688
  0.7862235739203379  0.5448781772157990  0.4993522778054265
  0.7860480573020686  0.7115142151645341  0.5012363477594957
  0.7865914804250568  0.8784434798933740  0.5017679475270534
  0.9543748987618220  0.0459519963014682  0.5010979144922615
  0.9543880631567360  0.2123990792685950  0.5006707892933645
  0.9540356576121837  0.3788848788200228  0.4999494021572436
  0.9535830755081341  0.5456334708861289  0.4997410964798191
  0.9535331187985683  0.7124350081104094  0.5004163113960850
  0.9540526198715420  0.8793900076543026  0.5011257569054570
  0.0668989512179209  0.1024776579326521  0.5654032218596214
  0.0663155176953813  0.2681043416890800  0.5652789639943555
  0.0650151449841805  0.4345845814472016  0.5648630008415519
  0.0646612946012641  0.6013372706195413  0.5646878877061647
  0.0654379679174814  0.7688375962032027  0.5648589022887041
  0.0669762556600663  0.9365818620969590  0.5651520878264924
  0.2389003778921786  0.1083202853246547  0.5626337246822629
  0.2379028420793534  0.2689154177139219  0.5623898479176892
  0.2317169926899669  0.4339356477736038  0.5647189757221966
  0.2313863432852788  0.6010223398618381  0.5648512292282830
  0.2317865536725450  0.7691640801520880  0.5646501662878052
  0.2336766063222145  0.9385876746411999  0.5634139273903548
  0.3993732512830965  0.1081410723710091  0.5612363008222574
  0.3968110304999243  0.6010646708998686  0.5656723430812978
  0.3975731961561912  0.7685033005176175  0.5654386599690863
  0.3983304447167820  0.9369423961416788  0.5643693414591782
  0.5642761090770134  0.1023430146719813  0.5637680756040563
  0.5592228614545258  0.2672574367080147  0.5605427037981934
  0.5619954616496927  0.4274488703827759  0.5619302733573256
  0.5610954765894682  0.5965405687469674  0.5658725611788999
  0.5639007089561914  0.7673489920291310  0.5664121038221537
  0.5643217519012571  0.9350974052275784  0.5655444130337043
  0.7312604318210992  0.1015967647464311  0.5653082175574532
  0.7298610174421384  0.2677964007458910  0.5638408561656065
  0.7289022075134406  0.4322733485917971  0.5627557681485125
  0.7291340421602436  0.5983594749952875  0.5648259263258264
  0.7306082976341954  0.7665978482263455  0.5665566856369209
  0.7313176533437755  0.9345775209451707  0.5663874470750714
  0.8987923452660047  0.1016167448404715  0.5658516705848148
  0.8981839062991470  0.2680438061825989  0.5650689018371119
  0.8974291173178707  0.4341269190998995  0.5643045121114603
  0.8971151445988895  0.6003242509972935  0.5646123772636463
  0.8980955730474204  0.7675287682963715  0.5657213822999915
  0.8987256893760502  0.9347950102505148  0.5661693149049255
  0.0649341970773964  0.1016236490366967  0.4356363122337216
  0.0651704969518179  0.2676336154539222  0.4354595709037914
  0.0653105682123443  0.4344312722521608  0.4351527620318335
  0.0650068986685382  0.6015449959606359  0.4351076063830438
  0.0645391888978026  0.7683329369104132  0.4353753853335550
  0.0645408036698870  0.9353473186784539  0.4356852508409217
  0.2309798244096037  0.1031997046778838  0.4328579284636289
  0.2328288526749795  0.2696379946679363  0.4344594022452116
  0.2320450512269326  0.4340521794675922  0.4350109067372129
  0.2315992760677049  0.6014839201778173  0.4351693620795101
  0.2315935419372602  0.7681347390905336  0.4351279518059656
  0.2311994646049719  0.9346905623794445  0.4342658285311786
  0.3991793898243995  0.1007067933149769  0.4311611539742001
  0.3971206591783419  0.2649433814673778  0.4262435303985421
  0.4015591511554945  0.4326345345166976  0.4362537800372151
  0.3989368059620224  0.6012003862416667  0.4357606266973089
  0.3984331876837904  0.7679003051678248  0.4356618528524713
  0.3984633551948349  0.9341992867523858  0.4346304792463239
  0.5654358872868609  0.1002028183887045  0.4341337433695995
  0.5652322428392134  0.2660822542487722  0.4307343255112803
  0.5647171960019093  0.4349977416116380  0.4318624652104791
  0.5617202851878121  0.6001982506102411  0.4366681221217723
  0.5648951356752102  0.7673487580220804  0.4368108329968866
  0.5651111550591604  0.9338048898006420  0.4358376046119906
  0.7320364724521549  0.1005047266565672  0.4356434848846288
  0.7324386594288830  0.2672166091561656  0.4341115652383337
  0.7333863136234930  0.4352484026123651  0.4331643605481190
  0.7298329347663863  0.6011964471510152  0.4357206507094954
  0.7301062808346671  0.7670892427822489  0.4370296938007757
  0.7313880000141558  0.9338682518801695  0.4366653068217223
  0.8982910494346793  0.1007663413152556  0.4362087492033087
  0.8987058811780126  0.2673730987508161  0.4354394150439320
  0.8991226532751544  0.4346311182813293  0.4346947814374335
  0.8982661737191865  0.6018208285278175  0.4350843506168744
  0.8973373471069161  0.7680531175156339  0.4362741843066146
  0.8975861286309565  0.9342442018274260  0.4366436245434221
  0.3846608069346886  0.4484590956409463  0.5540576614403653
  0.3998611640362650  0.3673687549537504  0.6076206609281879
  0.4076631001995925  0.3930284907595309  0.5638113026602390
 
  0.00000000E+00  0.00000000E+00  0.00000000E+00
  0.00000000E+00  0.00000000E+00  0.00000000E+00
  0.00000000E+00  0.00000000E+00  0.00000000E+00
  0.00000000E+00  0.00000000E+00  0.00000000E+00
  0.00000000E+00  0.00000000E+00  0.00000000E+00
  0.00000000E+00  0.00000000E+00  0.00000000E+00
  0.00000000E+00  0.00000000E+00  0.00000000E+00
  0.00000000E+00  0.00000000E+00  0.00000000E+00
  0.00000000E+00  0.00000000E+00  0.00000000E+00
  0.00000000E+00  0.00000000E+00  0.00000000E+00
  0.00000000E+00  0.00000000E+00  0.00000000E+00
  0.00000000E+00  0.00000000E+00  0.00000000E+00
  0.00000000E+00  0.00000000E+00  0.00000000E+00
  0.00000000E+00  0.00000000E+00  0.00000000E+00
  0.00000000E+00  0.00000000E+00  0.00000000E+00
  0.00000000E+00  0.00000000E+00  0.00000000E+00
  0.00000000E+00  0.00000000E+00  0.00000000E+00
  0.00000000E+00  0.00000000E+00  0.00000000E+00
  0.00000000E+00  0.00000000E+00  0.00000000E+00
  0.00000000E+00  0.00000000E+00  0.00000000E+00
  0.00000000E+00  0.00000000E+00  0.00000000E+00
  0.00000000E+00  0.00000000E+00  0.00000000E+00
  0.00000000E+00  0.00000000E+00  0.00000000E+00
  0.00000000E+00  0.00000000E+00  0.00000000E+00
  0.00000000E+00  0.00000000E+00  0.00000000E+00
  0.00000000E+00  0.00000000E+00  0.00000000E+00
  0.00000000E+00  0.00000000E+00  0.00000000E+00
  0.00000000E+00  0.00000000E+00  0.00000000E+00
  0.00000000E+00  0.00000000E+00  0.00000000E+00
  0.00000000E+00  0.00000000E+00  0.00000000E+00
  0.00000000E+00  0.00000000E+00  0.00000000E+00
  0.00000000E+00  0.00000000E+00  0.00000000E+00
  0.00000000E+00  0.00000000E+00  0.00000000E+00
  0.00000000E+00  0.00000000E+00  0.00000000E+00
  0.00000000E+00  0.00000000E+00  0.00000000E+00
  0.00000000E+00  0.00000000E+00  0.00000000E+00
  0.00000000E+00  0.00000000E+00  0.00000000E+00
  0.00000000E+00  0.00000000E+00  0.00000000E+00
  0.00000000E+00  0.00000000E+00  0.00000000E+00
  0.00000000E+00  0.00000000E+00  0.00000000E+00
  0.00000000E+00  0.00000000E+00  0.00000000E+00
  0.00000000E+00  0.00000000E+00  0.00000000E+00
  0.00000000E+00  0.00000000E+00  0.00000000E+00
  0.00000000E+00  0.00000000E+00  0.00000000E+00
  0.00000000E+00  0.00000000E+00  0.00000000E+00
  0.00000000E+00  0.00000000E+00  0.00000000E+00
  0.00000000E+00  0.00000000E+00  0.00000000E+00
  0.00000000E+00  0.00000000E+00  0.00000000E+00
  0.00000000E+00  0.00000000E+00  0.00000000E+00
  0.00000000E+00  0.00000000E+00  0.00000000E+00
  0.00000000E+00  0.00000000E+00  0.00000000E+00
  0.00000000E+00  0.00000000E+00  0.00000000E+00
  0.00000000E+00  0.00000000E+00  0.00000000E+00
  0.00000000E+00  0.00000000E+00  0.00000000E+00
  0.00000000E+00  0.00000000E+00  0.00000000E+00
  0.00000000E+00  0.00000000E+00  0.00000000E+00
  0.00000000E+00  0.00000000E+00  0.00000000E+00
  0.00000000E+00  0.00000000E+00  0.00000000E+00
  0.00000000E+00  0.00000000E+00  0.00000000E+00
  0.00000000E+00  0.00000000E+00  0.00000000E+00
  0.00000000E+00  0.00000000E+00  0.00000000E+00
  0.00000000E+00  0.00000000E+00  0.00000000E+00
  0.00000000E+00  0.00000000E+00  0.00000000E+00
  0.00000000E+00  0.00000000E+00  0.00000000E+00
  0.00000000E+00  0.00000000E+00  0.00000000E+00
  0.00000000E+00  0.00000000E+00  0.00000000E+00
  0.00000000E+00  0.00000000E+00  0.00000000E+00
  0.00000000E+00  0.00000000E+00  0.00000000E+00
  0.00000000E+00  0.00000000E+00  0.00000000E+00
  0.00000000E+00  0.00000000E+00  0.00000000E+00
  0.00000000E+00  0.00000000E+00  0.00000000E+00
  0.00000000E+00  0.00000000E+00  0.00000000E+00
  0.00000000E+00  0.00000000E+00  0.00000000E+00
  0.00000000E+00  0.00000000E+00  0.00000000E+00
  0.00000000E+00  0.00000000E+00  0.00000000E+00
  0.00000000E+00  0.00000000E+00  0.00000000E+00
  0.00000000E+00  0.00000000E+00  0.00000000E+00
  0.00000000E+00  0.00000000E+00  0.00000000E+00
  0.00000000E+00  0.00000000E+00  0.00000000E+00
  0.00000000E+00  0.00000000E+00  0.00000000E+00
  0.00000000E+00  0.00000000E+00  0.00000000E+00
  0.00000000E+00  0.00000000E+00  0.00000000E+00
  0.00000000E+00  0.00000000E+00  0.00000000E+00
  0.00000000E+00  0.00000000E+00  0.00000000E+00
  0.00000000E+00  0.00000000E+00  0.00000000E+00
  0.00000000E+00  0.00000000E+00  0.00000000E+00
  0.00000000E+00  0.00000000E+00  0.00000000E+00
  0.00000000E+00  0.00000000E+00  0.00000000E+00
  0.00000000E+00  0.00000000E+00  0.00000000E+00
  0.00000000E+00  0.00000000E+00  0.00000000E+00
  0.00000000E+00  0.00000000E+00  0.00000000E+00
  0.00000000E+00  0.00000000E+00  0.00000000E+00
  0.00000000E+00  0.00000000E+00  0.00000000E+00
  0.00000000E+00  0.00000000E+00  0.00000000E+00
  0.00000000E+00  0.00000000E+00  0.00000000E+00
  0.00000000E+00  0.00000000E+00  0.00000000E+00
  0.00000000E+00  0.00000000E+00  0.00000000E+00
  0.00000000E+00  0.00000000E+00  0.00000000E+00
  0.00000000E+00  0.00000000E+00  0.00000000E+00
  0.00000000E+00  0.00000000E+00  0.00000000E+00
  0.00000000E+00  0.00000000E+00  0.00000000E+00
  0.00000000E+00  0.00000000E+00  0.00000000E+00
  0.00000000E+00  0.00000000E+00  0.00000000E+00
  0.00000000E+00  0.00000000E+00  0.00000000E+00
  0.00000000E+00  0.00000000E+00  0.00000000E+00
  0.00000000E+00  0.00000000E+00  0.00000000E+00
  0.00000000E+00  0.00000000E+00  0.00000000E+00
  0.00000000E+00  0.00000000E+00  0.00000000E+00
  0.00000000E+00  0.00000000E+00  0.00000000E+00
