Mo36 Se72                               
1.0
  19.7339992523         0.0000000000         0.0000000000
  -9.8669996262        17.0901446708         0.0000000000
   0.0000000000         0.0000000000        25.8540000916
Mo Se O C
36 70 2 1
Cartesian
     1.946677755         0.832427792        12.927689251
     0.371135368         3.695493977        12.935077506
    -1.321037204         6.490773523        12.924802097
    -3.005667664         9.326897164        12.943695195
    -4.664300838        12.180536884        12.956616448
    -6.306213750        15.044572372        12.946581179
     5.209674800         0.837419724        12.859443257
     3.681629503         3.735187073        12.725244921
     2.060887519         6.541966797        12.723335905
     0.315645801         9.314364180        12.857802456
    -1.362845366        12.177455381        12.936919040
    -3.016912505        15.041431205        12.938672389
     8.484640844         0.808747839        12.929890931
     6.755650133         3.676628476        12.788287167
     5.094600901         6.423072219        12.661007520
     3.547208927         9.234280138        12.786389093
     1.928771663        12.165782990        12.929437339
     0.274052175        15.033007916        12.963662169
    11.784487736         0.796009970        12.987493592
    10.107542314         3.638550333        12.950218373
     8.394456851         6.448823455        12.883154582
     6.767413872         9.268765597        12.881792927
     5.190660283        12.157900487        12.949651729
     3.566189912        15.031308497        12.988003330
    15.087836051         0.800374404        13.013107971
    13.429265162         3.643368734        13.000758090
    11.751499320         6.475923518        12.972743043
    10.094168462         9.309292425        12.956734370
     8.469857325        12.162266430        12.972574637
     6.854314136        15.031717514        13.001383677
    18.391913911         0.816786240        12.999813812
    16.755371013         3.652196832        12.998562958
    15.083123737         6.487336171        12.982855557
    13.413569547         9.325572204        12.972432051
    11.769284895        12.175010662        12.973584946
    10.145258002        15.041398492        12.985306771
     0.353106074         1.808854683        14.631848523
    -1.272501514         4.624400559        14.630707373
    -2.959052190         7.436330970        14.624922217
    -4.649797217        10.276194186        14.629910028
    -6.304894243        13.143781273        14.631941074
    -7.920534352        16.031121138        14.627866683
     3.639522718         1.913436848        14.504736000
     2.252954412         4.783027611        14.491925714
     0.461342598         7.416192143        14.502563173
    -1.313756640        10.252082070        14.581938095
    -3.006848004        13.135866565        14.616595954
    -4.659927233        16.048722430        14.584191158
     6.784285262         1.843668351        14.538724862
     1.974397769        10.174821270        14.537382570
     0.284373978        13.105754966        14.619534118
    -1.389896977        16.004830858        14.620287792
    10.103929842         1.750061518        14.635965958
     8.333618683         4.578586428        14.554040908
     6.559788521         7.270785210        14.485954829
     5.117143965        10.151479980        14.551685134
     3.553475067        13.098172724        14.636075696
     1.907059094        15.977268587        14.658433002
    13.422840243         1.746301424        14.679128226
    11.737939865         4.586910961        14.651508081
    10.030653702         7.392775667        14.605286185
     8.402805881        10.213079844        14.604653108
     6.827265686        13.095070549        14.651813803
     5.207969542        15.976654650        14.679364335
    16.750901421         1.760453993        14.683044154
    15.092907950         4.600332211        14.670108818
    13.409535704         7.428430805        14.648733902
    11.745760936        10.261632782        14.638433429
    10.124027808        13.120305714        14.649520407
     8.514491285        15.993760401        14.671441214
     0.276380441         1.768575213        11.294133514
    -1.343733432         4.575368602        11.291654705
    -3.019085438         7.421595587        11.280016238
    -4.677905465        10.274120243        11.287385361
    -6.322385940        13.124287941        11.288702728
    -7.962567536        15.986830098        11.283902160
     3.549935655         1.745746461        11.166384934
     1.932635343         4.594591360        11.122888394
     0.272285781         7.422498808        11.164575505
    -1.386518637        10.288055328        11.244368717
    -3.023019344        13.128699795        11.273036400
    -4.663945148        15.965658374        11.246561876
     6.883135985         1.743482786        11.185242814
     5.252738995         4.591345761        10.987245457
     3.588607701         7.474197610        10.985574862
     1.937204587        10.311922719        11.183857643
     0.279120913        13.145303965        11.270747391
    -1.358603917        15.980200945        11.271521846
    10.161029041         1.739384817        11.283804908
     8.497120841         4.563176065        11.206885299
     6.810307795         7.413317844        11.134682867
     5.185775848        10.300772175        11.205471539
     3.572378386        13.153652312        11.284057706
     1.932611872        15.990972021        11.307999612
    13.447430501         1.745051763        11.329686857
    11.790633608         4.578746545        11.304238961
    10.115922761         7.417747718        11.276035879
     8.467884601        10.274986630        11.275444640
     6.846595624        13.145052074        11.303798765
     5.219261068        15.997195040        11.330092104
    16.733571635         1.749319998        11.333659208
    15.087918725         4.580536292        11.325511344
    13.418642893         7.420961951        11.307583075
    11.761454834        10.271777884        11.299324013
    10.123474297        13.134109316        11.309275873
     8.496058126        15.998525389        11.327321699
     3.589000000         7.474000000        14.535000000
     4.749000000         5.478000000        14.535000000
     4.169000000         6.476000000        14.535000000
  
