W36 S72                                 
   1.00000000000000     
    18.9192008971999996    0.0000000000000000    0.0000000000000000
    -9.4596004485999998   16.3845085963000017    0.0000000000000000
     0.0000000000000000    0.0000000000000000   24.6459999084000003
   W    S    O    C 
    36    70     1     1
Direct
  0.1219840025968608  0.0478795864112342  0.5001257173872844
  0.1228462983729770  0.2139144453487418  0.5001116986414189
  0.1215607599552442  0.3795929163844320  0.5003218331502239
  0.1205329921170062  0.5461792137265817  0.5008435437296015
  0.1203872271829169  0.7131666250923772  0.5010075199615898
  0.1207800955798035  0.8804387720644513  0.5006203232644495
  0.2882672364135104  0.0486809602243312  0.4979927813215710
  0.2927267252722814  0.2165392180334038  0.4946180245219267
  0.2895553443576091  0.3794582277794731  0.4963018934426700
  0.2877834620786430  0.5455837041813538  0.4992682671549531
  0.2871772334199107  0.7129918483695405  0.5007157949444689
  0.2873049273802337  0.8803885367309903  0.5003805655522200
  0.4536513940786691  0.0475008966280512  0.4999844931802642
  0.4513035026523866  0.2154633121930303  0.4951216485223924
  0.4510598633738141  0.3757094398352834  0.4939568209271314
  0.4529294936766064  0.5447143516781736  0.4976350293267728
  0.4536246693552002  0.7123580909058660  0.5005549131363836
  0.4536603381828144  0.8799845546993339  0.5012137001010544
  0.6202733661495117  0.0465829385378029  0.5016891988118815
  0.6191298853990332  0.2130880729119013  0.5002897529054806
  0.6171439323345709  0.3782842145675716  0.4982027395459241
  0.6176113396100504  0.5441778887644375  0.4995074687812249
  0.6196975725230587  0.7121848719609432  0.5009575153613497
  0.6203161078855146  0.8795936674306901  0.5018561258347702
  0.7873015721057968  0.0465437193925524  0.5023880860612522
  0.7868284167875288  0.2131432616657776  0.5019467153472661
  0.7860597913416711  0.3793334292371497  0.5009825354035300
  0.7857073895886941  0.5456118382430830  0.5007918652375594
  0.7862240773663842  0.7123548266490900  0.5015468195748909
  0.7870763638215337  0.8795977139296909  0.5021794846238805
  0.9545324167125102  0.0468559823275001  0.5019061736482726
  0.9545810030841579  0.2133043898768889  0.5018711122915462
  0.9538386395079286  0.3796574316567316  0.5015541992554944
  0.9532944971632844  0.5461568055131636  0.5012920648384949
  0.9533950314666271  0.7129378002492004  0.5014356841458394
  0.9541291275379677  0.8800589992493713  0.5017378236142633
  0.0677609893766942  0.1036742503163026  0.5649898716578718
  0.0677526856913460  0.2693241425320494  0.5650041390851044
  0.0662040990652457  0.4351866768083070  0.5650215970841899
  0.0650310821014841  0.6018849580622287  0.5651746021289483
  0.0653647634822079  0.7693684961828424  0.5651376802017651
  0.0669469356940837  0.9372433939619995  0.5650268664492017
  0.2382078810740040  0.1090032261975011  0.5615988947985429
  0.2405438693948199  0.2712597332811981  0.5614381602439593
  0.2352393982439906  0.4339915297359127  0.5627480100663576
  0.2324953622378345  0.6009671193454764  0.5643131558688594
  0.2319472283747004  0.7692263016446148  0.5648133950486738
  0.2331581908020226  0.9384329434995777  0.5636730095321951
  0.3982127606759747  0.1078467000834138  0.5618082069494221
  0.3981895087669258  0.5988622004147786  0.5634451555105926
  0.3980245725958156  0.7679776323138654  0.5649643449384740
  0.3979940407197873  0.9367831256549266  0.5647295738159102
  0.5636394431428826  0.1027173031827573  0.5649367421256670
  0.5583832421593158  0.2684040676168351  0.5620740852980717
  0.5555207368503403  0.4282441763026910  0.5616532685113427
  0.5613966494156628  0.5982731758239126  0.5637000979265636
  0.5639611679666956  0.7673139546801480  0.5653503348087838
  0.5642462252684766  0.9352145066593565  0.5658113048687952
  0.7311424485380513  0.1021840154003471  0.5662662789510975
  0.7295793194388978  0.2686482410713609  0.5652967196924834
  0.7274772616329841  0.4334761512754497  0.5639845743136078
  0.7281141412415053  0.5993123512747687  0.5647033152154890
  0.7303091804888666  0.7673020513161575  0.5657836246140207
  0.7312676318306330  0.9349684223476729  0.5663818028334688
  0.8992118696899070  0.1024746146141808  0.5663127474042398
  0.8986070222460825  0.2689179423714307  0.5659785689287276
  0.8973234389230669  0.4349913360694373  0.5654051271414389
  0.8968853529643184  0.6012088724916111  0.5652820811569939
  0.8977905681222680  0.7682646147898069  0.5657292113715542
  0.8988771739790025  0.9355690336261659  0.5661687203258055
  0.0644615391082368  0.1019710000880352  0.4368236985077516
  0.0646608643494488  0.2680379936545734  0.4367969013321158
  0.0644286997480421  0.4348539423638442  0.4368962934651961
  0.0644034171860639  0.6017405501588655  0.4369959450862666
  0.0643056743871924  0.7684290290271676  0.4369914841253930
  0.0644013979450904  0.9354267460318866  0.4368080904797154
  0.2309027922294291  0.1024537828896825  0.4335397289775784
  0.2307587657616708  0.2671660001161982  0.4327405147024734
  0.2308103703900315  0.4351464620574319  0.4343811662550223
  0.2312488729975826  0.6020544479748153  0.4362821737378582
  0.2313537072856491  0.7685316557998050  0.4366416868761505
  0.2310896468330128  0.9347605843528086  0.4356732662534881
  0.3994316821877817  0.1023549476386734  0.4335461588211871
  0.3985833102128069  0.2684332866762915  0.4280828915849852
  0.3992863572445486  0.4358623852732748  0.4312804898090548
  0.3985462654632030  0.6029150757466013  0.4347269597954693
  0.3985138105870121  0.7690633628711439  0.4367924961340606
  0.3986084959854281  0.9354106594796434  0.4364531418111497
  0.5654145412810010  0.1017357552027818  0.4366539027966425
  0.5644291776337340  0.2673141430334027  0.4337403577935319
  0.5641531991720328  0.4353978602554918  0.4327539408609411
  0.5655884059131893  0.6028338050405182  0.4351407681564510
  0.5653970438374998  0.7691966554726335  0.4370394449041441
  0.5653050698958140  0.9354982563140766  0.4375329356327171
  0.7318872456270142  0.1019190873700069  0.4379774601510391
  0.7315486532570645  0.2681673846218473  0.4370508368588872
  0.7315020205827949  0.4351335494571842  0.4361023433285425
  0.7309893134052388  0.6019289407704136  0.4367222630632739
  0.7317653339209542  0.7690120074275413  0.4375336127746294
  0.7319123467589748  0.9355890786583245  0.4381042326284401
  0.8982194835766037  0.1019151362621642  0.4380397311076791
  0.8981134730091753  0.2682274472968587  0.4378093848615876
  0.8979618552703954  0.4349242394397308  0.4372575892305477
  0.8977721145404729  0.6018550852316551  0.4371596784362097
  0.8978076644390072  0.7687039293693871  0.4375920080766988
  0.8981479303301541  0.9354656957052967  0.4379287030896819
  0.3995941898126105  0.4301492248903429  0.5995425092505968
  0.3990855325312310  0.4317882786319274  0.5498431353702458
 
  0.00000000E+00  0.00000000E+00  0.00000000E+00
  0.00000000E+00  0.00000000E+00  0.00000000E+00
  0.00000000E+00  0.00000000E+00  0.00000000E+00
  0.00000000E+00  0.00000000E+00  0.00000000E+00
  0.00000000E+00  0.00000000E+00  0.00000000E+00
  0.00000000E+00  0.00000000E+00  0.00000000E+00
  0.00000000E+00  0.00000000E+00  0.00000000E+00
  0.00000000E+00  0.00000000E+00  0.00000000E+00
  0.00000000E+00  0.00000000E+00  0.00000000E+00
  0.00000000E+00  0.00000000E+00  0.00000000E+00
  0.00000000E+00  0.00000000E+00  0.00000000E+00
  0.00000000E+00  0.00000000E+00  0.00000000E+00
  0.00000000E+00  0.00000000E+00  0.00000000E+00
  0.00000000E+00  0.00000000E+00  0.00000000E+00
  0.00000000E+00  0.00000000E+00  0.00000000E+00
  0.00000000E+00  0.00000000E+00  0.00000000E+00
  0.00000000E+00  0.00000000E+00  0.00000000E+00
  0.00000000E+00  0.00000000E+00  0.00000000E+00
  0.00000000E+00  0.00000000E+00  0.00000000E+00
  0.00000000E+00  0.00000000E+00  0.00000000E+00
  0.00000000E+00  0.00000000E+00  0.00000000E+00
  0.00000000E+00  0.00000000E+00  0.00000000E+00
  0.00000000E+00  0.00000000E+00  0.00000000E+00
  0.00000000E+00  0.00000000E+00  0.00000000E+00
  0.00000000E+00  0.00000000E+00  0.00000000E+00
  0.00000000E+00  0.00000000E+00  0.00000000E+00
  0.00000000E+00  0.00000000E+00  0.00000000E+00
  0.00000000E+00  0.00000000E+00  0.00000000E+00
  0.00000000E+00  0.00000000E+00  0.00000000E+00
  0.00000000E+00  0.00000000E+00  0.00000000E+00
  0.00000000E+00  0.00000000E+00  0.00000000E+00
  0.00000000E+00  0.00000000E+00  0.00000000E+00
  0.00000000E+00  0.00000000E+00  0.00000000E+00
  0.00000000E+00  0.00000000E+00  0.00000000E+00
  0.00000000E+00  0.00000000E+00  0.00000000E+00
  0.00000000E+00  0.00000000E+00  0.00000000E+00
  0.00000000E+00  0.00000000E+00  0.00000000E+00
  0.00000000E+00  0.00000000E+00  0.00000000E+00
  0.00000000E+00  0.00000000E+00  0.00000000E+00
  0.00000000E+00  0.00000000E+00  0.00000000E+00
  0.00000000E+00  0.00000000E+00  0.00000000E+00
  0.00000000E+00  0.00000000E+00  0.00000000E+00
  0.00000000E+00  0.00000000E+00  0.00000000E+00
  0.00000000E+00  0.00000000E+00  0.00000000E+00
  0.00000000E+00  0.00000000E+00  0.00000000E+00
  0.00000000E+00  0.00000000E+00  0.00000000E+00
  0.00000000E+00  0.00000000E+00  0.00000000E+00
  0.00000000E+00  0.00000000E+00  0.00000000E+00
  0.00000000E+00  0.00000000E+00  0.00000000E+00
  0.00000000E+00  0.00000000E+00  0.00000000E+00
  0.00000000E+00  0.00000000E+00  0.00000000E+00
  0.00000000E+00  0.00000000E+00  0.00000000E+00
  0.00000000E+00  0.00000000E+00  0.00000000E+00
  0.00000000E+00  0.00000000E+00  0.00000000E+00
  0.00000000E+00  0.00000000E+00  0.00000000E+00
  0.00000000E+00  0.00000000E+00  0.00000000E+00
  0.00000000E+00  0.00000000E+00  0.00000000E+00
  0.00000000E+00  0.00000000E+00  0.00000000E+00
  0.00000000E+00  0.00000000E+00  0.00000000E+00
  0.00000000E+00  0.00000000E+00  0.00000000E+00
  0.00000000E+00  0.00000000E+00  0.00000000E+00
  0.00000000E+00  0.00000000E+00  0.00000000E+00
  0.00000000E+00  0.00000000E+00  0.00000000E+00
  0.00000000E+00  0.00000000E+00  0.00000000E+00
  0.00000000E+00  0.00000000E+00  0.00000000E+00
  0.00000000E+00  0.00000000E+00  0.00000000E+00
  0.00000000E+00  0.00000000E+00  0.00000000E+00
  0.00000000E+00  0.00000000E+00  0.00000000E+00
  0.00000000E+00  0.00000000E+00  0.00000000E+00
  0.00000000E+00  0.00000000E+00  0.00000000E+00
  0.00000000E+00  0.00000000E+00  0.00000000E+00
  0.00000000E+00  0.00000000E+00  0.00000000E+00
  0.00000000E+00  0.00000000E+00  0.00000000E+00
  0.00000000E+00  0.00000000E+00  0.00000000E+00
  0.00000000E+00  0.00000000E+00  0.00000000E+00
  0.00000000E+00  0.00000000E+00  0.00000000E+00
  0.00000000E+00  0.00000000E+00  0.00000000E+00
  0.00000000E+00  0.00000000E+00  0.00000000E+00
  0.00000000E+00  0.00000000E+00  0.00000000E+00
  0.00000000E+00  0.00000000E+00  0.00000000E+00
  0.00000000E+00  0.00000000E+00  0.00000000E+00
  0.00000000E+00  0.00000000E+00  0.00000000E+00
  0.00000000E+00  0.00000000E+00  0.00000000E+00
  0.00000000E+00  0.00000000E+00  0.00000000E+00
  0.00000000E+00  0.00000000E+00  0.00000000E+00
  0.00000000E+00  0.00000000E+00  0.00000000E+00
  0.00000000E+00  0.00000000E+00  0.00000000E+00
  0.00000000E+00  0.00000000E+00  0.00000000E+00
  0.00000000E+00  0.00000000E+00  0.00000000E+00
  0.00000000E+00  0.00000000E+00  0.00000000E+00
  0.00000000E+00  0.00000000E+00  0.00000000E+00
  0.00000000E+00  0.00000000E+00  0.00000000E+00
  0.00000000E+00  0.00000000E+00  0.00000000E+00
  0.00000000E+00  0.00000000E+00  0.00000000E+00
  0.00000000E+00  0.00000000E+00  0.00000000E+00
  0.00000000E+00  0.00000000E+00  0.00000000E+00
  0.00000000E+00  0.00000000E+00  0.00000000E+00
  0.00000000E+00  0.00000000E+00  0.00000000E+00
  0.00000000E+00  0.00000000E+00  0.00000000E+00
  0.00000000E+00  0.00000000E+00  0.00000000E+00
  0.00000000E+00  0.00000000E+00  0.00000000E+00
  0.00000000E+00  0.00000000E+00  0.00000000E+00
  0.00000000E+00  0.00000000E+00  0.00000000E+00
  0.00000000E+00  0.00000000E+00  0.00000000E+00
  0.00000000E+00  0.00000000E+00  0.00000000E+00
  0.00000000E+00  0.00000000E+00  0.00000000E+00
  0.00000000E+00  0.00000000E+00  0.00000000E+00
  0.00000000E+00  0.00000000E+00  0.00000000E+00
