H4 W48 C1 S99 O1                        
   1.00000000000000     
    33.0000000000000000    0.0000000000000000    0.0000000000000000
     0.0000000000000000   25.2255992900000017    0.0000000000000000
     0.0000000000000000    0.0000000000000000   17.4929999999999986
   W    S    O    C    H 
    48    99     1     1     4
Direct
  0.2892746594114471  0.0413288365063888  0.4996750365135340
  0.2944493763807191  0.2832980087130461  0.4978681012024644
  0.2890637645481485  0.5304129495437244  0.5070860922972619
  0.2893873992231094  0.7874408422824679  0.5097919330033976
  0.4562562826933034  0.0349779437454870  0.5006494639622202
  0.4569833939049556  0.2846228169635699  0.5001538189938979
  0.4559977930030154  0.5343082671041831  0.5018597467404183
  0.4559555436879906  0.7847486590369840  0.5024137441246723
  0.6227703905839745  0.0348616656815890  0.4997009390754574
  0.6231333921788749  0.2845749350823603  0.4997836117939380
  0.6225817816005947  0.5341704616019760  0.5002370843235426
  0.6225107434614108  0.7844636459736439  0.5001636233563732
  0.2930123507047704  0.1639248544080715  0.4936640618993788
  0.2947538276155554  0.4076337328086878  0.4961225739286290
  0.2892114635760759  0.6554666262035294  0.5141719971700385
  0.2896301928819587  0.9080621969698589  0.5040502955589277
  0.4567819110802687  0.1597327585681691  0.4993762150977644
  0.4564225458548724  0.4092482459760932  0.5011554269515153
  0.4556173265210453  0.6589283801661674  0.5027179691848298
  0.4559400985706651  0.9096295501844728  0.5017360099816310
  0.6230027874283205  0.1593433929807156  0.4996047862107926
  0.6228728907606647  0.4097462923148368  0.5000547053820157
  0.6225250028658553  0.6592487698461329  0.5003083836395776
  0.6226558475871022  0.9097035453022174  0.4999467300931180
  0.3737088326285518  0.2228283609452846  0.4973442563952952
  0.3728564583840620  0.4710985352841103  0.5010770746195639
  0.3720561479529540  0.7220485767369446  0.5053651455377133
  0.3719511266867073  0.9728945461413924  0.5022406874168197
  0.5403194918979826  0.2220096463353030  0.4998670980018011
  0.5393184911075622  0.4719578402730485  0.5007405900198808
  0.5392779586090634  0.7218597197087849  0.5011513064968462
  0.5397275939983729  0.9722516366832132  0.5004518740095972
  0.7080941692246004  0.2151786951105610  0.4992362740114855
  0.7072470586666444  0.4716748856791126  0.4995990642079582
  0.7071800963218174  0.7278309258732552  0.4995975467568904
  0.7079644145114026  0.9785473275555929  0.4992367825305409
  0.3737907135578323  0.0980498970257365  0.4996927686548364
  0.3738241051149183  0.3461979036917312  0.5018105170440825
  0.3724280270568196  0.5955223619477085  0.5056893959803694
  0.3733005681813532  0.8474428223571189  0.5040268521945716
  0.5395346030555214  0.0971355797801520  0.4999357051570559
  0.5402088540732594  0.3471384739392671  0.5003899425912640
  0.5394981357425734  0.5967617040311763  0.5011124068675529
  0.5393967484958454  0.8470913494254750  0.5008782490843330
  0.7073938115701377  0.0973651554468034  0.4991517668127929
  0.7080291202344268  0.3539154907067821  0.4994392422135069
  0.7078170270169272  0.5904190651366406  0.4996873206912965
  0.7072222885231819  0.8410608932828680  0.4994379702814948
  0.2635088595444903  0.1041276995431757  0.5856054575562486
  0.2510985358506265  0.3461644500061063  0.5507476633877958
  0.2692861150130447  0.5971256128727722  0.6065545200764814
  0.2635135821207691  0.8485035870564405  0.5978367978752727
  0.4286680214749846  0.0978724653187671  0.5905418571589800
  0.4291823187096486  0.3464514919892462  0.5918593207654447
  0.4286256096773390  0.5959750464651155  0.5937291542178095
  0.4288864622737835  0.8475311970380626  0.5933705060572849
  0.5950018783757485  0.0971632559581384  0.5898620906137511
  0.5958693205052775  0.3468813419500892  0.5904515609156044
  0.5953952844819121  0.5968702703346219  0.5908351678102394
  0.5952270731474112  0.8473619472505656  0.5904243850883217
  0.4286661047955074  0.2220505583640848  0.5892284178268098
  0.4283454335977014  0.4713789931748171  0.5916339905204345
  0.4287801174620312  0.7220333522795246  0.5931534225077408
  0.4281563098878017  0.9728892433667649  0.5912925014687597
  0.5959002060698111  0.2220742428578378  0.5901116459274497
  0.5948978045818661  0.4718696971232561  0.5904499547983688
  0.5951571594735664  0.7217347007990719  0.5906143693371549
  0.5955401463761769  0.9722056278996634  0.5903117627705872
  0.3436941994525942  0.0366937105983106  0.5905226312569114
  0.3441566910297026  0.2826327557086754  0.5919755648164685
  0.3444303247772219  0.5302725257802361  0.5950288976436396
  0.3454801973109510  0.7850890057185276  0.5959487754345476
  0.5118866784775191  0.0347834100700219  0.5906055398899034
  0.5124996827546110  0.2843834204246543  0.5902956821371609
  0.5118001731180013  0.5342768540091508  0.5914787441878107
  0.5119477923920357  0.7845939897360371  0.5916137683857554
  0.6789470567840834  0.0358900126395109  0.5917941071975344
  0.6808317183829972  0.2844769402288073  0.5862590806730830
  0.6787852887264230  0.5331243241187122  0.5923001043475312
  0.6779329870565372  0.7845148589674893  0.5934886795883761
  0.3452640225326967  0.1622128313606001  0.5883304762495810
  0.3440326039122282  0.4090919740353857  0.5920115450433107
  0.3468388187412779  0.6596236436118984  0.5972724736931256
  0.3444151802744022  0.9110680598055020  0.5935380019144874
  0.5120628117467050  0.1598159960271853  0.5900550033479117
  0.5120746073996860  0.4092034356808842  0.5910227782708274
  0.5117671698276833  0.6592044699223806  0.5916286922822610
  0.5118846540993437  0.9099490957821118  0.5910408299904553
  0.6790266619780831  0.1584075046257803  0.5920737429771745
  0.6789488543868463  0.4105613015645475  0.5924557133723263
  0.6802777793607553  0.6589709582893063  0.5869415575578137
  0.6803780301716736  0.9100561162715131  0.5866134341951256
  0.2637465870717490  0.0988399738722361  0.4080643036168451
  0.2590819541957948  0.5965759462922492  0.4277395935529609
  0.2619566523847263  0.8470343548958799  0.4176495450575268
  0.4290111023821073  0.0969719248973837  0.4092737275012236
  0.4290377729284481  0.3470129785098521  0.4105562607804776
  0.4267648236235716  0.5967933132674522  0.4129927041022757
  0.4276993796951404  0.8469095162549733  0.4120092977772789
  0.5948172076536294  0.0970607437284567  0.4096316571175050
  0.5955954598817642  0.3470906407759676  0.4097233163536815
  0.5948868845621365  0.5969452918469201  0.4102530442043429
  0.5947233771534380  0.8471863281073317  0.4102013666185307
  0.2470019751101794  0.2260072857593518  0.4479595874297344
  0.2580448617932363  0.4648624937034387  0.4227408331356734
  0.2405934594716063  0.7224542196043584  0.5131676636349842
  0.2412512318917886  0.9738789270121464  0.5037104206397270
  0.4297479069142912  0.2225536869414619  0.4084055303503081
  0.4283701238710027  0.4721549612105772  0.4109838765770652
  0.4269738749514658  0.7217258967779097  0.4137122820291995
  0.4276253778424567  0.9720588603585580  0.4118152466616695
  0.5957755889084292  0.2222015910866318  0.4093929405543877
  0.5945280076594956  0.4720186763680098  0.4102371922221920
  0.5946004931429736  0.7216366738333604  0.4104366377542719
  0.5951623848929187  0.9720093022044846  0.4097381277789281
  0.3441868575840756  0.0344897568389484  0.4108542276976841
  0.3448699542869026  0.2864044503783502  0.4061669946796764
  0.3425269053809893  0.5345529965443245  0.4147964681980559
  0.3426865678069898  0.7841493209966930  0.4164317822817776
  0.5116236458806595  0.0343641608513943  0.4101002650890624
  0.5125064073305214  0.2847477248631837  0.4100335437819340
  0.5112314087050343  0.5346558724594185  0.4109667906863636
  0.5110943843152620  0.7843673270739989  0.4112802213271178
  0.6786258121566289  0.0358042583320823  0.4069099886871029
  0.6805822729678609  0.2846130958210785  0.4126897763555778
  0.6784254243415108  0.5332015256640688  0.4074096249880996
  0.6775195382752494  0.7843896715710525  0.4059899548088933
  0.3469585588398415  0.1600449254475814  0.4059454713353591
  0.3469677138861708  0.4072803229027495  0.4076146234069848
  0.3416287815093039  0.6590811026236115  0.4186605412935401
  0.3439053286371866  0.9097619500813455  0.4137336007048565
  0.5123042499599118  0.1597398485883605  0.4093865604569863
  0.5117360625948555  0.4095157078822719  0.4105105390737541
  0.5108160459692364  0.6592530612409662  0.4116514664121420
  0.5112548219158660  0.9095901695193803  0.4109764252272661
  0.6787775937420152  0.1584502647217860  0.4065817125764150
  0.6786205392203791  0.4106859263786413  0.4069545545804179
  0.6798909680132109  0.6589313555817810  0.4127918094883605
  0.6800234585305930  0.9099349884594699  0.4124527215832830
  0.7585115012957755  0.9102466443201769  0.4990518968952099
  0.7637714000945074  0.7844107747779296  0.4990797731495030
  0.7584300443019837  0.6586243015614447  0.4993553731565829
  0.7631075972724857  0.5328466866222318  0.4993143595511429
  0.7634719212194695  0.4105684646388982  0.4991047667316594
  0.7585769813886223  0.2845707859447000  0.4990919675802034
  0.7635651368333849  0.1585412091454944  0.4989628883533248
  0.7632467704798171  0.0361489141785017  0.4987046306273283
  0.2266478139441690  0.5056292069844588  0.5605668689870900
  0.1900899373952164  0.5372989173528833  0.5716955272073863
  0.1639650982693925  0.5104129857035147  0.5719802462573436
  0.1926694896474118  0.5571078798342989  0.6270429417710589
  0.2204094271760529  0.4762511555913596  0.5252252723776566
  0.1873277885438106  0.5667898411965413  0.5257315461152945
 
  0.00000000E+00  0.00000000E+00  0.00000000E+00
  0.00000000E+00  0.00000000E+00  0.00000000E+00
  0.00000000E+00  0.00000000E+00  0.00000000E+00
  0.00000000E+00  0.00000000E+00  0.00000000E+00
  0.00000000E+00  0.00000000E+00  0.00000000E+00
  0.00000000E+00  0.00000000E+00  0.00000000E+00
  0.00000000E+00  0.00000000E+00  0.00000000E+00
  0.00000000E+00  0.00000000E+00  0.00000000E+00
  0.00000000E+00  0.00000000E+00  0.00000000E+00
  0.00000000E+00  0.00000000E+00  0.00000000E+00
  0.00000000E+00  0.00000000E+00  0.00000000E+00
  0.00000000E+00  0.00000000E+00  0.00000000E+00
  0.00000000E+00  0.00000000E+00  0.00000000E+00
  0.00000000E+00  0.00000000E+00  0.00000000E+00
  0.00000000E+00  0.00000000E+00  0.00000000E+00
  0.00000000E+00  0.00000000E+00  0.00000000E+00
  0.00000000E+00  0.00000000E+00  0.00000000E+00
  0.00000000E+00  0.00000000E+00  0.00000000E+00
  0.00000000E+00  0.00000000E+00  0.00000000E+00
  0.00000000E+00  0.00000000E+00  0.00000000E+00
  0.00000000E+00  0.00000000E+00  0.00000000E+00
  0.00000000E+00  0.00000000E+00  0.00000000E+00
  0.00000000E+00  0.00000000E+00  0.00000000E+00
  0.00000000E+00  0.00000000E+00  0.00000000E+00
  0.00000000E+00  0.00000000E+00  0.00000000E+00
  0.00000000E+00  0.00000000E+00  0.00000000E+00
  0.00000000E+00  0.00000000E+00  0.00000000E+00
  0.00000000E+00  0.00000000E+00  0.00000000E+00
  0.00000000E+00  0.00000000E+00  0.00000000E+00
  0.00000000E+00  0.00000000E+00  0.00000000E+00
  0.00000000E+00  0.00000000E+00  0.00000000E+00
  0.00000000E+00  0.00000000E+00  0.00000000E+00
  0.00000000E+00  0.00000000E+00  0.00000000E+00
  0.00000000E+00  0.00000000E+00  0.00000000E+00
  0.00000000E+00  0.00000000E+00  0.00000000E+00
  0.00000000E+00  0.00000000E+00  0.00000000E+00
  0.00000000E+00  0.00000000E+00  0.00000000E+00
  0.00000000E+00  0.00000000E+00  0.00000000E+00
  0.00000000E+00  0.00000000E+00  0.00000000E+00
  0.00000000E+00  0.00000000E+00  0.00000000E+00
  0.00000000E+00  0.00000000E+00  0.00000000E+00
  0.00000000E+00  0.00000000E+00  0.00000000E+00
  0.00000000E+00  0.00000000E+00  0.00000000E+00
  0.00000000E+00  0.00000000E+00  0.00000000E+00
  0.00000000E+00  0.00000000E+00  0.00000000E+00
  0.00000000E+00  0.00000000E+00  0.00000000E+00
  0.00000000E+00  0.00000000E+00  0.00000000E+00
  0.00000000E+00  0.00000000E+00  0.00000000E+00
  0.00000000E+00  0.00000000E+00  0.00000000E+00
  0.00000000E+00  0.00000000E+00  0.00000000E+00
  0.00000000E+00  0.00000000E+00  0.00000000E+00
  0.00000000E+00  0.00000000E+00  0.00000000E+00
  0.00000000E+00  0.00000000E+00  0.00000000E+00
  0.00000000E+00  0.00000000E+00  0.00000000E+00
  0.00000000E+00  0.00000000E+00  0.00000000E+00
  0.00000000E+00  0.00000000E+00  0.00000000E+00
  0.00000000E+00  0.00000000E+00  0.00000000E+00
  0.00000000E+00  0.00000000E+00  0.00000000E+00
  0.00000000E+00  0.00000000E+00  0.00000000E+00
  0.00000000E+00  0.00000000E+00  0.00000000E+00
  0.00000000E+00  0.00000000E+00  0.00000000E+00
  0.00000000E+00  0.00000000E+00  0.00000000E+00
  0.00000000E+00  0.00000000E+00  0.00000000E+00
  0.00000000E+00  0.00000000E+00  0.00000000E+00
  0.00000000E+00  0.00000000E+00  0.00000000E+00
  0.00000000E+00  0.00000000E+00  0.00000000E+00
  0.00000000E+00  0.00000000E+00  0.00000000E+00
  0.00000000E+00  0.00000000E+00  0.00000000E+00
  0.00000000E+00  0.00000000E+00  0.00000000E+00
  0.00000000E+00  0.00000000E+00  0.00000000E+00
  0.00000000E+00  0.00000000E+00  0.00000000E+00
  0.00000000E+00  0.00000000E+00  0.00000000E+00
  0.00000000E+00  0.00000000E+00  0.00000000E+00
  0.00000000E+00  0.00000000E+00  0.00000000E+00
  0.00000000E+00  0.00000000E+00  0.00000000E+00
  0.00000000E+00  0.00000000E+00  0.00000000E+00
  0.00000000E+00  0.00000000E+00  0.00000000E+00
  0.00000000E+00  0.00000000E+00  0.00000000E+00
  0.00000000E+00  0.00000000E+00  0.00000000E+00
  0.00000000E+00  0.00000000E+00  0.00000000E+00
  0.00000000E+00  0.00000000E+00  0.00000000E+00
  0.00000000E+00  0.00000000E+00  0.00000000E+00
  0.00000000E+00  0.00000000E+00  0.00000000E+00
  0.00000000E+00  0.00000000E+00  0.00000000E+00
  0.00000000E+00  0.00000000E+00  0.00000000E+00
  0.00000000E+00  0.00000000E+00  0.00000000E+00
  0.00000000E+00  0.00000000E+00  0.00000000E+00
  0.00000000E+00  0.00000000E+00  0.00000000E+00
  0.00000000E+00  0.00000000E+00  0.00000000E+00
  0.00000000E+00  0.00000000E+00  0.00000000E+00
  0.00000000E+00  0.00000000E+00  0.00000000E+00
  0.00000000E+00  0.00000000E+00  0.00000000E+00
  0.00000000E+00  0.00000000E+00  0.00000000E+00
  0.00000000E+00  0.00000000E+00  0.00000000E+00
  0.00000000E+00  0.00000000E+00  0.00000000E+00
  0.00000000E+00  0.00000000E+00  0.00000000E+00
  0.00000000E+00  0.00000000E+00  0.00000000E+00
  0.00000000E+00  0.00000000E+00  0.00000000E+00
  0.00000000E+00  0.00000000E+00  0.00000000E+00
  0.00000000E+00  0.00000000E+00  0.00000000E+00
  0.00000000E+00  0.00000000E+00  0.00000000E+00
  0.00000000E+00  0.00000000E+00  0.00000000E+00
  0.00000000E+00  0.00000000E+00  0.00000000E+00
  0.00000000E+00  0.00000000E+00  0.00000000E+00
  0.00000000E+00  0.00000000E+00  0.00000000E+00
  0.00000000E+00  0.00000000E+00  0.00000000E+00
  0.00000000E+00  0.00000000E+00  0.00000000E+00
  0.00000000E+00  0.00000000E+00  0.00000000E+00
  0.00000000E+00  0.00000000E+00  0.00000000E+00
  0.00000000E+00  0.00000000E+00  0.00000000E+00
  0.00000000E+00  0.00000000E+00  0.00000000E+00
  0.00000000E+00  0.00000000E+00  0.00000000E+00
  0.00000000E+00  0.00000000E+00  0.00000000E+00
  0.00000000E+00  0.00000000E+00  0.00000000E+00
  0.00000000E+00  0.00000000E+00  0.00000000E+00
  0.00000000E+00  0.00000000E+00  0.00000000E+00
  0.00000000E+00  0.00000000E+00  0.00000000E+00
  0.00000000E+00  0.00000000E+00  0.00000000E+00
  0.00000000E+00  0.00000000E+00  0.00000000E+00
  0.00000000E+00  0.00000000E+00  0.00000000E+00
  0.00000000E+00  0.00000000E+00  0.00000000E+00
  0.00000000E+00  0.00000000E+00  0.00000000E+00
  0.00000000E+00  0.00000000E+00  0.00000000E+00
  0.00000000E+00  0.00000000E+00  0.00000000E+00
  0.00000000E+00  0.00000000E+00  0.00000000E+00
  0.00000000E+00  0.00000000E+00  0.00000000E+00
  0.00000000E+00  0.00000000E+00  0.00000000E+00
  0.00000000E+00  0.00000000E+00  0.00000000E+00
  0.00000000E+00  0.00000000E+00  0.00000000E+00
  0.00000000E+00  0.00000000E+00  0.00000000E+00
  0.00000000E+00  0.00000000E+00  0.00000000E+00
  0.00000000E+00  0.00000000E+00  0.00000000E+00
  0.00000000E+00  0.00000000E+00  0.00000000E+00
  0.00000000E+00  0.00000000E+00  0.00000000E+00
  0.00000000E+00  0.00000000E+00  0.00000000E+00
  0.00000000E+00  0.00000000E+00  0.00000000E+00
  0.00000000E+00  0.00000000E+00  0.00000000E+00
  0.00000000E+00  0.00000000E+00  0.00000000E+00
  0.00000000E+00  0.00000000E+00  0.00000000E+00
  0.00000000E+00  0.00000000E+00  0.00000000E+00
  0.00000000E+00  0.00000000E+00  0.00000000E+00
  0.00000000E+00  0.00000000E+00  0.00000000E+00
  0.00000000E+00  0.00000000E+00  0.00000000E+00
  0.00000000E+00  0.00000000E+00  0.00000000E+00
  0.00000000E+00  0.00000000E+00  0.00000000E+00
  0.00000000E+00  0.00000000E+00  0.00000000E+00
  0.00000000E+00  0.00000000E+00  0.00000000E+00
  0.00000000E+00  0.00000000E+00  0.00000000E+00
  0.00000000E+00  0.00000000E+00  0.00000000E+00
  0.00000000E+00  0.00000000E+00  0.00000000E+00
  0.00000000E+00  0.00000000E+00  0.00000000E+00
  0.00000000E+00  0.00000000E+00  0.00000000E+00
  0.00000000E+00  0.00000000E+00  0.00000000E+00
