H4 W48 C1 S99 O1
1.0
  33.0000000000000000    0.0000000000000000    0.0000000000000000
   0.0000000000000000   25.2255992900000017    0.0000000000000000
   0.0000000000000000    0.0000000000000000   17.4929999999999986
W S O C H
48 99 1 1 4
direct
   0.2885759400000000    0.0428526900000000    0.5009309100000000 W
   0.2940948600000000    0.2841267500000000    0.5056331500000000 W
   0.2926738300000000    0.5302805000000000    0.4999572300000000 W
   0.2890136100000000    0.7875235700000000    0.5023902700000000 W
   0.4556902700000000    0.0359364800000000    0.5012021500000000 W
   0.4566228800000000    0.2857650500000000    0.5010578600000000 W
   0.4563732200000000    0.5352978200000000    0.5006018100000000 W
   0.4555114400000000    0.7855477500000000    0.5014530200000000 W
   0.6222945600000001    0.0357936600000000    0.4997955100000000 W
   0.6229708600000000    0.2854180800000000    0.4996660300000000 W
   0.6226940900000000    0.5351149200000000    0.4996450500000000 W
   0.6222852500000000    0.7855110300000000    0.4998683300000000 W
   0.2925700400000000    0.1657612200000000    0.5000695100000000 W
   0.2941416800000000    0.4118952300000000    0.5055899300000000 W
   0.2887071600000000    0.6531638800000000    0.5008540700000000 W
   0.2889516400000000    0.9083720300000000    0.5024389300000000 W
   0.4562984200000000    0.1607816700000000    0.5006009800000000 W
   0.4566112100000000    0.4101113200000000    0.5010669100000000 W
   0.4558354900000000    0.6599806600000000    0.5011791500000000 W
   0.4553837400000000    0.9104791600000000    0.5014774600000000 W
   0.6226127700000000    0.1602434900000000    0.4996900000000000 W
   0.6229127200000000    0.4106005800000000    0.4996321000000000 W
   0.6225195800000000    0.6602941800000000    0.4997421000000000 W
   0.6222313300000000    0.9106703100000000    0.4998909600000000 W
   0.3733490000000000    0.2241651700000000    0.5007774300000000 W
   0.3734090100000000    0.4718290100000000    0.5007673700000000 W
   0.3714647500000000    0.7222304800000000    0.5021784400000000 W
   0.3713452200000000    0.9737572400000000    0.5022300500000000 W
   0.5399637900000001    0.2229498300000000    0.5001561400000000 W
   0.5394980100000000    0.4728545600000000    0.5001438700000000 W
   0.5392043100000000    0.7229150000000000    0.5005220200000000 W
   0.5392108799999999    0.9731627800000000    0.5005393299999999 W
   0.7078139900000000    0.2159986200000000    0.4991392100000000 W
   0.7073015300000000    0.4725959900000000    0.4990545600000000 W
   0.7070393000000000    0.7288808900000000    0.4991607000000000 W
   0.7075176300000000    0.9795236899999999    0.4992342400000000 W
   0.3732209500000000    0.0991726700000000    0.5018474800000000 W
   0.3733427900000000    0.3479774600000000    0.5043529100000000 W
   0.3733290800000000    0.5968480500000000    0.5017932700000000 W
   0.3727547400000000    0.8479778000000000    0.5020769300000000 W
   0.5390521000000000    0.0980624300000000    0.5002796200000000 W
   0.5401754700000000    0.3480048800000000    0.5002798700000000 W
   0.5396637900000000    0.5977831500000000    0.5002422200000000 W
   0.5389767700000000    0.8480270400000000    0.5006305800000000 W
   0.7069711300000000    0.0982434900000000    0.4991938200000000 W
   0.7079838899999999    0.3547424800000000    0.4990469900000000 W
   0.7078455600000000    0.5914303000000000    0.4991135600000000 W
   0.7069340600000000    0.8421840900000001    0.4992206900000000 W
   0.2635828500000000    0.1048604700000000    0.5898360100000000 S
   0.2543681900000000    0.3480451900000000    0.5653006600000000 S
   0.2636720900000000    0.5912016700000000    0.5897277900000000 S
   0.2623598600000000    0.8479108700000000    0.5924926800000000 S
   0.4284684200000000    0.0986078900000000    0.5917956100000000 S
   0.4294538700000000    0.3479333400000000    0.5927633500000000 S
   0.4285566400000000    0.5974256500000000    0.5918218100000000 S
   0.4279462900000000    0.8479681400000000    0.5923437499999999 S
   0.5946080300000000    0.0980851100000000    0.5900193800000000 S
   0.5958911800000000    0.3478615200000000    0.5902396200000000 S
   0.5954368400000000    0.5978473300000000    0.5901637700000000 S
   0.5948066300000000    0.8482247900000000    0.5902247100000000 S
   0.4289524100000000    0.2232423000000000    0.5910834900000000 S
   0.4290075200000000    0.4727660800000000    0.5910486000000000 S
   0.4276731700000000    0.7225196800000000    0.5912837700000000 S
   0.4275209300000000    0.9734539200000000    0.5913503400000000 S
   0.5956621600000001    0.2230545600000000    0.5901758700000000 S
   0.5950270200000000    0.4728536800000000    0.5899198500000000 S
   0.5950093600000000    0.7226725400000000    0.5901450200000000 S
   0.5950654300000000    0.9730673100000000    0.5903353500000000 S
   0.3430847400000000    0.0370257800000000    0.5915994999999999 S
   0.3452653300000000    0.2843461800000000    0.5965736800000000 S
   0.3458827400000000    0.5328851500000000    0.5923979100000000 S
   0.3436907200000000    0.7848436000000000    0.5920417600000000 S
   0.5114414400000000    0.0355787300000000    0.5908835400000000 S
   0.5124663300000000    0.2854982600000000    0.5905686400000000 S
   0.5119555900000000    0.5353959800000000    0.5905866800000000 S
   0.5113892500000000    0.7853650200000000    0.5909999100000000 S
   0.6784925700000000    0.0368052200000000    0.5918653400000000 S
   0.6807099700000000    0.2854120900000000    0.5860688500000000 S
   0.6788745400000000    0.5340980000000000    0.5917403000000000 S
   0.6777242300000000    0.7854833100000000    0.5931540900000000 S
   0.3457993000000000    0.1631572600000000    0.5924476600000000 S
   0.3453008300000000    0.4116585900000000    0.5965620000000000 S
   0.3432049800000000    0.6589885599999999    0.5915617800000000 S
   0.3436244200000000    0.9110800000000000    0.5920526400000000 S
   0.5118658300000000    0.1607732600000000    0.5906122499999999 S
   0.5123265900000000    0.4102832700000000    0.5907735100000000 S
   0.5116848500000000    0.6602039300000000    0.5906843100000000 S
   0.5112930999999999    0.9106852500000000    0.5908846700000000 S
   0.6786894200000000    0.1593362200000000    0.5920909700000000 S
   0.6790083500000000    0.4115189100000000    0.5919758000000001 S
   0.6802355300000000    0.6599543300000000    0.5864182600000000 S
   0.6799725800000000    0.9109951100000000    0.5865622900000000 S
   0.2627188000000000    0.1013787500000000    0.4121083400000000 S
   0.2629002100000000    0.5946417400000000    0.4119458700000000 S
   0.2624081400000000    0.8479469600000000    0.4122900900000000 S
   0.4280857700000000    0.0982973100000000    0.4106257000000000 S
   0.4280035200000000    0.3479448600000000    0.4116498400000000 S
   0.4281984000000000    0.5977293500000000    0.4105652400000000 S
   0.4275432400000000    0.8479904600000000    0.4110314900000000 S
   0.5942790999999999    0.0980048900000000    0.4098126300000000 S
   0.5954998900000000    0.3478430400000000    0.4094872000000000 S
   0.5950991799999999    0.5979189600000000    0.4095675600000000 S
   0.5943709700000001    0.8482423300000000    0.4100201500000000 S
   0.2440766700000000    0.2275188400000000    0.4635014500000000 S
   0.2441757200000000    0.4685334000000000    0.4633392300000000 S
   0.2410765300000000    0.7211948400000000    0.5026004100000000 S
   0.2410232600000000    0.9747456799999999    0.5028468800000000 S
   0.4286923200000000    0.2236588800000000    0.4102469900000000 S
   0.4287587900000000    0.4723411800000000    0.4102860800000000 S
   0.4272358800000000    0.7226873800000000    0.4119621200000000 S
   0.4270732800000000    0.9732899000000000    0.4119616600000000 S
   0.5953466600000000    0.2230491000000000    0.4094842400000000 S
   0.5946937100000000    0.4728460600000000    0.4096793200000000 S
   0.5945866000000000    0.7227574700000000    0.4099296700000000 S
   0.5946549600000000    0.9730057300000000    0.4097951300000000 S
   0.3434810700000000    0.0362317600000000    0.4122009700000000 S
   0.3432909700000000    0.2876144900000000    0.4111512900000000 S
   0.3456198400000000    0.5341552899999999    0.4098515900000000 S
   0.3435805700000000    0.7848819800000000    0.4125389000000000 S
   0.5109909300000000    0.0354118400000000    0.4104480800000000 S
   0.5119516200000001    0.2856037600000000    0.4104102900000000 S
   0.5116589600000000    0.5354419600000000    0.4100194200000000 S
   0.5108988900000000    0.7854324300000000    0.4107315900000000 S
   0.6781446500000000    0.0367628900000000    0.4069578200000000 S
   0.6803859900000000    0.2853797300000000    0.4124849100000000 S
   0.6785295200000000    0.5341324300000000    0.4068276700000000 S
   0.6772953300000000    0.7855335700000000    0.4057100400000000 S
   0.3454819700000000    0.1618412800000000    0.4099110100000000 S
   0.3433457300000000    0.4083710600000000    0.4111357400000000 S
   0.3436138300000000    0.6597849099999999    0.4120996800000000 S
   0.3435071100000000    0.9110860400000000    0.4125867200000000 S
   0.5115845800000000    0.1607162100000000    0.4100262000000000 S
   0.5118022000000000    0.4101695100000000    0.4102072400000000 S
   0.5112329500000000    0.6603805100000000    0.4105960800000000 S
   0.5107968800000000    0.9106338200000000    0.4108709800000000 S
   0.6783640100000000    0.1592903300000000    0.4066032000000000 S
   0.6786343200000000    0.4115164500000000    0.4064942300000000 S
   0.6798829900000000    0.6600044800000000    0.4122365100000000 S
   0.6795969500000000    0.9109947100000000    0.4123502300000000 S
   0.7581571499999999    0.9113515500000000    0.4988672100000000 S
   0.7635284800000000    0.7855945400000000    0.4987154700000000 S
   0.7583669800000000    0.6597482400000000    0.4987709300000000 S
   0.7631302900000000    0.5338282400000000    0.4988848000000000 S
   0.7634575000000000    0.4113868000000000    0.4984828800000000 S
   0.7584077299999999    0.2852892000000000    0.4988532000000000 S
   0.7632184400000001    0.1593098300000000    0.4988434500000000 S
   0.7628145100000000    0.0370680700000000    0.4988493400000000 S
   0.2360456893939394    0.4961279389410632    0.5580747061333104 O
   0.1948426272727273    0.5148851666509147    0.5665670888006631 C
   0.1744235972727273    0.4808671122080940    0.5592436868684616 H
   0.1909020645454546    0.5321875631165965    0.6236995635048305 H
   0.2392172990909091    0.4536165508994275    0.5595297064191390 H
   0.1888753569696970    0.5447493558556740    0.5223932364025610 H
