Mo36 H4 C1 S70 O1                       
   1.00000000000000     
    19.1418952942000011    0.0000000000000000    0.0000000000000000
    -9.5709489007999995   16.5773646751000001    0.0000000000000000
     0.0000000000000000    0.0000000000000000   23.1298294067000008
   Mo   S    O    C    H 
    36    70     1     1     4
Direct
  0.1130265999381202  0.0558630240859976  0.4985209728989914
  0.1130195138950169  0.2225173772775819  0.4981530392032963
  0.1128815094085185  0.3890724564032627  0.4986826257900990
  0.1122677257622473  0.5553236678671457  0.4998886351076719
  0.1120316437758267  0.7218886975294038  0.5002898823786163
  0.1123115061123222  0.8885446474673727  0.4994453879918613
  0.2796034895877985  0.0559769687843041  0.4994301894992336
  0.2805128005007033  0.2234023619885365  0.4987940837713365
  0.2806039240122780  0.3891139796706681  0.4990214762197145
  0.2797794099209642  0.5553089441673424  0.4997248797937562
  0.2793481676541262  0.7220427165784397  0.5000168632911307
  0.2793063082847596  0.8889252340435955  0.4998444015076840
  0.4463572646629728  0.0562199031734509  0.5000546741029137
  0.4463545000407548  0.2237344524131635  0.5005983866705940
  0.4494643613691333  0.3913718836698972  0.5015857211742100
  0.4475621931817177  0.5544278498147583  0.5015073175954898
  0.4464894502491872  0.7218876580467714  0.5001219982807006
  0.4461846649638307  0.8889386279278954  0.4997972005980926
  0.6128798498377197  0.0560584186747965  0.4994107895671041
  0.6135710646768124  0.2237574361450177  0.5006235334946835
  0.6151103663914778  0.3929421830612665  0.4986155820523839
  0.6124357801391930  0.5528226308971047  0.5047851126773096
  0.6129277785930098  0.7209611587862326  0.5005601049316952
  0.6127795811665294  0.8885850576402169  0.4993634460503822
  0.7793349551408159  0.0559066821247497  0.4985157098270827
  0.7793577420011711  0.2234297750098043  0.4989944142992476
  0.7790528980004010  0.3915501983229301  0.5023970644857577
  0.7774643601381440  0.5526945193278748  0.5050090582140615
  0.7789748079115620  0.7215592287152471  0.5011823152218819
  0.7791892416534791  0.8885404406288143  0.4991869102421491
  0.9460443070830848  0.0556021990879200  0.4982918373401373
  0.9460377782949557  0.2225272897641698  0.4982293932069674
  0.9452601233379166  0.3891818699672174  0.4993607244976945
  0.9436855330677989  0.5545350789795062  0.5018874019768906
  0.9445610530448098  0.7209429317764516  0.5006528765835702
  0.9458429709683017  0.8885156814820337  0.4992179704576460
  0.0573507602454175  0.1110856357423938  0.4310022304366717
  0.0574372451953070  0.2784100164270020  0.4310110198798957
  0.0565801862667507  0.4450891139743183  0.4320162832476535
  0.0547952328993316  0.6102343441139316  0.4337260376689354
  0.0554795483355821  0.7761464389879442  0.4329064286298938
  0.0569478547187543  0.9437987900629411  0.4317711119237415
  0.2249564249462325  0.1118246616505279  0.4316212126668999
  0.2249929103269487  0.2785835738186333  0.4312738464160778
  0.2250393016542222  0.4450717986402225  0.4318543162808956
  0.2238088309457145  0.6110601558454243  0.4327190108364699
  0.2232688961014364  0.7773254079270372  0.4329038480253863
  0.2238215532513281  0.9442955974736872  0.4323673354202286
  0.3912902414289005  0.1123440321736108  0.4328866839803496
  0.3954035896859541  0.2824097665753881  0.4330943263844371
  0.3956668326668270  0.4457916546215014  0.4331979866469819
  0.3920842539891085  0.6102742522235566  0.4334704944542131
  0.3906164598075547  0.7773597647661767  0.4328264197247451
  0.3906694504418878  0.9448354194890387  0.4327383048100912
  0.5575186778367613  0.1124661624685148  0.4328745987205317
  0.5571713340363014  0.2785488968232213  0.4349072331008938
  0.5582428783687494  0.6059482747486151  0.4349239135339820
  0.5573016647689629  0.7762428570822210  0.4327675290708340
  0.5570293704407798  0.9443956466934225  0.4323161817527940
  0.7234259566239338  0.1120185137409725  0.4316639695768313
  0.7235708028622696  0.2828515451951256  0.4333659401800545
  0.7207729238183125  0.6047884529217314  0.4369533094564794
  0.7233063896163273  0.7758864409153822  0.4328787463679903
  0.7234224113655926  0.9438892370038413  0.4317325045005807
  0.8902556774905541  0.1111594230235080  0.4310225896978409
  0.8901145488113470  0.2787288580056510  0.4315088946017277
  0.8868444584373405  0.4459327228779328  0.4335946684284428
  0.8845862924405506  0.6058347130781659  0.4350327818611635
  0.8890517765318391  0.7757907247496675  0.4329572731773496
  0.8900448746132551  0.9435510342842747  0.4316104621871401
  0.0572471774197444  0.1114623577846432  0.5654742832127770
  0.0571432528276192  0.2776356924526533  0.5655125842129083
  0.0568099010438722  0.4436836177174321  0.5664546814897818
  0.0570512541802268  0.6108452414447358  0.5677418107894591
  0.0567304515824184  0.7779125710334035  0.5672651894267383
  0.0573014191026364  0.9450694922916900  0.5662130557985943
  0.2239286008540257  0.1120111357648515  0.5660367306921930
  0.2237914154499653  0.2777505826890885  0.5656883540791089
  0.2238051513256692  0.4436692841519802  0.5662773356979772
  0.2237704604987023  0.6106279741197471  0.5670408389359745
  0.2237755601869745  0.7778091704655866  0.5672334201046839
  0.2235542370950983  0.9447009525409552  0.5667484361144786
  0.3904767572498979  0.1116898093452370  0.5671997249531319
  0.3907043757618328  0.2795339191132388  0.5675445513763987
  0.3904258995528468  0.4425097516825197  0.5682555403800847
  0.3905793932021130  0.6107175699421487  0.5674632894778543
  0.3907353358018875  0.7777849696267891  0.5671609469046638
  0.3906009266391052  0.9446088679251969  0.5670762037597245
  0.5576710708204577  0.1117096190558251  0.5671998404319968
  0.5593816659267580  0.2824693826103237  0.5669540865352491
  0.5586385471493027  0.4415342625192148  0.5682962697435903
  0.5582351850684094  0.6110128625758382  0.5698272895887783
  0.5577124155893486  0.7778994294549402  0.5671522361991707
  0.5577004298463167  0.9447259402048914  0.5666961897953235
  0.7245262507011014  0.1119322184589953  0.5660877395619047
  0.7249551041255586  0.2790559738864554  0.5678314436968483
  0.7198444213485838  0.4415859675451495  0.5687376638811876
  0.7241717621188195  0.6118942434572445  0.5708942945865397
  0.7241184894367665  0.7784832096934946  0.5674461072313071
  0.7242668879044742  0.9450707846603803  0.5661762645349968
  0.8906978022951558  0.1114318061288311  0.5654966313708131
  0.8904942298793715  0.2776340940502189  0.5658718164697816
  0.8893068418753144  0.4427062807195392  0.5688448398163731
  0.8894437696907123  0.6112118159817106  0.5700488993820916
  0.8907688605854523  0.7784840934627277  0.5674745189836867
  0.8907352133613711  0.9449788100505485  0.5660456666490037
  0.6556698482462726  0.4412248100977988  0.4018931776368514
  0.6062514776164611  0.4350868656371231  0.3523866563260436
  0.5695224935352913  0.3722163994616458  0.3379952834111099
  0.6969290248961325  0.4278437289233094  0.3910467182710593
  0.6456467729427980  0.4730977276631662  0.3173693939213319
  0.5669069295046392  0.4579111291822678  0.3668573391549669
 
  0.00000000E+00  0.00000000E+00  0.00000000E+00
  0.00000000E+00  0.00000000E+00  0.00000000E+00
  0.00000000E+00  0.00000000E+00  0.00000000E+00
  0.00000000E+00  0.00000000E+00  0.00000000E+00
  0.00000000E+00  0.00000000E+00  0.00000000E+00
  0.00000000E+00  0.00000000E+00  0.00000000E+00
  0.00000000E+00  0.00000000E+00  0.00000000E+00
  0.00000000E+00  0.00000000E+00  0.00000000E+00
  0.00000000E+00  0.00000000E+00  0.00000000E+00
  0.00000000E+00  0.00000000E+00  0.00000000E+00
  0.00000000E+00  0.00000000E+00  0.00000000E+00
  0.00000000E+00  0.00000000E+00  0.00000000E+00
  0.00000000E+00  0.00000000E+00  0.00000000E+00
  0.00000000E+00  0.00000000E+00  0.00000000E+00
  0.00000000E+00  0.00000000E+00  0.00000000E+00
  0.00000000E+00  0.00000000E+00  0.00000000E+00
  0.00000000E+00  0.00000000E+00  0.00000000E+00
  0.00000000E+00  0.00000000E+00  0.00000000E+00
  0.00000000E+00  0.00000000E+00  0.00000000E+00
  0.00000000E+00  0.00000000E+00  0.00000000E+00
  0.00000000E+00  0.00000000E+00  0.00000000E+00
  0.00000000E+00  0.00000000E+00  0.00000000E+00
  0.00000000E+00  0.00000000E+00  0.00000000E+00
  0.00000000E+00  0.00000000E+00  0.00000000E+00
  0.00000000E+00  0.00000000E+00  0.00000000E+00
  0.00000000E+00  0.00000000E+00  0.00000000E+00
  0.00000000E+00  0.00000000E+00  0.00000000E+00
  0.00000000E+00  0.00000000E+00  0.00000000E+00
  0.00000000E+00  0.00000000E+00  0.00000000E+00
  0.00000000E+00  0.00000000E+00  0.00000000E+00
  0.00000000E+00  0.00000000E+00  0.00000000E+00
  0.00000000E+00  0.00000000E+00  0.00000000E+00
  0.00000000E+00  0.00000000E+00  0.00000000E+00
  0.00000000E+00  0.00000000E+00  0.00000000E+00
  0.00000000E+00  0.00000000E+00  0.00000000E+00
  0.00000000E+00  0.00000000E+00  0.00000000E+00
  0.00000000E+00  0.00000000E+00  0.00000000E+00
  0.00000000E+00  0.00000000E+00  0.00000000E+00
  0.00000000E+00  0.00000000E+00  0.00000000E+00
  0.00000000E+00  0.00000000E+00  0.00000000E+00
  0.00000000E+00  0.00000000E+00  0.00000000E+00
  0.00000000E+00  0.00000000E+00  0.00000000E+00
  0.00000000E+00  0.00000000E+00  0.00000000E+00
  0.00000000E+00  0.00000000E+00  0.00000000E+00
  0.00000000E+00  0.00000000E+00  0.00000000E+00
  0.00000000E+00  0.00000000E+00  0.00000000E+00
  0.00000000E+00  0.00000000E+00  0.00000000E+00
  0.00000000E+00  0.00000000E+00  0.00000000E+00
  0.00000000E+00  0.00000000E+00  0.00000000E+00
  0.00000000E+00  0.00000000E+00  0.00000000E+00
  0.00000000E+00  0.00000000E+00  0.00000000E+00
  0.00000000E+00  0.00000000E+00  0.00000000E+00
  0.00000000E+00  0.00000000E+00  0.00000000E+00
  0.00000000E+00  0.00000000E+00  0.00000000E+00
  0.00000000E+00  0.00000000E+00  0.00000000E+00
  0.00000000E+00  0.00000000E+00  0.00000000E+00
  0.00000000E+00  0.00000000E+00  0.00000000E+00
  0.00000000E+00  0.00000000E+00  0.00000000E+00
  0.00000000E+00  0.00000000E+00  0.00000000E+00
  0.00000000E+00  0.00000000E+00  0.00000000E+00
  0.00000000E+00  0.00000000E+00  0.00000000E+00
  0.00000000E+00  0.00000000E+00  0.00000000E+00
  0.00000000E+00  0.00000000E+00  0.00000000E+00
  0.00000000E+00  0.00000000E+00  0.00000000E+00
  0.00000000E+00  0.00000000E+00  0.00000000E+00
  0.00000000E+00  0.00000000E+00  0.00000000E+00
  0.00000000E+00  0.00000000E+00  0.00000000E+00
  0.00000000E+00  0.00000000E+00  0.00000000E+00
  0.00000000E+00  0.00000000E+00  0.00000000E+00
  0.00000000E+00  0.00000000E+00  0.00000000E+00
  0.00000000E+00  0.00000000E+00  0.00000000E+00
  0.00000000E+00  0.00000000E+00  0.00000000E+00
  0.00000000E+00  0.00000000E+00  0.00000000E+00
  0.00000000E+00  0.00000000E+00  0.00000000E+00
  0.00000000E+00  0.00000000E+00  0.00000000E+00
  0.00000000E+00  0.00000000E+00  0.00000000E+00
  0.00000000E+00  0.00000000E+00  0.00000000E+00
  0.00000000E+00  0.00000000E+00  0.00000000E+00
  0.00000000E+00  0.00000000E+00  0.00000000E+00
  0.00000000E+00  0.00000000E+00  0.00000000E+00
  0.00000000E+00  0.00000000E+00  0.00000000E+00
  0.00000000E+00  0.00000000E+00  0.00000000E+00
  0.00000000E+00  0.00000000E+00  0.00000000E+00
  0.00000000E+00  0.00000000E+00  0.00000000E+00
  0.00000000E+00  0.00000000E+00  0.00000000E+00
  0.00000000E+00  0.00000000E+00  0.00000000E+00
  0.00000000E+00  0.00000000E+00  0.00000000E+00
  0.00000000E+00  0.00000000E+00  0.00000000E+00
  0.00000000E+00  0.00000000E+00  0.00000000E+00
  0.00000000E+00  0.00000000E+00  0.00000000E+00
  0.00000000E+00  0.00000000E+00  0.00000000E+00
  0.00000000E+00  0.00000000E+00  0.00000000E+00
  0.00000000E+00  0.00000000E+00  0.00000000E+00
  0.00000000E+00  0.00000000E+00  0.00000000E+00
  0.00000000E+00  0.00000000E+00  0.00000000E+00
  0.00000000E+00  0.00000000E+00  0.00000000E+00
  0.00000000E+00  0.00000000E+00  0.00000000E+00
  0.00000000E+00  0.00000000E+00  0.00000000E+00
  0.00000000E+00  0.00000000E+00  0.00000000E+00
  0.00000000E+00  0.00000000E+00  0.00000000E+00
  0.00000000E+00  0.00000000E+00  0.00000000E+00
  0.00000000E+00  0.00000000E+00  0.00000000E+00
  0.00000000E+00  0.00000000E+00  0.00000000E+00
  0.00000000E+00  0.00000000E+00  0.00000000E+00
  0.00000000E+00  0.00000000E+00  0.00000000E+00
  0.00000000E+00  0.00000000E+00  0.00000000E+00
  0.00000000E+00  0.00000000E+00  0.00000000E+00
  0.00000000E+00  0.00000000E+00  0.00000000E+00
  0.00000000E+00  0.00000000E+00  0.00000000E+00
  0.00000000E+00  0.00000000E+00  0.00000000E+00
  0.00000000E+00  0.00000000E+00  0.00000000E+00
  0.00000000E+00  0.00000000E+00  0.00000000E+00
