Mo  S                                   
   1.00000000000000     
    33.0000000000000000    0.0000000000000000    0.0000000000000000
     0.0000000000000000   25.5200004577999984    0.0000000000000000
     0.0000000000000000    0.0000000000000000   17.4729003905999996
   Mo   S    O    C 
    48    98     1     1
Direct
  0.2847784228150160  0.1053063126005302  0.4966266823447618
  0.3694321270108147  0.0354357311138831  0.4985682667508871
  0.2857945592029598  0.2262876481939964  0.4964473888910696
  0.3699991315518871  0.1604856271469173  0.4982799965875306
  0.4520950344323494  0.0976054670383364  0.5001970205548544
  0.5351065023375988  0.0348525620808596  0.5022997344876287
  0.2857578532129768  0.3427771118020922  0.4963771539045956
  0.3702829977081559  0.2845644162135323  0.4981377542109318
  0.4530914176713495  0.2223863282388480  0.4999071789356972
  0.5353648757911041  0.1595017526999714  0.5016906046634351
  0.6172090973861746  0.0971891687617603  0.5037865385076296
  0.2846946372469936  0.4637509757968583  0.4964388339239914
  0.3699365123434792  0.4086030349737932  0.4982183977296107
  0.4530928300470777  0.3468477929987905  0.4999710282929119
  0.5360028780288035  0.2847826510086885  0.5018122182046177
  0.2853845113929036  0.6038447289954028  0.4966834007794284
  0.3693265172510430  0.5336168081033628  0.4985176181765601
  0.4520580439414190  0.4714322704369814  0.5002950234913834
  0.5355257923528020  0.4095535134969758  0.5020694466352512
  0.2852035080282299  0.7146299767774357  0.4968321887930114
  0.3692273301259099  0.6589709054638244  0.4987761142299258
  0.4517868837650130  0.5964854361559675  0.5008123271033886
  0.5349964135108642  0.5343604329286257  0.5029823622517416
  0.4516391904937246  0.7217982550782178  0.5007588149535193
  0.5343907905011056  0.6591286977673797  0.5031610363470209
  0.6184948729379274  0.2220460966240139  0.5038719983332632
  0.7012146203507970  0.0379966660272427  0.4993260748607214
  0.6187950709546356  0.3481272671143434  0.5053021724330651
  0.6990129908059413  0.1598402166328103  0.5080317038075571
  0.6184225696486000  0.4721622295925653  0.5032289662967707
  0.6980307224536764  0.2848101855444466  0.5141559482617638
  0.6172565814329731  0.5971589234052144  0.5080272778147634
  0.6994993076379334  0.4117676061120105  0.4970812706122874
  0.6171719878728494  0.7212386641291825  0.5038933964729636
  0.6966127400930447  0.5373261690028120  0.5087268786815572
  0.6962733630817742  0.6601542541914026  0.5114518164040142
  0.2852575576584653  0.8544817762751293  0.4969259528699613
  0.3691435927273605  0.7845508196286431  0.4988185051036604
  0.2854888489094476  0.9652212352657665  0.4968846233372299
  0.3693351031544382  0.9100751853775223  0.4987839287263408
  0.4517538965269416  0.8472059747076514  0.5006723752777384
  0.5343967858380743  0.7844862345791240  0.5023349413734098
  0.4519853125059804  0.9724953156665133  0.5005857333371567
  0.5347092954816866  0.9094733851665530  0.5024787125257236
  0.6165372862219750  0.8463802991526385  0.5036146195196297
  0.6185590665918931  0.9717975746126271  0.5037714606950099
  0.6974722693553382  0.7834236285836499  0.5061612964957937
  0.7007914045141672  0.9053687290235941  0.4970814909437824
  0.3124066338359034  0.0356403306902997  0.4117439317832536
  0.3113797108778834  0.0357772647923145  0.5829288663859163
  0.3146665570092858  0.1623521390373614  0.4058716262879006
  0.3136047125480556  0.1624760152330695  0.5883829762401720
  0.3972064792077621  0.0975060636949668  0.4093882789645993
  0.3961344427148217  0.0976992569303825  0.5886029133926630
  0.4802004049470758  0.0348164568876230  0.4118384784825340
  0.4790916859918505  0.0350251656199371  0.5902800465928851
  0.3149059964429171  0.2845262669645453  0.4048216655048980
  0.3138356677862962  0.2845645654976285  0.5891453459966753
  0.3984380925756784  0.2223744476333677  0.4093874606262946
  0.3973910922122074  0.2224549270126850  0.5881221523161996
  0.4806081798247484  0.1596272599006363  0.4111121067123460
  0.4795727032874875  0.1597618558902595  0.5900295602277953
  0.5629567245508550  0.0969801980864150  0.4126717096474912
  0.5619638187693509  0.0970293634217668  0.5925245520156732
  0.3146280224076375  0.4066984257856777  0.4057612963743160
  0.3135146126670571  0.4066198278009344  0.5882677466449466
  0.3984469256322996  0.3467642051199230  0.4093820514280803
  0.3973599153852069  0.3466983496070651  0.5881165782044617
  0.4813541424082444  0.2846771806488529  0.4110514931573415
  0.4802053792489333  0.2846470173001714  0.5900430563551700
  0.5639176153102549  0.2222044769686791  0.4129422580778341
  0.5623652926429659  0.2219273778013283  0.5916588858819092
  0.6455138163486903  0.0342616397674216  0.4143760758479462
  0.6476134647828619  0.0344636910607492  0.5914471458536278
  0.6470606504778232  0.1597935516168965  0.4150317398873186
  0.6439335507504644  0.1602105270957193  0.5948463402504207
  0.3123536194163967  0.5334158929028624  0.4115821232195259
  0.3112295068068599  0.5332754104319938  0.5827699337581642
  0.3972073677419647  0.4715732907851439  0.4093801542022537
  0.3960125794729344  0.4713548404921398  0.5885704651996317
  0.4807991034240434  0.4095637277593689  0.4112756133511832
  0.4795994104157357  0.4093617149400809  0.5901845697498274
  0.5642636260695213  0.3472310247365490  0.4136175578369641
  0.5626879163352602  0.3474039168427592  0.5924442613331173
  0.3153246857184976  0.6591180795683629  0.4035948880956554
  0.3140539654845059  0.6590084251123420  0.5913442678870620
  0.3970859769292787  0.5962478018557302  0.4100891350623345
  0.3957948329125256  0.5960779494851161  0.5886455471890031
  0.4802314370739827  0.5342523290577428  0.4121643094196628
  0.4788089350113477  0.5338665062146051  0.5905757101072011
  0.5632512859091361  0.4724709774548833  0.4133899612838526
  0.5625022427308857  0.4717057316719933  0.5919912209293497
  0.3968795251080841  0.7220286169638142  0.4102443635154859
  0.3956820241412559  0.7220233084441646  0.5886413356312005
  0.4797309669797310  0.6591548476673441  0.4122142093359960
  0.4783117286897343  0.6592041814134763  0.5909489366982940
  0.5632415658608010  0.5970013510483251  0.4151730997839180
  0.5609305652103524  0.5967987018661085  0.5943985731815742
  0.5622848340719968  0.7213707245490119  0.4136669488083541
  0.5612056062970918  0.7220330478819987  0.5923299616325188
  0.6501188253447779  0.2859420351857125  0.4174247901213108
  0.6446453442933976  0.2832511801268248  0.5982479927377169
  0.7270112097884872  0.0977876066289261  0.4153788196198991
  0.7262063942819427  0.0988715480279059  0.5923458082318486
  0.6454464169022426  0.4094727092641291  0.4116167549850500
  0.6471593183795911  0.4113659921770560  0.5941736864583791
  0.7463860594775816  0.2230748293274713  0.4826488845341266
  0.6467827768363961  0.5377417664862995  0.4153825719429655
  0.6451811371085462  0.5324882038685572  0.5983957730786124
  0.7334417644816598  0.3483534637582825  0.5752390269876706
  0.6476342563429962  0.6573061958816021  0.4163994042561176
  0.6444103328007099  0.6613381945351664  0.5994956113939501
  0.7395219213013152  0.4800539521675698  0.4509382561600013
  0.7365751091378416  0.5981946846302653  0.5683092630231117
  0.7433400758426556  0.7197329063625012  0.4699120115576995
  0.2306342652482295  0.1634122773156537  0.4954557492836807
  0.2302218325322265  0.2844883512218641  0.4952176447285656
  0.2286418525920570  0.6580550961450423  0.4954089885368575
  0.2358514680458544  0.0369372800036571  0.4957434902455028
  0.3120763494266955  0.7845797359407478  0.4120546439926975
  0.3109778381788209  0.7845367578770721  0.5829603245745878
  0.3153732873752436  0.9099928316536782  0.4037047822211942
  0.3142048667394409  0.9100213011823339  0.5914470627201754
  0.3969431973318249  0.8470251714730298  0.4102228846642317
  0.3958223503274146  0.8470531648154224  0.5886118785938915
  0.4795719719981638  0.7844148611160665  0.4119759172850085
  0.4785767000036862  0.7845250884023370  0.5905308985555707
  0.3971510168243259  0.9727939452901831  0.4100760556313993
  0.3960175875168983  0.9729423110715146  0.5885422703685670
  0.4798336936747652  0.9097633050631220  0.4119381984321928
  0.4787496162066733  0.9098263808312718  0.5906133813021708
  0.5620240686741160  0.8468174314179635  0.4130088492013701
  0.5614125648104621  0.8470644813866777  0.5926710747370765
  0.5630421616709490  0.9719691604227424  0.4139650138997683
  0.5625436613449819  0.9720353397138822  0.5918772573660509
  0.6454085238349203  0.7835759527749983  0.4143283642801822
  0.6429996797984613  0.7830697756013338  0.5944583000407233
  0.6446292793291608  0.9092335923358704  0.4137642477555176
  0.6479087435701871  0.9086543670820945  0.5907647808019919
  0.7260741037327684  0.8460701471180160  0.4129816099664575
  0.7258946081154478  0.8431173147828763  0.5896989849462393
  0.7483217306376518  0.9714112013096968  0.5016114950297795
  0.2287217660412430  0.9110424260442616  0.4956219230837680
  0.2355329941909572  0.7845700527150996  0.4957468561128209
  0.2357402819697726  0.5320855203941729  0.4954029141198301
  0.2305700401818742  0.4055995469858806  0.4952648865460920
  0.7555890069195453  0.3545429766929590  0.3743895494152638
  0.7354713351394672  0.3751442516207538  0.4199595062930927
 
  0.00000000E+00  0.00000000E+00  0.00000000E+00
  0.00000000E+00  0.00000000E+00  0.00000000E+00
  0.00000000E+00  0.00000000E+00  0.00000000E+00
  0.00000000E+00  0.00000000E+00  0.00000000E+00
  0.00000000E+00  0.00000000E+00  0.00000000E+00
  0.00000000E+00  0.00000000E+00  0.00000000E+00
  0.00000000E+00  0.00000000E+00  0.00000000E+00
  0.00000000E+00  0.00000000E+00  0.00000000E+00
  0.00000000E+00  0.00000000E+00  0.00000000E+00
  0.00000000E+00  0.00000000E+00  0.00000000E+00
  0.00000000E+00  0.00000000E+00  0.00000000E+00
  0.00000000E+00  0.00000000E+00  0.00000000E+00
  0.00000000E+00  0.00000000E+00  0.00000000E+00
  0.00000000E+00  0.00000000E+00  0.00000000E+00
  0.00000000E+00  0.00000000E+00  0.00000000E+00
  0.00000000E+00  0.00000000E+00  0.00000000E+00
  0.00000000E+00  0.00000000E+00  0.00000000E+00
  0.00000000E+00  0.00000000E+00  0.00000000E+00
  0.00000000E+00  0.00000000E+00  0.00000000E+00
  0.00000000E+00  0.00000000E+00  0.00000000E+00
  0.00000000E+00  0.00000000E+00  0.00000000E+00
  0.00000000E+00  0.00000000E+00  0.00000000E+00
  0.00000000E+00  0.00000000E+00  0.00000000E+00
  0.00000000E+00  0.00000000E+00  0.00000000E+00
  0.00000000E+00  0.00000000E+00  0.00000000E+00
  0.00000000E+00  0.00000000E+00  0.00000000E+00
  0.00000000E+00  0.00000000E+00  0.00000000E+00
  0.00000000E+00  0.00000000E+00  0.00000000E+00
  0.00000000E+00  0.00000000E+00  0.00000000E+00
  0.00000000E+00  0.00000000E+00  0.00000000E+00
  0.00000000E+00  0.00000000E+00  0.00000000E+00
  0.00000000E+00  0.00000000E+00  0.00000000E+00
  0.00000000E+00  0.00000000E+00  0.00000000E+00
  0.00000000E+00  0.00000000E+00  0.00000000E+00
  0.00000000E+00  0.00000000E+00  0.00000000E+00
  0.00000000E+00  0.00000000E+00  0.00000000E+00
  0.00000000E+00  0.00000000E+00  0.00000000E+00
  0.00000000E+00  0.00000000E+00  0.00000000E+00
  0.00000000E+00  0.00000000E+00  0.00000000E+00
  0.00000000E+00  0.00000000E+00  0.00000000E+00
  0.00000000E+00  0.00000000E+00  0.00000000E+00
  0.00000000E+00  0.00000000E+00  0.00000000E+00
  0.00000000E+00  0.00000000E+00  0.00000000E+00
  0.00000000E+00  0.00000000E+00  0.00000000E+00
  0.00000000E+00  0.00000000E+00  0.00000000E+00
  0.00000000E+00  0.00000000E+00  0.00000000E+00
  0.00000000E+00  0.00000000E+00  0.00000000E+00
  0.00000000E+00  0.00000000E+00  0.00000000E+00
  0.00000000E+00  0.00000000E+00  0.00000000E+00
  0.00000000E+00  0.00000000E+00  0.00000000E+00
  0.00000000E+00  0.00000000E+00  0.00000000E+00
  0.00000000E+00  0.00000000E+00  0.00000000E+00
  0.00000000E+00  0.00000000E+00  0.00000000E+00
  0.00000000E+00  0.00000000E+00  0.00000000E+00
  0.00000000E+00  0.00000000E+00  0.00000000E+00
  0.00000000E+00  0.00000000E+00  0.00000000E+00
  0.00000000E+00  0.00000000E+00  0.00000000E+00
  0.00000000E+00  0.00000000E+00  0.00000000E+00
  0.00000000E+00  0.00000000E+00  0.00000000E+00
  0.00000000E+00  0.00000000E+00  0.00000000E+00
  0.00000000E+00  0.00000000E+00  0.00000000E+00
  0.00000000E+00  0.00000000E+00  0.00000000E+00
  0.00000000E+00  0.00000000E+00  0.00000000E+00
  0.00000000E+00  0.00000000E+00  0.00000000E+00
  0.00000000E+00  0.00000000E+00  0.00000000E+00
  0.00000000E+00  0.00000000E+00  0.00000000E+00
  0.00000000E+00  0.00000000E+00  0.00000000E+00
  0.00000000E+00  0.00000000E+00  0.00000000E+00
  0.00000000E+00  0.00000000E+00  0.00000000E+00
  0.00000000E+00  0.00000000E+00  0.00000000E+00
  0.00000000E+00  0.00000000E+00  0.00000000E+00
  0.00000000E+00  0.00000000E+00  0.00000000E+00
  0.00000000E+00  0.00000000E+00  0.00000000E+00
  0.00000000E+00  0.00000000E+00  0.00000000E+00
  0.00000000E+00  0.00000000E+00  0.00000000E+00
  0.00000000E+00  0.00000000E+00  0.00000000E+00
  0.00000000E+00  0.00000000E+00  0.00000000E+00
  0.00000000E+00  0.00000000E+00  0.00000000E+00
  0.00000000E+00  0.00000000E+00  0.00000000E+00
  0.00000000E+00  0.00000000E+00  0.00000000E+00
  0.00000000E+00  0.00000000E+00  0.00000000E+00
  0.00000000E+00  0.00000000E+00  0.00000000E+00
  0.00000000E+00  0.00000000E+00  0.00000000E+00
  0.00000000E+00  0.00000000E+00  0.00000000E+00
  0.00000000E+00  0.00000000E+00  0.00000000E+00
  0.00000000E+00  0.00000000E+00  0.00000000E+00
  0.00000000E+00  0.00000000E+00  0.00000000E+00
  0.00000000E+00  0.00000000E+00  0.00000000E+00
  0.00000000E+00  0.00000000E+00  0.00000000E+00
  0.00000000E+00  0.00000000E+00  0.00000000E+00
  0.00000000E+00  0.00000000E+00  0.00000000E+00
  0.00000000E+00  0.00000000E+00  0.00000000E+00
  0.00000000E+00  0.00000000E+00  0.00000000E+00
  0.00000000E+00  0.00000000E+00  0.00000000E+00
  0.00000000E+00  0.00000000E+00  0.00000000E+00
  0.00000000E+00  0.00000000E+00  0.00000000E+00
  0.00000000E+00  0.00000000E+00  0.00000000E+00
  0.00000000E+00  0.00000000E+00  0.00000000E+00
  0.00000000E+00  0.00000000E+00  0.00000000E+00
  0.00000000E+00  0.00000000E+00  0.00000000E+00
  0.00000000E+00  0.00000000E+00  0.00000000E+00
  0.00000000E+00  0.00000000E+00  0.00000000E+00
  0.00000000E+00  0.00000000E+00  0.00000000E+00
  0.00000000E+00  0.00000000E+00  0.00000000E+00
  0.00000000E+00  0.00000000E+00  0.00000000E+00
  0.00000000E+00  0.00000000E+00  0.00000000E+00
  0.00000000E+00  0.00000000E+00  0.00000000E+00
  0.00000000E+00  0.00000000E+00  0.00000000E+00
  0.00000000E+00  0.00000000E+00  0.00000000E+00
  0.00000000E+00  0.00000000E+00  0.00000000E+00
  0.00000000E+00  0.00000000E+00  0.00000000E+00
  0.00000000E+00  0.00000000E+00  0.00000000E+00
  0.00000000E+00  0.00000000E+00  0.00000000E+00
  0.00000000E+00  0.00000000E+00  0.00000000E+00
  0.00000000E+00  0.00000000E+00  0.00000000E+00
  0.00000000E+00  0.00000000E+00  0.00000000E+00
  0.00000000E+00  0.00000000E+00  0.00000000E+00
  0.00000000E+00  0.00000000E+00  0.00000000E+00
  0.00000000E+00  0.00000000E+00  0.00000000E+00
  0.00000000E+00  0.00000000E+00  0.00000000E+00
  0.00000000E+00  0.00000000E+00  0.00000000E+00
  0.00000000E+00  0.00000000E+00  0.00000000E+00
  0.00000000E+00  0.00000000E+00  0.00000000E+00
  0.00000000E+00  0.00000000E+00  0.00000000E+00
  0.00000000E+00  0.00000000E+00  0.00000000E+00
  0.00000000E+00  0.00000000E+00  0.00000000E+00
  0.00000000E+00  0.00000000E+00  0.00000000E+00
  0.00000000E+00  0.00000000E+00  0.00000000E+00
  0.00000000E+00  0.00000000E+00  0.00000000E+00
  0.00000000E+00  0.00000000E+00  0.00000000E+00
  0.00000000E+00  0.00000000E+00  0.00000000E+00
  0.00000000E+00  0.00000000E+00  0.00000000E+00
  0.00000000E+00  0.00000000E+00  0.00000000E+00
  0.00000000E+00  0.00000000E+00  0.00000000E+00
  0.00000000E+00  0.00000000E+00  0.00000000E+00
  0.00000000E+00  0.00000000E+00  0.00000000E+00
  0.00000000E+00  0.00000000E+00  0.00000000E+00
  0.00000000E+00  0.00000000E+00  0.00000000E+00
  0.00000000E+00  0.00000000E+00  0.00000000E+00
  0.00000000E+00  0.00000000E+00  0.00000000E+00
  0.00000000E+00  0.00000000E+00  0.00000000E+00
  0.00000000E+00  0.00000000E+00  0.00000000E+00
  0.00000000E+00  0.00000000E+00  0.00000000E+00
  0.00000000E+00  0.00000000E+00  0.00000000E+00
  0.00000000E+00  0.00000000E+00  0.00000000E+00
  0.00000000E+00  0.00000000E+00  0.00000000E+00
  0.00000000E+00  0.00000000E+00  0.00000000E+00
  0.00000000E+00  0.00000000E+00  0.00000000E+00
