W48 Se98
1.0
  33.0000000000000000    0.0000000000000000    0.0000000000000000
   0.0000000000000000   26.2560005200000006    0.0000000000000000
   0.0000000000000000    0.0000000000000000   18.1299999999999990
W Se
48 98
direct
   0.2794755800000000    0.0424043700000000    0.5059445400000000 W
   0.2864421700000000    0.2745657600000000    0.5041154100000000 W
   0.2865133700000000    0.5292799300000000    0.4984828300000000 W
   0.2872556000000000    0.7756748700000000    0.5050154500000000 W
   0.4541460700000000    0.0355974100000000    0.5029719100000000 W
   0.4545679900000000    0.2856979000000000    0.5013903000000000 W
   0.4541927100000000    0.5355299100000001    0.5000687100000000 W
   0.4548992100000000    0.7856381099999999    0.5024303700000000 W
   0.6273867700000000    0.0354888400000000    0.5004691100000001 W
   0.6271190900000000    0.2855346900000000    0.4995567300000000 W
   0.6271352000000000    0.5354629400000001    0.5000110900000000 W
   0.6273050100000001    0.7855055399999999    0.5000562700000000 W
   0.2869885800000000    0.1696371500000000    0.5050040200000000 W
   0.2866061800000000    0.4177121800000000    0.4979777000000000 W
   0.2877392500000000    0.6699835100000000    0.5041343000000000 W
   0.2795742100000000    0.9029718600000000    0.5063786600000000 W
   0.4546477000000000    0.1604650000000000    0.5022346400000000 W
   0.4542771900000000    0.4104380800000000    0.5000116600000000 W
   0.4547644800000000    0.6604445300000000    0.5014090600000000 W
   0.4543680700000000    0.9102570400000000    0.5030685499999999 W
   0.6275154500000000    0.1600460800000000    0.4997169000000000 W
   0.6274440000000000    0.4109686400000000    0.4990836400000000 W
   0.6276202100000000    0.6599961700000000    0.4994830200000000 W
   0.6276126400000001    0.9109439100000000    0.5000916700000000 W
   0.3690046600000000    0.2236700400000000    0.5028658900000000 W
   0.3683013400000000    0.4731092700000000    0.4983974800000000 W
   0.3690352100000000    0.7218981100000000    0.5028856300000000 W
   0.3672216700000000    0.9728144500000000    0.5047818400000000 W
   0.5416016600000000    0.2227801400000000    0.5007717200000000 W
   0.5404806200000000    0.4731445800000000    0.4997404800000000 W
   0.5417542000000000    0.7227347200000001    0.5008937300000000 W
   0.5405891400000000    0.9731081100000000    0.5015591100000000 W
   0.7151414699999999    0.2142061200000000    0.4983274300000000 W
   0.7138576700000000    0.4758606700000000    0.4993786700000000 W
   0.7152320000000000    0.7139205700000000    0.4983091200000000 W
   0.7141976700000000    0.9764268200000000    0.4991778700000000 W
   0.3688352500000000    0.0989708600000000    0.5041925500000000 W
   0.3674988400000000    0.3485986500000000    0.5016625800000000 W
   0.3675378200000000    0.5983641900000000    0.5019109600000000 W
   0.3690098600000000    0.8468209700000000    0.5044763600000000 W
   0.5406049900000000    0.0977907200000000    0.5012356200000000 W
   0.5415288400000000    0.3483328000000000    0.5001364000000000 W
   0.5406824000000000    0.5978406000000001    0.5001928600000000 W
   0.5417170200000000    0.8483352700000000    0.5014656100000000 W
   0.7141428500000000    0.0946700900000000    0.4990938700000000 W
   0.7150587900000001    0.3570318400000000    0.4981129800000000 W
   0.7139386700000000    0.5950190300000000    0.4994172300000000 W
   0.7152901800000000    0.8568325600000000    0.4985770700000000 W
   0.2532151600000000    0.1046419900000000    0.5952631100000000 Se
   0.2426984900000000    0.3498442100000000    0.5429310899999999 Se
   0.2434888200000000    0.5969326200000000    0.5471030400000000 Se
   0.2533681900000000    0.8402971600000000    0.5954064999999999 Se
   0.4262189500000000    0.0982458900000000    0.5968721700000000 Se
   0.4254019800000000    0.3485382500000000    0.5941358799999999 Se
   0.4255578400000000    0.5976465100000000    0.5941785700000000 Se
   0.4264750300000000    0.8477303300000000    0.5971068200000000 Se
   0.5985104400000000    0.0980136300000000    0.5933727900000000 Se
   0.5994306000000000    0.3482508300000000    0.5930181100000000 Se
   0.5983304300000000    0.5978962100000000    0.5928673400000000 Se
   0.5998183000000000    0.8480401500000000    0.5940448800000000 Se
   0.4266600800000000    0.2235729100000000    0.5957490100000000 Se
   0.4253374700000000    0.4729435100000000    0.5930029500000000 Se
   0.4268451600000000    0.7225207500000000    0.5957273300000000 Se
   0.4254390000000000    0.9728972299999999    0.5965088700000000 Se
   0.5996015300000000    0.2229889800000000    0.5934455199999999 Se
   0.5981241300000000    0.4729454400000000    0.5925523600000000 Se
   0.5997605400000000    0.7227332400000001    0.5935678400000000 Se
   0.5985626700000000    0.9730689600000000    0.5935991300000000 Se
   0.3374279700000000    0.0358876000000000    0.5966460200000000 Se
   0.3377620200000000    0.2858794100000000    0.5990607100000001 Se
   0.3380750300000000    0.5337746200000000    0.5959653499999999 Se
   0.3411855100000000    0.7834194500000000    0.5998862300000000 Se
   0.5121314600000000    0.0355043000000000    0.5952389400000000 Se
   0.5128084700000000    0.2858452400000000    0.5935056000000000 Se
   0.5117648400000000    0.5353742600000000    0.5933080400000000 Se
   0.5131570000000000    0.7853644100000000    0.5943796400000000 Se
   0.6857003000000000    0.0355476300000000    0.5963677500000000 Se
   0.6879199800000000    0.2855888100000000    0.5871925800000000 Se
   0.6849787800000000    0.5354417200000000    0.5963197700000000 Se
   0.6882013000000000    0.7853935500000000    0.5875187900000000 Se
   0.3409744600000000    0.1621325700000000    0.5998474300000000 Se
   0.3377644600000000    0.4126145400000000    0.5959184700000000 Se
   0.3383339900000000    0.6603226700000000    0.6002014000000000 Se
   0.3375231800000000    0.9098006100000000    0.5969468300000000 Se
   0.5126277600000000    0.1607680500000000    0.5945492200000000 Se
   0.5120292000000000    0.4105126200000000    0.5930326800000000 Se
   0.5126325700000000    0.6603397600000001    0.5940073700000000 Se
   0.5125523600000000    0.9103665000000000    0.5951355100000000 Se
   0.6859875000000000    0.1581664200000000    0.5951053200000000 Se
   0.6857304600000000    0.4128059100000000    0.5949159200000000 Se
   0.6859850300000000    0.6580831100000000    0.5951443600000000 Se
   0.6861445100000000    0.9129370000000000    0.5953234100000000 Se
   0.2529310100000000    0.1037623800000000    0.4156023800000000 Se
   0.2530689500000000    0.8414683900000000    0.4159965900000000 Se
   0.4252434300000000    0.0977623700000000    0.4094136900000000 Se
   0.4250723700000000    0.3475351800000000    0.4079180000000000 Se
   0.4251117300000000    0.5986610500000000    0.4080906100000000 Se
   0.4254462800000000    0.8481734399999999    0.4095817300000000 Se
   0.5978114200000000    0.0976487700000000    0.4075574700000000 Se
   0.5988481400000000    0.3479896200000000    0.4061775000000000 Se
   0.5980568000000001    0.5978641200000000    0.4069057600000000 Se
   0.5988650500000000    0.8481961700000000    0.4071373200000000 Se
   0.2254714500000000    0.2215204900000000    0.4981131200000000 Se
   0.2360048900000000    0.4738458800000000    0.4419780400000000 Se
   0.2266912500000000    0.7226755100000000    0.4945876600000000 Se
   0.2299534600000000    0.9725405600000000    0.5051604900000000 Se
   0.4258694600000000    0.2229374700000000    0.4085676500000000 Se
   0.4259362900000000    0.4730162300000000    0.4059539400000000 Se
   0.4260891200000000    0.7232355499999999    0.4087016600000000 Se
   0.4243387300000000    0.9728430000000000    0.4107728700000000 Se
   0.5988284400000000    0.2227823200000000    0.4066113200000000 Se
   0.5979708400000000    0.4732626700000000    0.4066286700000000 Se
   0.5989833000000000    0.7230509700000000    0.4067620100000000 Se
   0.5977876000000000    0.9731562800000000    0.4078337000000000 Se
   0.3364943100000000    0.0354516000000000    0.4133987400000000 Se
   0.3364715700000000    0.2854263400000000    0.4070008600000000 Se
   0.3384053800000000    0.5374425400000000    0.4040990300000000 Se
   0.3399687900000000    0.7847678300000001    0.4089575100000000 Se
   0.5111408300000000    0.0352834500000000    0.4086633100000000 Se
   0.5121697700000000    0.2853655100000000    0.4081319200000000 Se
   0.5116364300000000    0.5357182300000000    0.4066264400000000 Se
   0.5123374700000000    0.7857807400000000    0.4088863400000000 Se
   0.6854475500000000    0.0354871100000000    0.4034661900000000 Se
   0.6871908500000000    0.2855484000000000    0.4102232200000000 Se
   0.6856174300000000    0.5354910600000000    0.4040284000000000 Se
   0.6873033300000000    0.7854738600000000    0.4105877700000000 Se
   0.3397358400000000    0.1610514700000000    0.4085964900000000 Se
   0.3382438500000000    0.4091444400000000    0.4035118600000000 Se
   0.3371207400000000    0.6605835900000000    0.4061040300000000 Se
   0.3364361800000000    0.9101441900000000    0.4136357500000000 Se
   0.5118357800000000    0.1604256400000000    0.4082188300000000 Se
   0.5119420300000000    0.4102577200000000    0.4068546300000000 Se
   0.5120818200000000    0.6608262499999999    0.4076596700000000 Se
   0.5115608500000000    0.9104632600000000    0.4089104700000000 Se
   0.6849227400000000    0.1580416000000000    0.4025658100000000 Se
   0.6848542700000000    0.4129075300000000    0.4020201900000000 Se
   0.6849135700000000    0.6580961600000000    0.4022753200000000 Se
   0.6849684600000000    0.9129438400000000    0.4028258500000000 Se
   0.7738615599999999    0.9133782100000000    0.4922622700000000 Se
   0.7681839700000000    0.7854807700000001    0.4996656200000000 Se
   0.7737763200000000    0.6574986100000000    0.4887116600000000 Se
   0.7727333199999999    0.5353951900000000    0.5139042600000000 Se
   0.7736622100000000    0.4133761600000000    0.4889741600000000 Se
   0.7680371400000000    0.2854913700000000    0.4995316900000000 Se
   0.7737723000000000    0.1577287400000000    0.4922653000000000 Se
   0.7734111700000000    0.0355651600000000    0.5069072700000000 Se
