Mo36 Se72                               
   1.00000000000000     
    19.7339992522999985    0.0000000000000000    0.0000000000000000
    -9.8669996262000002   17.0901446708000009    0.0000000000000000
     0.0000000000000000    0.0000000000000000   25.8540000915999997
   Mo   Se   O    C 
    36    69     2     1
Direct
  0.1230128836455009  0.0484256331080880  0.4996024783004663
  0.1272382385062854  0.2163265923755605  0.5004003602468379
  0.1227493562035998  0.3797112522571923  0.5001654249941785
  0.1206259993168528  0.5455598096578428  0.5005458134832845
  0.1200779023303688  0.7124155210699515  0.5003416422193036
  0.1205304226954221  0.8799682046633523  0.4999654546540685
  0.2885687162617887  0.0486365089031600  0.4964122898050281
  0.2962259310562783  0.2182319327704618  0.4913118751686054
  0.2970803608185487  0.3824585459883911  0.4920116263014980
  0.2903242648998581  0.5481985732738389  0.4990580058227795
  0.2869126174516185  0.7120879636517240  0.4999756146387753
  0.2871222475893667  0.8797708063986391  0.4997011248263427
  0.4536269443718013  0.0467035223929694  0.4992766887795742
  0.4503000770938410  0.2143383909739409  0.4931159316484474
  0.4470938657375784  0.3742724823739003  0.4874470164741342
  0.4525954762672257  0.5329728801565593  0.4948445765098143
  0.4504264284957482  0.7102141204114968  0.5014856101972165
  0.4532595999483396  0.8793715293545302  0.5013780928314722
  0.6203474137233511  0.0456870907786288  0.5023489609710658
  0.6189313419888520  0.2120672191180219  0.4998890675250577
  0.6148198867137272  0.3764437521769059  0.4964887388873837
  0.6165204778653861  0.5417692407298190  0.4960565803221262
  0.6172516292130777  0.7096283493708017  0.5008359630699919
  0.6192319804546087  0.8776655380601972  0.5032332148715358
  0.7874991748901371  0.0456893739462272  0.5037534819887680
  0.7871868327858529  0.2123539893417859  0.5026415465093423
  0.7854276115376979  0.3782173583477201  0.5007917755909582
  0.7849101060428704  0.5441721276460930  0.4997168628152861
  0.7851437811927053  0.7107353502080648  0.5008675596336056
  0.7865518895419816  0.8785984036278967  0.5030637519779129
  0.9556891472403698  0.0471972109159419  0.5029475083070556
  0.9560470301153329  0.2131717190850268  0.5029087854792430
  0.9542949225405047  0.3791543681240232  0.5018406632315735
  0.9530132388593519  0.5452065948556583  0.5009156605847987
  0.9528259865132618  0.7119938008272885  0.5008794496409064
  0.9539689271719928  0.8795891899681465  0.5018489056794087
  0.0710846207562684  0.1055039666405487  0.5658072357675277
  0.0710689927700750  0.2703899155989066  0.5661178745160096
  0.0672175925869069  0.4349090252143744  0.5657297576618916
  0.0648445963127928  0.6013294683979123  0.5653216742040683
  0.0650649027040661  0.7687260908453722  0.5650918661020470
  0.0676596141348866  0.9375302044328407  0.5652189637285820
  0.2409248897993895  0.1118489683425591  0.5602485581165291
  0.2555368651759952  0.2800109388677958  0.5602626705695749
  0.2401891273570358  0.4343346734336339  0.5605787055126017
  0.2321497183355072  0.6002615892491163  0.5645575033697211
  0.2316435770985780  0.7684549491768636  0.5647471471851823
  0.2333686398171824  0.9388945161002685  0.5632601436449646
  0.3979819440941552  0.1078369478114218  0.5612141675144177
  0.3966412027451576  0.7679725595280764  0.5658402802634211
  0.3973807918464096  0.9366110048577323  0.5650165754686532
  0.5629818694277227  0.1021051074116228  0.5654880166913013
  0.5565876786978704  0.2675422425101950  0.5614640809026746
  0.5457802019982048  0.4245619482087919  0.5582760188981378
  0.5601928792831576  0.5927217575120748  0.5618266134508897
  0.5606938888757513  0.7630115109106873  0.5666589615621916
  0.5634217850461160  0.9342372937676368  0.5672361402400674
  0.7310947014036208  0.1016340803046003  0.5678877488902661
  0.7289170862785007  0.2679260715516137  0.5659864753120500
  0.7247888643470108  0.4319534335500822  0.5634985956372067
  0.7254735369655874  0.5963856822028202  0.5635873530349933
  0.7285351640788453  0.7645736279723744  0.5662746206698855
  0.7306670869992281  0.9334420069465965  0.5682700146715908
  0.9002605781854910  0.1023763289116399  0.5681612081652850
  0.8993944111755715  0.2688029050806162  0.5672763490672984
  0.8968338894963096  0.4343065322825830  0.5659189816168567
  0.8957455725745365  0.5999391523750444  0.5652090979917476
  0.8967516535346464  0.7667813397885023  0.5658837412271327
  0.8991797404672617  0.9349072296510896  0.5674186100589742
  0.0655135185258562  0.1034305826307817  0.4368798305726049
  0.0660467824824584  0.2676994687098775  0.4368739294565262
  0.0645384730531994  0.4339412346737561  0.4361045848984814
  0.0641852253665923  0.6007105359083829  0.4358731623176035
  0.0637611539937096  0.7676970956020032  0.4357370211817746
  0.0638684567879867  0.9352333458713703  0.4359252570701393
  0.2305701739140684  0.1016988751706771  0.4311858735537739
  0.2322288739946700  0.2690335536104224  0.4300858630265656
  0.2324693933752250  0.4368289465522072  0.4333226261859666
  0.2315447199521182  0.6008496130315309  0.4350626591097085
  0.2310282563465267  0.7677643141092533  0.4352499151403403
  0.2306097405039384  0.9337604006765128  0.4341572342303307
  0.3997633993949774  0.1008190841723547  0.4314515584171532
  0.4000489850628796  0.2666037432731594  0.4232562747352857
  0.3994016455850469  0.4335578502824475  0.4227534393555494
  0.4019445475973108  0.6004017086209571  0.4357934096275701
  0.3992145689493656  0.7682534852104144  0.4360476122853170
  0.3987074487707035  0.9342836862709434  0.4352824240767570
  0.5661356016980946  0.1005154436751044  0.4358275817082088
  0.5646147941045588  0.2656676974926822  0.4319780299324100
  0.5633630155824024  0.4326954413517944  0.4284716727916065
  0.5653194689563338  0.6021478408598339  0.4321647930518218
  0.5626474030837112  0.7676774691070040  0.4375276703538825
  0.5657351057757805  0.9344378128337189  0.4377125754968096
  0.7324962194450528  0.1008256316789309  0.4383241138755346
  0.7321068026149902  0.2668455367114512  0.4364504473444595
  0.7308356445286996  0.4332971386436485  0.4346984461656334
  0.7319335436314997  0.6013755524151184  0.4343287503068554
  0.7304869801996219  0.7684945988858658  0.4372396113115943
  0.7311905294956531  0.9345487596553391  0.4388230882868118
  0.8986639522755666  0.1015101080402445  0.4386808552979611
  0.8988351722205458  0.2671676291588984  0.4379894339027616
  0.8977668028012287  0.4335601911835837  0.4365950689394781
  0.8977094308925307  0.6008282945283621  0.4358821281955188
  0.8974416859070291  0.7684719740010624  0.4366957818634152
  0.8979621452867117  0.9356482403848482  0.4381396752098354
  0.3848460010489180  0.6150894661435293  0.5539664313446101
  0.3988860331805957  0.5323648143452860  0.6066082457552863
  0.4069820707838867  0.5590137270357359  0.5630410119125565
 
  0.00000000E+00  0.00000000E+00  0.00000000E+00
  0.00000000E+00  0.00000000E+00  0.00000000E+00
  0.00000000E+00  0.00000000E+00  0.00000000E+00
  0.00000000E+00  0.00000000E+00  0.00000000E+00
  0.00000000E+00  0.00000000E+00  0.00000000E+00
  0.00000000E+00  0.00000000E+00  0.00000000E+00
  0.00000000E+00  0.00000000E+00  0.00000000E+00
  0.00000000E+00  0.00000000E+00  0.00000000E+00
  0.00000000E+00  0.00000000E+00  0.00000000E+00
  0.00000000E+00  0.00000000E+00  0.00000000E+00
  0.00000000E+00  0.00000000E+00  0.00000000E+00
  0.00000000E+00  0.00000000E+00  0.00000000E+00
  0.00000000E+00  0.00000000E+00  0.00000000E+00
  0.00000000E+00  0.00000000E+00  0.00000000E+00
  0.00000000E+00  0.00000000E+00  0.00000000E+00
  0.00000000E+00  0.00000000E+00  0.00000000E+00
  0.00000000E+00  0.00000000E+00  0.00000000E+00
  0.00000000E+00  0.00000000E+00  0.00000000E+00
  0.00000000E+00  0.00000000E+00  0.00000000E+00
  0.00000000E+00  0.00000000E+00  0.00000000E+00
  0.00000000E+00  0.00000000E+00  0.00000000E+00
  0.00000000E+00  0.00000000E+00  0.00000000E+00
  0.00000000E+00  0.00000000E+00  0.00000000E+00
  0.00000000E+00  0.00000000E+00  0.00000000E+00
  0.00000000E+00  0.00000000E+00  0.00000000E+00
  0.00000000E+00  0.00000000E+00  0.00000000E+00
  0.00000000E+00  0.00000000E+00  0.00000000E+00
  0.00000000E+00  0.00000000E+00  0.00000000E+00
  0.00000000E+00  0.00000000E+00  0.00000000E+00
  0.00000000E+00  0.00000000E+00  0.00000000E+00
  0.00000000E+00  0.00000000E+00  0.00000000E+00
  0.00000000E+00  0.00000000E+00  0.00000000E+00
  0.00000000E+00  0.00000000E+00  0.00000000E+00
  0.00000000E+00  0.00000000E+00  0.00000000E+00
  0.00000000E+00  0.00000000E+00  0.00000000E+00
  0.00000000E+00  0.00000000E+00  0.00000000E+00
  0.00000000E+00  0.00000000E+00  0.00000000E+00
  0.00000000E+00  0.00000000E+00  0.00000000E+00
  0.00000000E+00  0.00000000E+00  0.00000000E+00
  0.00000000E+00  0.00000000E+00  0.00000000E+00
  0.00000000E+00  0.00000000E+00  0.00000000E+00
  0.00000000E+00  0.00000000E+00  0.00000000E+00
  0.00000000E+00  0.00000000E+00  0.00000000E+00
  0.00000000E+00  0.00000000E+00  0.00000000E+00
  0.00000000E+00  0.00000000E+00  0.00000000E+00
  0.00000000E+00  0.00000000E+00  0.00000000E+00
  0.00000000E+00  0.00000000E+00  0.00000000E+00
  0.00000000E+00  0.00000000E+00  0.00000000E+00
  0.00000000E+00  0.00000000E+00  0.00000000E+00
  0.00000000E+00  0.00000000E+00  0.00000000E+00
  0.00000000E+00  0.00000000E+00  0.00000000E+00
  0.00000000E+00  0.00000000E+00  0.00000000E+00
  0.00000000E+00  0.00000000E+00  0.00000000E+00
  0.00000000E+00  0.00000000E+00  0.00000000E+00
  0.00000000E+00  0.00000000E+00  0.00000000E+00
  0.00000000E+00  0.00000000E+00  0.00000000E+00
  0.00000000E+00  0.00000000E+00  0.00000000E+00
  0.00000000E+00  0.00000000E+00  0.00000000E+00
  0.00000000E+00  0.00000000E+00  0.00000000E+00
  0.00000000E+00  0.00000000E+00  0.00000000E+00
  0.00000000E+00  0.00000000E+00  0.00000000E+00
  0.00000000E+00  0.00000000E+00  0.00000000E+00
  0.00000000E+00  0.00000000E+00  0.00000000E+00
  0.00000000E+00  0.00000000E+00  0.00000000E+00
  0.00000000E+00  0.00000000E+00  0.00000000E+00
  0.00000000E+00  0.00000000E+00  0.00000000E+00
  0.00000000E+00  0.00000000E+00  0.00000000E+00
  0.00000000E+00  0.00000000E+00  0.00000000E+00
  0.00000000E+00  0.00000000E+00  0.00000000E+00
  0.00000000E+00  0.00000000E+00  0.00000000E+00
  0.00000000E+00  0.00000000E+00  0.00000000E+00
  0.00000000E+00  0.00000000E+00  0.00000000E+00
  0.00000000E+00  0.00000000E+00  0.00000000E+00
  0.00000000E+00  0.00000000E+00  0.00000000E+00
  0.00000000E+00  0.00000000E+00  0.00000000E+00
  0.00000000E+00  0.00000000E+00  0.00000000E+00
  0.00000000E+00  0.00000000E+00  0.00000000E+00
  0.00000000E+00  0.00000000E+00  0.00000000E+00
  0.00000000E+00  0.00000000E+00  0.00000000E+00
  0.00000000E+00  0.00000000E+00  0.00000000E+00
  0.00000000E+00  0.00000000E+00  0.00000000E+00
  0.00000000E+00  0.00000000E+00  0.00000000E+00
  0.00000000E+00  0.00000000E+00  0.00000000E+00
  0.00000000E+00  0.00000000E+00  0.00000000E+00
  0.00000000E+00  0.00000000E+00  0.00000000E+00
  0.00000000E+00  0.00000000E+00  0.00000000E+00
  0.00000000E+00  0.00000000E+00  0.00000000E+00
  0.00000000E+00  0.00000000E+00  0.00000000E+00
  0.00000000E+00  0.00000000E+00  0.00000000E+00
  0.00000000E+00  0.00000000E+00  0.00000000E+00
  0.00000000E+00  0.00000000E+00  0.00000000E+00
  0.00000000E+00  0.00000000E+00  0.00000000E+00
  0.00000000E+00  0.00000000E+00  0.00000000E+00
  0.00000000E+00  0.00000000E+00  0.00000000E+00
  0.00000000E+00  0.00000000E+00  0.00000000E+00
  0.00000000E+00  0.00000000E+00  0.00000000E+00
  0.00000000E+00  0.00000000E+00  0.00000000E+00
  0.00000000E+00  0.00000000E+00  0.00000000E+00
  0.00000000E+00  0.00000000E+00  0.00000000E+00
  0.00000000E+00  0.00000000E+00  0.00000000E+00
  0.00000000E+00  0.00000000E+00  0.00000000E+00
  0.00000000E+00  0.00000000E+00  0.00000000E+00
  0.00000000E+00  0.00000000E+00  0.00000000E+00
  0.00000000E+00  0.00000000E+00  0.00000000E+00
  0.00000000E+00  0.00000000E+00  0.00000000E+00
  0.00000000E+00  0.00000000E+00  0.00000000E+00
  0.00000000E+00  0.00000000E+00  0.00000000E+00
  0.00000000E+00  0.00000000E+00  0.00000000E+00
