Mo36 Se72                               
1.0
  19.7339992523         0.0000000000         0.0000000000
  -9.8669996262        17.0901446708         0.0000000000
   0.0000000000         0.0000000000        25.8540000916
Mo Se O C
36 69 2 1
Cartesian
     1.945321468         0.829203871        12.936334873
     0.390252828         3.716266864        12.940558014
    -1.245391227         6.550088836        12.940550726
    -2.968887577         9.339705576        12.935822088
    -4.660611360        12.175033404        12.957359521
    -6.312347231        15.037102502        12.957674387
     5.210371592         0.832665538        12.856065066
     3.678341551         3.737123916        12.687398137
     2.086772838         6.585680882        12.613849630
     0.415473401         9.387605740        12.686649521
    -1.332935089        12.166496548        12.854924765
    -3.012569297        15.033786163        12.924401677
     8.490903540         0.800895213        12.937172269
     6.754863631         3.669066230        12.790170768
     5.076721487         6.419065837        12.620355226
     3.437400320         9.257789406        12.619935587
     1.895808505        12.085563683        12.789251773
     0.281439600        15.022276271        12.936429815
    11.789890031         0.794051063        13.016426037
    10.114445820         3.638780398        12.989275068
     8.387298624         6.444226940        12.911914283
     6.700407884         9.249491948        12.888965035
     5.114962327        12.112606425        12.911910962
     3.549466783        15.010665695        12.988149732
    15.090195811         0.798699978        13.059887249
    13.444335787         3.649048290        13.060872088
    11.760619460         6.477570255        13.030129911
    10.071810907         9.303419613        13.008939760
     8.433383568        12.141471138        13.009964606
     6.830945007        15.016919442        13.030538112
    18.392250275         0.818324918        13.037792087
    16.781557554         3.675112813        13.056493668
    15.112053203         6.498331719        13.038285557
    13.421938347         9.327813062        13.016367279
    11.755609595        12.168143866        13.011787515
    10.129585245        15.031209941        13.017548510
     0.370529566         1.826862443        14.645243553
    -1.205622249         4.684016025        14.655252893
    -2.892320293         7.476275115        14.645288591
    -4.605612486        10.285064505        14.640913529
    -6.294047936        13.139850149        14.645251398
    -7.920361427        16.029434542        14.642426917
     3.642396832         1.934259484        14.489619684
     2.286895317         4.851728180        14.432239994
     0.686321375         7.626648422        14.432400706
    -1.164557666        10.258512732        14.488984031
    -2.960698152        13.111336903        14.579618595
    -4.650891045        16.040044573        14.580042327
     6.782728589         1.832638945        14.539314536
     0.320427472        13.026980904        14.538485375
    -1.378417101        15.975261816        14.609154288
    10.098718240         1.737037176        14.660935624
     8.315528142         4.569677391        14.575327215
     6.510782013         7.253204943        14.480129948
     4.876123896        10.082154849        14.480053716
     3.456007898        12.988178140        14.574649007
     1.895663440        15.947336841        14.660469053
    13.423723441         1.736360904        14.724985925
    11.738915568         4.584750389        14.705930644
    10.013913055         7.385712373        14.650020931
     8.328586313        10.187970792        14.632950562
     6.743576060        13.050210789        14.650834412
     5.180607575        15.944627919        14.705254072
    16.763386787         1.764644816        14.728876381
    15.118639003         4.613630811        14.729523955
    13.428784979         7.439299558        14.700132979
    11.740302498        10.261156074        14.681642537
    10.096681497        13.108373540        14.682600835
     8.497361174        15.981973434        14.700823760
     0.265036728         1.768752238        11.317749650
    -1.337811117         4.607705590        11.335336626
    -2.995240570         7.414178228        11.318107918
    -4.685847212        10.260753556        11.303787166
    -6.346314138        13.110341909        11.308350367
    -7.983730726        15.971844031        11.304304222
     3.543609187         1.723848096        11.157686644
     1.923203300         4.574118831        11.077526712
     0.263188297         7.448690788        11.076157076
    -1.395283517        10.277316989        11.156972731
    -3.046404311        13.130409529        11.246640496
    -4.677471095        15.957743985        11.246722079
     6.892878329         1.735971949        11.188699638
     5.270653711         4.575453475        10.963946947
     3.629088491         7.475608980        10.878775115
     1.938033267        10.347468521        10.963470337
     0.291315010        13.171366605        11.186970258
    -1.358140489        15.987964479        11.261156760
    10.175963864         1.750368398        11.311811665
     8.516809701         4.563892141        11.233548814
     6.826173346         7.414106225        11.140818795
     5.173464125        10.276431622        11.140316185
     3.551131415        13.163887543        11.232760320
     1.944776542        16.009666823        11.311132974
    13.462108663         1.759622939        11.377868545
    11.811434621         4.584869293        11.360007273
    10.126174767         7.417286632        11.327658825
     8.445523941        10.257208017        11.318956669
     6.828326645        13.131838460        11.328339449
     5.217527681        16.006320745        11.359307699
    16.736073785         1.768407154        11.387575511
    15.106630062         4.588592692        11.388256131
    13.434069537         7.417296139        11.365306267
    11.747006744        10.258989772        11.350953053
    10.097686296        13.115601883        11.351740725
     8.480937382        15.995460606        11.365250148
     1.938000000        10.347000000        14.480000000
     3.098000000         8.351000000        14.480000000
     2.518000000         9.349000000        14.480000000
     
