W48 Se97                                
   1.00000000000000     
    33.0000000000000000    0.0000000000000000    0.0000000000000000
     0.0000000000000000   26.2560005188000005    0.0000000000000000
     0.0000000000000000    0.0000000000000000   18.1299991608000006
   W    Se   O    C 
    48    97     1     1
Direct
  0.2793293673063458  0.0429811374043780  0.5049590897282571
  0.2864636737043354  0.2772493706437169  0.5018952703468316
  0.2879281013492038  0.5238874122599489  0.5057662712534597
  0.2869604022338931  0.7761584736307994  0.5049382589981438
  0.4539954647313473  0.0357677417980834  0.5022913009382880
  0.4549061277456759  0.2859940899670478  0.5010347399816499
  0.4546536039103475  0.5352742140816223  0.5017405953393411
  0.4547164071121974  0.7854961664821016  0.5023816933389779
  0.6271270119492421  0.0355012671638738  0.5001892324390865
  0.6274853836470620  0.2854213262424312  0.4992873614480307
  0.6277180874584859  0.5355566324932786  0.4997907795127041
  0.6271868822369407  0.7856286713572702  0.4996924374612927
  0.2867532542633732  0.1697642394060404  0.5033322518160545
  0.2883617671628479  0.4213052570344686  0.5033998078953180
  0.2865585386919899  0.6703832353683868  0.5037265431221415
  0.2795007680959125  0.9031955148863183  0.5057234701437882
  0.4545813599792277  0.1607321562043066  0.5013994974880575
  0.4549900121533104  0.4106196870752216  0.5013239274600649
  0.4546932252552843  0.6601221546254027  0.5019714016011487
  0.4541973435446184  0.9102627197809071  0.5026220662657730
  0.6275627583353880  0.1599886203881363  0.4992497278887952
  0.6279866333528852  0.4109697962741793  0.4990957654595253
  0.6278010140238521  0.6601634009346296  0.4993585318151197
  0.6273941889814237  0.9110222626456949  0.4995794461588232
  0.3686947419137838  0.2243541805692575  0.5013806952519058
  0.3703395441457387  0.4725146970914886  0.5021353512674785
  0.3686743321937538  0.7217165934593492  0.5030509023434626
  0.3671505688339435  0.9730017285577637  0.5042103992120858
  0.5417636036823580  0.2228596738388985  0.5003208206365420
  0.5410730725636063  0.4731210897366874  0.5004931166900328
  0.5417230577406429  0.7226976398593942  0.5008808300225445
  0.5403997051264277  0.9731640862516343  0.5010327645944533
  0.7153163992682390  0.2138484451811012  0.4978208982621405
  0.7145083585513305  0.4764038970534663  0.4985969769504683
  0.7153349873000927  0.7143568830166275  0.4980348110977486
  0.7138576889000424  0.9762001660496932  0.4991199328442223
  0.3687086258584851  0.0993579663542659  0.5033237102983761
  0.3677451308915335  0.3488155734308266  0.5023481062296863
  0.3677722136191378  0.5977056462732333  0.5032781723320674
  0.3688642928173440  0.8466437321531597  0.5041835256484852
  0.5405093227091050  0.0978926055362720  0.5006644047447926
  0.5421073263953075  0.3482842451580205  0.5002815849329441
  0.5410124890770203  0.5979348449166053  0.5007199560869603
  0.5414833344652799  0.8482830775060866  0.5011147217300690
  0.7139356982513110  0.0947984987616878  0.4990320550386457
  0.7155246539799158  0.3567369366287054  0.4978329321386362
  0.7144465992298922  0.5947571486956404  0.4986940611927200
  0.7150863810650114  0.8571547774208936  0.4980146793007962
  0.2531692914534741  0.1056814275316202  0.5941408084974831
  0.2421637767173554  0.3498398584504481  0.5404935990531022
  0.2430913457138465  0.5941276255322643  0.5406278789463617
  0.2531397609106095  0.8408296044551583  0.5950420340662143
  0.4260500363523112  0.0985575837272662  0.5960185171395167
  0.4259077194464221  0.3481483902878991  0.5945902469807236
  0.4257877577031657  0.5977032033712990  0.5954383708481888
  0.4263041754652105  0.8477763740047473  0.5968036736421496
  0.5983305869211852  0.0980817619724320  0.5929662276812596
  0.6000863555205398  0.3481500725962937  0.5930135430260124
  0.5988793076789783  0.5980090007184534  0.5928848374247662
  0.5995881267697154  0.8481698807743431  0.5935684809772204
  0.4263765862202863  0.2237964858624404  0.5946207128850046
  0.4272193454731366  0.4726623003620034  0.5961345002709356
  0.4265368048365447  0.7224661717936537  0.5958113343022272
  0.4253075183522139  0.9730802159966732  0.5959073985363023
  0.5997445522513967  0.2228954149916978  0.5930596471577410
  0.5989221775352953  0.4729801529095116  0.5927257781193324
  0.5998166726332460  0.7228594589109684  0.5933884490642352
  0.5982937840128071  0.9730772387593687  0.5931995036081730
  0.3372616400861730  0.0363516393775016  0.5958171684241209
  0.3373861121932636  0.2858160674061506  0.5980734333563675
  0.3394598716955424  0.5334897281943095  0.5994673553696434
  0.3409188122728414  0.7834252524579338  0.5999254710342053
  0.5119304092110510  0.0356456140198202  0.5946280580337662
  0.5131034770438366  0.2857217014993796  0.5932771174403580
  0.5125848067425712  0.5354893946932991  0.5942628881395466
  0.5130090331761493  0.7853534597876421  0.5942352570433005
  0.6851492282358155  0.0355617045471751  0.5962021373217294
  0.6882786664501119  0.2853722443302980  0.5868650937872325
  0.6859544342323302  0.5355379654529325  0.5957626276528711
  0.6880777372093734  0.7856486718272341  0.5870932922797338
  0.3408158204478395  0.1629841405109939  0.5984375213105569
  0.3391617279567358  0.4115283441182852  0.6001584175872743
  0.3372994647544592  0.6601721920060416  0.5998035522541857
  0.3374616451097630  0.9099593648157742  0.5963486676974099
  0.5124856482566503  0.1608750140058516  0.5938964679038387
  0.5129777738745273  0.4102346507455074  0.5938102545599635
  0.5127360417102944  0.6604515354205285  0.5943023893644959
  0.5123595102458914  0.9104441092633468  0.5946773981050250
  0.6859942129264044  0.1581392083845460  0.5947509153381795
  0.6863922983010462  0.4128464090389414  0.5945311164148029
  0.6862598529340134  0.6582143717234994  0.5947329772795398
  0.6858785285017158  0.9129451056890836  0.5949620878439367
  0.2530516696342593  0.1039198217845592  0.4138844946825728
  0.2531032904832509  0.8418134346747781  0.4152732696691456
  0.4251967546346352  0.0980120226948287  0.4086716883677557
  0.4253090672849882  0.3483913594400633  0.4085181335146303
  0.4249432887928590  0.5978322021205833  0.4093014968954650
  0.4253091165026408  0.8479440556032695  0.4093517441302274
  0.5977624392736330  0.0976741794707692  0.4070836227423504
  0.5993406685601816  0.3481015803712326  0.4061105560202770
  0.5981837050773556  0.5979050236435510  0.4070218740840685
  0.5985880342968806  0.8481847273098018  0.4067393302058311
  0.2268052611464237  0.2230809485451367  0.4866215155708833
  0.2260810249363148  0.7236077645081226  0.4930569648702389
  0.2299649619359562  0.9730053039396249  0.5039927499154092
  0.4260055828624063  0.2235242859481965  0.4077855165432401
  0.4266160789177669  0.4730091637355632  0.4074734948285436
  0.4258178836029318  0.7227481606294833  0.4091264478240094
  0.4242315913054543  0.9728790892422313  0.4102272184044551
  0.5990070728353114  0.2228519875479291  0.4062102833096325
  0.5982743333901495  0.4732914700865729  0.4068479790323361
  0.5988996670320245  0.7230374756230920  0.4065649922516236
  0.5976090599215095  0.9732343642029901  0.4073311750102470
  0.3364484403832776  0.0355781658429946  0.4126591677958117
  0.3371168967083267  0.2872081207397453  0.4059392761442787
  0.3376981084520053  0.5346074490271462  0.4081146670899526
  0.3396969109224834  0.7844392976149017  0.4087626482582455
  0.5110033658929726  0.0353811371573279  0.4080609848900661
  0.5125408188093561  0.2856992259307354  0.4078617555706345
  0.5118522447429642  0.5356583326581801  0.4078215093455107
  0.5121164619999579  0.7855213045747227  0.4087521914905853
  0.6853691635259410  0.0354842792171399  0.4035788688060026
  0.6875070761860753  0.2853031968480688  0.4098859762618293
  0.6858566309178864  0.5356124219558845  0.4029083382258560
  0.6871598975110336  0.7857254473563757  0.4101521618843702
  0.3397657670900146  0.1613885162300508  0.4075266077442238
  0.3383325852589963  0.4113465145123684  0.4055898067691576
  0.3367321835860475  0.6593188154674745  0.4072516808561646
  0.3365040186367141  0.9101216340065273  0.4132160382733039
  0.5118992773294081  0.1606270700989815  0.4076548143921647
  0.5123521358409906  0.4103787036509522  0.4075728873754276
  0.5119630685004963  0.6605754885374370  0.4080365450398554
  0.5113903967576195  0.9104124194558805  0.4084955163576059
  0.6848495499599661  0.1579403368911462  0.4020667731438050
  0.6854197351404818  0.4129400651651957  0.4019760609617391
  0.6852077933190737  0.6582320418009260  0.4021995276607927
  0.6846318114947798  0.9130324383245523  0.4022582163159489
  0.7736469447889666  0.9135093993913043  0.4893310923254316
  0.7681424488008078  0.7857585127403797  0.4990992530747450
  0.7739989419772295  0.6579359325753475  0.4916791253871762
  0.7736799442180656  0.5355706604055538  0.5072993747016061
  0.7741177728043982  0.4132381936294410  0.4916592016102944
  0.7683423219858454  0.2852951607208346  0.4990078266893800
  0.7738318886846256  0.1573683487570651  0.4892942743613649
  0.7729194319910604  0.0354680253254041  0.5115765080418961
  0.2040561933178641  0.4770257216476105  0.4788742025667204
  0.2373780929391183  0.4618493462534557  0.4917809335207232
 
  0.00000000E+00  0.00000000E+00  0.00000000E+00
  0.00000000E+00  0.00000000E+00  0.00000000E+00
  0.00000000E+00  0.00000000E+00  0.00000000E+00
  0.00000000E+00  0.00000000E+00  0.00000000E+00
  0.00000000E+00  0.00000000E+00  0.00000000E+00
  0.00000000E+00  0.00000000E+00  0.00000000E+00
  0.00000000E+00  0.00000000E+00  0.00000000E+00
  0.00000000E+00  0.00000000E+00  0.00000000E+00
  0.00000000E+00  0.00000000E+00  0.00000000E+00
  0.00000000E+00  0.00000000E+00  0.00000000E+00
  0.00000000E+00  0.00000000E+00  0.00000000E+00
  0.00000000E+00  0.00000000E+00  0.00000000E+00
  0.00000000E+00  0.00000000E+00  0.00000000E+00
  0.00000000E+00  0.00000000E+00  0.00000000E+00
  0.00000000E+00  0.00000000E+00  0.00000000E+00
  0.00000000E+00  0.00000000E+00  0.00000000E+00
  0.00000000E+00  0.00000000E+00  0.00000000E+00
  0.00000000E+00  0.00000000E+00  0.00000000E+00
  0.00000000E+00  0.00000000E+00  0.00000000E+00
  0.00000000E+00  0.00000000E+00  0.00000000E+00
  0.00000000E+00  0.00000000E+00  0.00000000E+00
  0.00000000E+00  0.00000000E+00  0.00000000E+00
  0.00000000E+00  0.00000000E+00  0.00000000E+00
  0.00000000E+00  0.00000000E+00  0.00000000E+00
  0.00000000E+00  0.00000000E+00  0.00000000E+00
  0.00000000E+00  0.00000000E+00  0.00000000E+00
  0.00000000E+00  0.00000000E+00  0.00000000E+00
  0.00000000E+00  0.00000000E+00  0.00000000E+00
  0.00000000E+00  0.00000000E+00  0.00000000E+00
  0.00000000E+00  0.00000000E+00  0.00000000E+00
  0.00000000E+00  0.00000000E+00  0.00000000E+00
  0.00000000E+00  0.00000000E+00  0.00000000E+00
  0.00000000E+00  0.00000000E+00  0.00000000E+00
  0.00000000E+00  0.00000000E+00  0.00000000E+00
  0.00000000E+00  0.00000000E+00  0.00000000E+00
  0.00000000E+00  0.00000000E+00  0.00000000E+00
  0.00000000E+00  0.00000000E+00  0.00000000E+00
  0.00000000E+00  0.00000000E+00  0.00000000E+00
  0.00000000E+00  0.00000000E+00  0.00000000E+00
  0.00000000E+00  0.00000000E+00  0.00000000E+00
  0.00000000E+00  0.00000000E+00  0.00000000E+00
  0.00000000E+00  0.00000000E+00  0.00000000E+00
  0.00000000E+00  0.00000000E+00  0.00000000E+00
  0.00000000E+00  0.00000000E+00  0.00000000E+00
  0.00000000E+00  0.00000000E+00  0.00000000E+00
  0.00000000E+00  0.00000000E+00  0.00000000E+00
  0.00000000E+00  0.00000000E+00  0.00000000E+00
  0.00000000E+00  0.00000000E+00  0.00000000E+00
  0.00000000E+00  0.00000000E+00  0.00000000E+00
  0.00000000E+00  0.00000000E+00  0.00000000E+00
  0.00000000E+00  0.00000000E+00  0.00000000E+00
  0.00000000E+00  0.00000000E+00  0.00000000E+00
  0.00000000E+00  0.00000000E+00  0.00000000E+00
  0.00000000E+00  0.00000000E+00  0.00000000E+00
  0.00000000E+00  0.00000000E+00  0.00000000E+00
  0.00000000E+00  0.00000000E+00  0.00000000E+00
  0.00000000E+00  0.00000000E+00  0.00000000E+00
  0.00000000E+00  0.00000000E+00  0.00000000E+00
  0.00000000E+00  0.00000000E+00  0.00000000E+00
  0.00000000E+00  0.00000000E+00  0.00000000E+00
  0.00000000E+00  0.00000000E+00  0.00000000E+00
  0.00000000E+00  0.00000000E+00  0.00000000E+00
  0.00000000E+00  0.00000000E+00  0.00000000E+00
  0.00000000E+00  0.00000000E+00  0.00000000E+00
  0.00000000E+00  0.00000000E+00  0.00000000E+00
  0.00000000E+00  0.00000000E+00  0.00000000E+00
  0.00000000E+00  0.00000000E+00  0.00000000E+00
  0.00000000E+00  0.00000000E+00  0.00000000E+00
  0.00000000E+00  0.00000000E+00  0.00000000E+00
  0.00000000E+00  0.00000000E+00  0.00000000E+00
  0.00000000E+00  0.00000000E+00  0.00000000E+00
  0.00000000E+00  0.00000000E+00  0.00000000E+00
  0.00000000E+00  0.00000000E+00  0.00000000E+00
  0.00000000E+00  0.00000000E+00  0.00000000E+00
  0.00000000E+00  0.00000000E+00  0.00000000E+00
  0.00000000E+00  0.00000000E+00  0.00000000E+00
  0.00000000E+00  0.00000000E+00  0.00000000E+00
  0.00000000E+00  0.00000000E+00  0.00000000E+00
  0.00000000E+00  0.00000000E+00  0.00000000E+00
  0.00000000E+00  0.00000000E+00  0.00000000E+00
  0.00000000E+00  0.00000000E+00  0.00000000E+00
  0.00000000E+00  0.00000000E+00  0.00000000E+00
  0.00000000E+00  0.00000000E+00  0.00000000E+00
  0.00000000E+00  0.00000000E+00  0.00000000E+00
  0.00000000E+00  0.00000000E+00  0.00000000E+00
  0.00000000E+00  0.00000000E+00  0.00000000E+00
  0.00000000E+00  0.00000000E+00  0.00000000E+00
  0.00000000E+00  0.00000000E+00  0.00000000E+00
  0.00000000E+00  0.00000000E+00  0.00000000E+00
  0.00000000E+00  0.00000000E+00  0.00000000E+00
  0.00000000E+00  0.00000000E+00  0.00000000E+00
  0.00000000E+00  0.00000000E+00  0.00000000E+00
  0.00000000E+00  0.00000000E+00  0.00000000E+00
  0.00000000E+00  0.00000000E+00  0.00000000E+00
  0.00000000E+00  0.00000000E+00  0.00000000E+00
  0.00000000E+00  0.00000000E+00  0.00000000E+00
  0.00000000E+00  0.00000000E+00  0.00000000E+00
  0.00000000E+00  0.00000000E+00  0.00000000E+00
  0.00000000E+00  0.00000000E+00  0.00000000E+00
  0.00000000E+00  0.00000000E+00  0.00000000E+00
  0.00000000E+00  0.00000000E+00  0.00000000E+00
  0.00000000E+00  0.00000000E+00  0.00000000E+00
  0.00000000E+00  0.00000000E+00  0.00000000E+00
  0.00000000E+00  0.00000000E+00  0.00000000E+00
  0.00000000E+00  0.00000000E+00  0.00000000E+00
  0.00000000E+00  0.00000000E+00  0.00000000E+00
  0.00000000E+00  0.00000000E+00  0.00000000E+00
  0.00000000E+00  0.00000000E+00  0.00000000E+00
  0.00000000E+00  0.00000000E+00  0.00000000E+00
  0.00000000E+00  0.00000000E+00  0.00000000E+00
  0.00000000E+00  0.00000000E+00  0.00000000E+00
  0.00000000E+00  0.00000000E+00  0.00000000E+00
  0.00000000E+00  0.00000000E+00  0.00000000E+00
  0.00000000E+00  0.00000000E+00  0.00000000E+00
  0.00000000E+00  0.00000000E+00  0.00000000E+00
  0.00000000E+00  0.00000000E+00  0.00000000E+00
  0.00000000E+00  0.00000000E+00  0.00000000E+00
  0.00000000E+00  0.00000000E+00  0.00000000E+00
  0.00000000E+00  0.00000000E+00  0.00000000E+00
  0.00000000E+00  0.00000000E+00  0.00000000E+00
  0.00000000E+00  0.00000000E+00  0.00000000E+00
  0.00000000E+00  0.00000000E+00  0.00000000E+00
  0.00000000E+00  0.00000000E+00  0.00000000E+00
  0.00000000E+00  0.00000000E+00  0.00000000E+00
  0.00000000E+00  0.00000000E+00  0.00000000E+00
  0.00000000E+00  0.00000000E+00  0.00000000E+00
  0.00000000E+00  0.00000000E+00  0.00000000E+00
  0.00000000E+00  0.00000000E+00  0.00000000E+00
  0.00000000E+00  0.00000000E+00  0.00000000E+00
  0.00000000E+00  0.00000000E+00  0.00000000E+00
  0.00000000E+00  0.00000000E+00  0.00000000E+00
  0.00000000E+00  0.00000000E+00  0.00000000E+00
  0.00000000E+00  0.00000000E+00  0.00000000E+00
  0.00000000E+00  0.00000000E+00  0.00000000E+00
  0.00000000E+00  0.00000000E+00  0.00000000E+00
  0.00000000E+00  0.00000000E+00  0.00000000E+00
  0.00000000E+00  0.00000000E+00  0.00000000E+00
  0.00000000E+00  0.00000000E+00  0.00000000E+00
  0.00000000E+00  0.00000000E+00  0.00000000E+00
  0.00000000E+00  0.00000000E+00  0.00000000E+00
  0.00000000E+00  0.00000000E+00  0.00000000E+00
  0.00000000E+00  0.00000000E+00  0.00000000E+00
  0.00000000E+00  0.00000000E+00  0.00000000E+00
  0.00000000E+00  0.00000000E+00  0.00000000E+00
  0.00000000E+00  0.00000000E+00  0.00000000E+00
  0.00000000E+00  0.00000000E+00  0.00000000E+00
  0.00000000E+00  0.00000000E+00  0.00000000E+00
