Mo  S                                   
   1.00000000000000     
    33.0000000000000000    0.0000000000000000    0.0000000000000000
     0.0000000000000000   25.5200004577999984    0.0000000000000000
     0.0000000000000000    0.0000000000000000   17.4729003905999996
   Mo   S    O    C 
    48    97     1     1
Direct
  0.2845548822024920  0.1051577283434809  0.4971531939750828
  0.3693424154318862  0.0353438863408717  0.4990700744461038
  0.2853410568903466  0.2259938423665680  0.4968213355897282
  0.3696898700045058  0.1603489597790469  0.4985362324872720
  0.4519486548364486  0.0976131500804508  0.5004147045853145
  0.5349972364993406  0.0349768981913697  0.5024296965770521
  0.2851798734299277  0.3425514508326212  0.4966674713801702
  0.3696986105725667  0.2843808889729321  0.4981647208053029
  0.4527093957982077  0.2223150973847079  0.4997217620853189
  0.5352164490894621  0.1597564361032726  0.5013049165834417
  0.6171508872616395  0.0975718140340170  0.5029002772849237
  0.2841494676415892  0.4637440377111922  0.4967046260676249
  0.3692785700163361  0.4085188697298897  0.4981819873797178
  0.4523123300862554  0.3466208621204730  0.4997476356299390
  0.5355421012324392  0.2848663320759470  0.5012933903509902
  0.2851048560171252  0.6038773572498936  0.4969073249063846
  0.3688596685902585  0.5336519993282365  0.4983593431410200
  0.4512848339003442  0.4713915739885011  0.5000328423050655
  0.5344374274244956  0.4093711646990330  0.5022083110610075
  0.2851009028454216  0.7146855763762707  0.4971161639094430
  0.3690720663260332  0.6590003165885339  0.4986107985214471
  0.4514942182201761  0.5965437193111272  0.5002180671481893
  0.5341724629517792  0.5341353586493726  0.5025161682239258
  0.4518318302294950  0.7216561256987183  0.5003684447407273
  0.5348030909851785  0.6588045041487869  0.5021137035478160
  0.6182461391441896  0.2226845659146970  0.5019842050282328
  0.7011907791816584  0.0375492698265464  0.4959479407386031
  0.6181370090042611  0.3483614942297967  0.5058559922712199
  0.6985222595831230  0.1588338517734090  0.5048884822622765
  0.6152912360829962  0.4719276685435339  0.5051098184934413
  0.6999697093893644  0.2835287822801916  0.5087814229839650
  0.6178604973409618  0.5954551775834654  0.5064261920586891
  0.6945251426868354  0.4180301190058568  0.5121328403429535
  0.6178398197502319  0.7211604828842419  0.5028385577776117
  0.6945103524027315  0.5251021729492692  0.5104868157033556
  0.6991041142236534  0.6590390161275922  0.5095187953447105
  0.2852724605705853  0.8543887446331360  0.4973807525261148
  0.3692236861030396  0.7844591758899587  0.4989528406425419
  0.2854537568015925  0.9651817418123688  0.4974350660997053
  0.3693935708723021  0.9099740915645882  0.4992480849000517
  0.4519169442429287  0.8470581298487995  0.5008260284465308
  0.5347470683189833  0.7842471577454737  0.5019595661434433
  0.4519781892779016  0.9724555816659428  0.5010057435644072
  0.5347380614942632  0.9094857086543663  0.5026264727199472
  0.6166032837479483  0.8466166807076129  0.5032414263005545
  0.6184911083878685  0.9721142114190962  0.5035404046908025
  0.6981082432163590  0.7855439823843339  0.5057163431392289
  0.7006907438124695  0.9064941686915891  0.4963673084366140
  0.3122876728262610  0.0355345077669017  0.4122837009279305
  0.3113020262490139  0.0357021987330035  0.5834752341652185
  0.3142908958600659  0.1621240315416589  0.4062421153948867
  0.3133665411606290  0.1623598800952447  0.5887933626983531
  0.3969916165998040  0.0973664968566971  0.4097370240946495
  0.3960264185370891  0.0977244861908084  0.5889326174327015
  0.4800352151382746  0.0347837410366867  0.4121269853024432
  0.4790671774318113  0.0351372430481820  0.5905670828203275
  0.3142497355097770  0.2842822856599211  0.4050354718349243
  0.3133571373668256  0.2843931138551156  0.5893768197401108
  0.3979407844103702  0.2221833827722111  0.4094198657988712
  0.3970762229225931  0.2224151241930905  0.5881360487698049
  0.4802968285533863  0.1595551422135468  0.4110210212929298
  0.4795245733184035  0.1599380633742117  0.5899084549674523
  0.5625635177437930  0.0970596980850321  0.4124210147511627
  0.5621144039588540  0.0974130646685570  0.5921244871549362
  0.3139018263978960  0.4065764295831348  0.4059385499980530
  0.3129840469672804  0.4065395345896378  0.5884192765676782
  0.3976647344355944  0.3465885717508253  0.4092554070475666
  0.3966931091992135  0.3465547347208964  0.5880713991539374
  0.4807804636256754  0.2846240619640190  0.4106922581040053
  0.4797734379875734  0.2845430240197867  0.5896761587402313
  0.5633983892095354  0.2225007770869328  0.4119567328010582
  0.5626000523982624  0.2223225542548373  0.5907115127546471
  0.6446803364990212  0.0343376883860643  0.4132828071428340
  0.6483832148284314  0.0352229811613014  0.5900948077510378
  0.6462409754459310  0.1597349661129947  0.4129025625666187
  0.6439663717500337  0.1612650975783583  0.5932162523189881
  0.3118022501814268  0.5334163750110050  0.4116878465802019
  0.3108987076929806  0.5333066389748941  0.5828906791910079
  0.3964672274535611  0.4714758762524659  0.4091746593291651
  0.3953834142290004  0.4713560212262183  0.5884544223480381
  0.4798834530887187  0.4093173384003340  0.4111478517375408
  0.4784819833062636  0.4091096207144388  0.5900927677676133
  0.5640635923682489  0.3476493072365174  0.4136254831517588
  0.5618974390928226  0.3469884487440492  0.5924748035804128
  0.3150266867006351  0.6591573176125340  0.4037199201293990
  0.3140134615129497  0.6589969978417978  0.5914085880813332
  0.3966600130894201  0.5962707024374966  0.4097671162601362
  0.3956029810444444  0.5961243118337753  0.5883067168811564
  0.4795037306197057  0.5341646062399984  0.4116129029124378
  0.4780746084481726  0.5340595106847119  0.5901559191003973
  0.5616397071822882  0.4719426564526248  0.4130357441071305
  0.5597399221903258  0.4717642354467439  0.5935432674728265
  0.3968764833643053  0.7220266103354319  0.4101524148671198
  0.3959045844174857  0.7218257639879760  0.5884297195410120
  0.4798353738380751  0.6590509737901807  0.4116051619680586
  0.4787105888905694  0.6590051601194716  0.5901158299051597
  0.5635241180307859  0.5962565210092972  0.4143068838266838
  0.5614173420963494  0.5965701506583553  0.5929595136973902
  0.5628261577170451  0.7212147553090796  0.4130059636055312
  0.5619498634993436  0.7214712603273148  0.5913994840492008
  0.6500262857978230  0.2873794173395988  0.4160785974645091
  0.6468826116213292  0.2835400633692439  0.5955750004230845
  0.7272144350444136  0.0957382100735801  0.4119120163504742
  0.7266171653245478  0.0996636076391504  0.5889144118676518
  0.6472332125287484  0.4113950790438253  0.4157000513163907
  0.6437265253029957  0.4119770090382038  0.5998071424381762
  0.7440489983767596  0.2221037076363095  0.4628516581694532
  0.6465463845194550  0.5326271381850742  0.4150519285212425
  0.6439271781406877  0.5316527381206931  0.6004183017382367
  0.7364611957589317  0.3517153651118036  0.5600413738356816
  0.6493724909687009  0.6564823205217053  0.4163332985758414
  0.6463667644783869  0.6599481798703787  0.5964958211213107
  0.7366256529551225  0.5924914638104517  0.5590143589929829
  0.7436851968151258  0.7217667007767317  0.4674635681094967
  0.2302652519077728  0.1630427274800010  0.4960577325503443
  0.2297150300423682  0.2842387808328891  0.4955917969030159
  0.2284653701109684  0.6582651244109984  0.4959381348176341
  0.2356934926450196  0.0366536159393485  0.4963010018436963
  0.3120533312325757  0.7845827208293341  0.4123681610981450
  0.3110887813596484  0.7844285673550510  0.5832243667457323
  0.3153927750835348  0.9099621532285553  0.4042585395683028
  0.3142547606375005  0.9099112411311637  0.5918933954971343
  0.3970241750021845  0.8470158399690696  0.4105274743574825
  0.3959987847441504  0.8468239867187423  0.5888366561231859
  0.4797740779844505  0.7843834696574820  0.4118433315486879
  0.4789424272887040  0.7841679850109163  0.5902750092476303
  0.3971181875561759  0.9727434324093747  0.4105789821176606
  0.3960457709236794  0.9728673908359932  0.5890318383183332
  0.4798220298650284  0.9097777689083835  0.4122268933165950
  0.4788459713217461  0.9096896420857048  0.5908778418538808
  0.5620265914751180  0.8469356471238741  0.4128592120341260
  0.5615664187796175  0.8468773572567492  0.5924758090804264
  0.5627972526689732  0.9720970011219969  0.4140552337400136
  0.5626025558617854  0.9722306775907608  0.5919201781905121
  0.6456634677908037  0.7840662505322563  0.4138054024515867
  0.6433490990292691  0.7831857288252561  0.5935795205624661
  0.6442472088166383  0.9096170743857412  0.4133931628809778
  0.6479084716657033  0.9090517838188679  0.5904016917662736
  0.7262999055300066  0.8476789348317056  0.4120805404720017
  0.7263401837167119  0.8446339552474686  0.5894725962432262
  0.7486721138425771  0.9715569920239131  0.5024452509416960
  0.2287391679546617  0.9109160112203617  0.4960812555188109
  0.2355151271178833  0.7846256539771294  0.4962706891222038
  0.2353516545370862  0.5322686127829950  0.4959052931388223
  0.2300481368604536  0.4055632321287158  0.4958493971146982
  0.7784647192477344  0.4664565154103012  0.4906213136338474
  0.7446062209873995  0.4794614851323722  0.5036280415194074
 
  0.00000000E+00  0.00000000E+00  0.00000000E+00
  0.00000000E+00  0.00000000E+00  0.00000000E+00
  0.00000000E+00  0.00000000E+00  0.00000000E+00
  0.00000000E+00  0.00000000E+00  0.00000000E+00
  0.00000000E+00  0.00000000E+00  0.00000000E+00
  0.00000000E+00  0.00000000E+00  0.00000000E+00
  0.00000000E+00  0.00000000E+00  0.00000000E+00
  0.00000000E+00  0.00000000E+00  0.00000000E+00
  0.00000000E+00  0.00000000E+00  0.00000000E+00
  0.00000000E+00  0.00000000E+00  0.00000000E+00
  0.00000000E+00  0.00000000E+00  0.00000000E+00
  0.00000000E+00  0.00000000E+00  0.00000000E+00
  0.00000000E+00  0.00000000E+00  0.00000000E+00
  0.00000000E+00  0.00000000E+00  0.00000000E+00
  0.00000000E+00  0.00000000E+00  0.00000000E+00
  0.00000000E+00  0.00000000E+00  0.00000000E+00
  0.00000000E+00  0.00000000E+00  0.00000000E+00
  0.00000000E+00  0.00000000E+00  0.00000000E+00
  0.00000000E+00  0.00000000E+00  0.00000000E+00
  0.00000000E+00  0.00000000E+00  0.00000000E+00
  0.00000000E+00  0.00000000E+00  0.00000000E+00
  0.00000000E+00  0.00000000E+00  0.00000000E+00
  0.00000000E+00  0.00000000E+00  0.00000000E+00
  0.00000000E+00  0.00000000E+00  0.00000000E+00
  0.00000000E+00  0.00000000E+00  0.00000000E+00
  0.00000000E+00  0.00000000E+00  0.00000000E+00
  0.00000000E+00  0.00000000E+00  0.00000000E+00
  0.00000000E+00  0.00000000E+00  0.00000000E+00
  0.00000000E+00  0.00000000E+00  0.00000000E+00
  0.00000000E+00  0.00000000E+00  0.00000000E+00
  0.00000000E+00  0.00000000E+00  0.00000000E+00
  0.00000000E+00  0.00000000E+00  0.00000000E+00
  0.00000000E+00  0.00000000E+00  0.00000000E+00
  0.00000000E+00  0.00000000E+00  0.00000000E+00
  0.00000000E+00  0.00000000E+00  0.00000000E+00
  0.00000000E+00  0.00000000E+00  0.00000000E+00
  0.00000000E+00  0.00000000E+00  0.00000000E+00
  0.00000000E+00  0.00000000E+00  0.00000000E+00
  0.00000000E+00  0.00000000E+00  0.00000000E+00
  0.00000000E+00  0.00000000E+00  0.00000000E+00
  0.00000000E+00  0.00000000E+00  0.00000000E+00
  0.00000000E+00  0.00000000E+00  0.00000000E+00
  0.00000000E+00  0.00000000E+00  0.00000000E+00
  0.00000000E+00  0.00000000E+00  0.00000000E+00
  0.00000000E+00  0.00000000E+00  0.00000000E+00
  0.00000000E+00  0.00000000E+00  0.00000000E+00
  0.00000000E+00  0.00000000E+00  0.00000000E+00
  0.00000000E+00  0.00000000E+00  0.00000000E+00
  0.00000000E+00  0.00000000E+00  0.00000000E+00
  0.00000000E+00  0.00000000E+00  0.00000000E+00
  0.00000000E+00  0.00000000E+00  0.00000000E+00
  0.00000000E+00  0.00000000E+00  0.00000000E+00
  0.00000000E+00  0.00000000E+00  0.00000000E+00
  0.00000000E+00  0.00000000E+00  0.00000000E+00
  0.00000000E+00  0.00000000E+00  0.00000000E+00
  0.00000000E+00  0.00000000E+00  0.00000000E+00
  0.00000000E+00  0.00000000E+00  0.00000000E+00
  0.00000000E+00  0.00000000E+00  0.00000000E+00
  0.00000000E+00  0.00000000E+00  0.00000000E+00
  0.00000000E+00  0.00000000E+00  0.00000000E+00
  0.00000000E+00  0.00000000E+00  0.00000000E+00
  0.00000000E+00  0.00000000E+00  0.00000000E+00
  0.00000000E+00  0.00000000E+00  0.00000000E+00
  0.00000000E+00  0.00000000E+00  0.00000000E+00
  0.00000000E+00  0.00000000E+00  0.00000000E+00
  0.00000000E+00  0.00000000E+00  0.00000000E+00
  0.00000000E+00  0.00000000E+00  0.00000000E+00
  0.00000000E+00  0.00000000E+00  0.00000000E+00
  0.00000000E+00  0.00000000E+00  0.00000000E+00
  0.00000000E+00  0.00000000E+00  0.00000000E+00
  0.00000000E+00  0.00000000E+00  0.00000000E+00
  0.00000000E+00  0.00000000E+00  0.00000000E+00
  0.00000000E+00  0.00000000E+00  0.00000000E+00
  0.00000000E+00  0.00000000E+00  0.00000000E+00
  0.00000000E+00  0.00000000E+00  0.00000000E+00
  0.00000000E+00  0.00000000E+00  0.00000000E+00
  0.00000000E+00  0.00000000E+00  0.00000000E+00
  0.00000000E+00  0.00000000E+00  0.00000000E+00
  0.00000000E+00  0.00000000E+00  0.00000000E+00
  0.00000000E+00  0.00000000E+00  0.00000000E+00
  0.00000000E+00  0.00000000E+00  0.00000000E+00
  0.00000000E+00  0.00000000E+00  0.00000000E+00
  0.00000000E+00  0.00000000E+00  0.00000000E+00
  0.00000000E+00  0.00000000E+00  0.00000000E+00
  0.00000000E+00  0.00000000E+00  0.00000000E+00
  0.00000000E+00  0.00000000E+00  0.00000000E+00
  0.00000000E+00  0.00000000E+00  0.00000000E+00
  0.00000000E+00  0.00000000E+00  0.00000000E+00
  0.00000000E+00  0.00000000E+00  0.00000000E+00
  0.00000000E+00  0.00000000E+00  0.00000000E+00
  0.00000000E+00  0.00000000E+00  0.00000000E+00
  0.00000000E+00  0.00000000E+00  0.00000000E+00
  0.00000000E+00  0.00000000E+00  0.00000000E+00
  0.00000000E+00  0.00000000E+00  0.00000000E+00
  0.00000000E+00  0.00000000E+00  0.00000000E+00
  0.00000000E+00  0.00000000E+00  0.00000000E+00
  0.00000000E+00  0.00000000E+00  0.00000000E+00
  0.00000000E+00  0.00000000E+00  0.00000000E+00
  0.00000000E+00  0.00000000E+00  0.00000000E+00
  0.00000000E+00  0.00000000E+00  0.00000000E+00
  0.00000000E+00  0.00000000E+00  0.00000000E+00
  0.00000000E+00  0.00000000E+00  0.00000000E+00
  0.00000000E+00  0.00000000E+00  0.00000000E+00
  0.00000000E+00  0.00000000E+00  0.00000000E+00
  0.00000000E+00  0.00000000E+00  0.00000000E+00
  0.00000000E+00  0.00000000E+00  0.00000000E+00
  0.00000000E+00  0.00000000E+00  0.00000000E+00
  0.00000000E+00  0.00000000E+00  0.00000000E+00
  0.00000000E+00  0.00000000E+00  0.00000000E+00
  0.00000000E+00  0.00000000E+00  0.00000000E+00
  0.00000000E+00  0.00000000E+00  0.00000000E+00
  0.00000000E+00  0.00000000E+00  0.00000000E+00
  0.00000000E+00  0.00000000E+00  0.00000000E+00
  0.00000000E+00  0.00000000E+00  0.00000000E+00
  0.00000000E+00  0.00000000E+00  0.00000000E+00
  0.00000000E+00  0.00000000E+00  0.00000000E+00
  0.00000000E+00  0.00000000E+00  0.00000000E+00
  0.00000000E+00  0.00000000E+00  0.00000000E+00
  0.00000000E+00  0.00000000E+00  0.00000000E+00
  0.00000000E+00  0.00000000E+00  0.00000000E+00
  0.00000000E+00  0.00000000E+00  0.00000000E+00
  0.00000000E+00  0.00000000E+00  0.00000000E+00
  0.00000000E+00  0.00000000E+00  0.00000000E+00
  0.00000000E+00  0.00000000E+00  0.00000000E+00
  0.00000000E+00  0.00000000E+00  0.00000000E+00
  0.00000000E+00  0.00000000E+00  0.00000000E+00
  0.00000000E+00  0.00000000E+00  0.00000000E+00
  0.00000000E+00  0.00000000E+00  0.00000000E+00
  0.00000000E+00  0.00000000E+00  0.00000000E+00
  0.00000000E+00  0.00000000E+00  0.00000000E+00
  0.00000000E+00  0.00000000E+00  0.00000000E+00
  0.00000000E+00  0.00000000E+00  0.00000000E+00
  0.00000000E+00  0.00000000E+00  0.00000000E+00
  0.00000000E+00  0.00000000E+00  0.00000000E+00
  0.00000000E+00  0.00000000E+00  0.00000000E+00
  0.00000000E+00  0.00000000E+00  0.00000000E+00
  0.00000000E+00  0.00000000E+00  0.00000000E+00
  0.00000000E+00  0.00000000E+00  0.00000000E+00
  0.00000000E+00  0.00000000E+00  0.00000000E+00
  0.00000000E+00  0.00000000E+00  0.00000000E+00
  0.00000000E+00  0.00000000E+00  0.00000000E+00
  0.00000000E+00  0.00000000E+00  0.00000000E+00
  0.00000000E+00  0.00000000E+00  0.00000000E+00
  0.00000000E+00  0.00000000E+00  0.00000000E+00
  0.00000000E+00  0.00000000E+00  0.00000000E+00
  0.00000000E+00  0.00000000E+00  0.00000000E+00
  0.00000000E+00  0.00000000E+00  0.00000000E+00
