Mo36 H4 Se69 C1 O1                      
   1.00000000000000     
    19.7339992522999985    0.0000000000000000    0.0000000000000000
    -9.8669996262000002   17.0901446708000009    0.0000000000000000
     0.0000000000000000    0.0000000000000000   25.8540000915999997
   Mo   Se   O    C    H 
    36    69     1     1     4
Direct
  0.1242942516932326  0.0493238685795633  0.4986580496155456
  0.1297177767220957  0.2181054948715064  0.4989333770681498
  0.1296580954332669  0.3838280068481181  0.4987917992330103
  0.1242457476134471  0.5470990360504265  0.4985015582507805
  0.1215479992562082  0.7130655300216215  0.4991795050530132
  0.1215712097441894  0.8805833773033832  0.4992737215185469
  0.2898354244469514  0.0494495333690470  0.4955640761048633
  0.2971149219531394  0.2194270628420262  0.4894460110557385
  0.2997182158528106  0.3859058756063625  0.4869592819627298
  0.2971017092219227  0.5497510561534502  0.4892383190739054
  0.2898515288982926  0.7124152286239469  0.4953922096467147
  0.2886834019075408  0.8803425518198994  0.4979413316799850
  0.4551364399923747  0.0475261300096641  0.4985967283931241
  0.4511512821523160  0.2154546229516160  0.4931758610176976
  0.4468713266312840  0.3763237951698234  0.4869875016019568
  0.4470609015774968  0.5428735736524994  0.4870519514322469
  0.4512268767628136  0.7077637526832117  0.4929857337358013
  0.4551640263378737  0.8796215781450831  0.4985262534786584
  0.6220799114224189  0.0470819897017712  0.5015478059505126
  0.6204500721016251  0.2135164136733046  0.5006146172192726
  0.6152648548740915  0.3777943716525554  0.4978389242576212
  0.6120549474692738  0.5421745455717902  0.4970854698994132
  0.6155513485656300  0.7097529923816109  0.4976281535973466
  0.6204991064543500  0.8790020683166757  0.5004049764314078
  0.7894564283498026  0.0474304725174042  0.5031885031322908
  0.7894226886327351  0.2142260148143740  0.5032579791561079
  0.7869840316312665  0.3797551189793973  0.5021849611590684
  0.7841991283079718  0.5451485497368224  0.5013453999364491
  0.7843349762269877  0.7113373339728924  0.5012976315760125
  0.7871345352157743  0.8795187237547113  0.5020656241441023
  0.9573798982990540  0.0486303611860067  0.5024487131491332
  0.9591906821573559  0.2157240753370227  0.5030984028270895
  0.9573067405830672  0.3809599712495022  0.5023930579409502
  0.9545933486696168  0.5465168570892509  0.5015485551373681
  0.9532902195255072  0.7127277050731489  0.5013256349157490
  0.9546946011342820  0.8803189220950551  0.5016052055799227
  0.0733491502028569  0.1074389018735607  0.5647936023586683
  0.0768629064053036  0.2746460595259565  0.5651538652391670
  0.0733646592872401  0.4381765689947695  0.5646903490746952
  0.0690656020881330  0.6026062567046498  0.5644168573079034
  0.0670355490043820  0.7695022951212764  0.5645181120479847
  0.0691153443817308  0.9385935220652355  0.5645297769943713
  0.2424699106872595  0.1136314793099943  0.5589370339686791
  0.2583526015139065  0.2839365826509802  0.5570146889212830
  0.2581132399489262  0.4465680401813563  0.5567373169628556
  0.2424788802651220  0.6008889880639053  0.5587670607161767
  0.2350195914025470  0.7678887395489716  0.5619171545826204
  0.2350439939580850  0.9390249320708850  0.5620359248155637
  0.3987873540043807  0.1077757925173075  0.5606765336748134
  0.3988187422627725  0.7628868247285384  0.5605347555868396
  0.3988745089833623  0.9353861328086686  0.5632057103328409
  0.5640146800338368  0.1021832496803416  0.5652468721463438
  0.5568022787308184  0.2679953061235110  0.5621031874229745
  0.5445277724868359  0.4253773671526123  0.5587759638482916
  0.5448170360996626  0.5917940243273209  0.5586243815150358
  0.5569054732131347  0.7609087300204067  0.5618726624034885
  0.5640883183064261  0.9337874678465763  0.5651345537301923
  0.7324558838794362  0.1022808663717494  0.5676219409132433
  0.7305459719914029  0.2689222336175840  0.5669569526719651
  0.7254219183099453  0.4330282497807303  0.5649562027862753
  0.7222393500438302  0.5972837458518369  0.5643000157394473
  0.7255399077704114  0.7647220575253634  0.5648556933581628
  0.7304893613582126  0.9337231024102594  0.5667876846623725
  0.9023909376270044  0.1040238444778117  0.5678018561555438
  0.9024275567411515  0.2707272192911534  0.5678086899559671
  0.8997175270863926  0.4360660267688685  0.5667247499069649
  0.8967691985877640  0.6011644701299721  0.5659640920440305
  0.8968073058959320  0.7677777125532828  0.5659735186035684
  0.8997148462372841  0.9358865150142925  0.5667265636436266
  0.0667270960749506  0.1044017893620906  0.4360000766406255
  0.0684351629143037  0.2702892905834451  0.4366304274653059
  0.0665603337160730  0.4344123134753619  0.4358601922720532
  0.0643036017524666  0.6009702134864852  0.4352776191368477
  0.0635113372808559  0.7678481895740435  0.4354197323912777
  0.0644132111289265  0.9355426275574465  0.4353875697736599
  0.2316133417401195  0.1018931645320928  0.4300031152975958
  0.2328894055418896  0.2686573456743328  0.4271707803811695
  0.2328972527873326  0.4363238333404970  0.4270306012932248
  0.2315631424700926  0.6017208001318852  0.4298223382991351
  0.2313962159312699  0.7689071013783174  0.4330412372514494
  0.2314168678362341  0.9346247545124360  0.4331615709842986
  0.4015196336800783  0.1024440708845713  0.4310712361157424
  0.4023937464395984  0.2686951624804085  0.4227774198221501
  0.4042027322161539  0.4382275402246985  0.4199490110339757
  0.4025098371007313  0.6057457180186785  0.4226394894074150
  0.4015679212136690  0.7711550891668230  0.4309451193956758
  0.4004620810549479  0.9362585720517708  0.4336796179904158
  0.5682120395644013  0.1029964769053300  0.4356685935545668
  0.5664165851192837  0.2677192171343309  0.4328905610783737
  0.5644161543053022  0.4345660651471480  0.4295593566408457
  0.5644029445185105  0.6018969008749091  0.4294538187946126
  0.5664986097251041  0.7707256878197047  0.4325948834623934
  0.5682468320234721  0.9373435641527280  0.4355955482542336
  0.7350728566205327  0.1036984275922717  0.4381559855080553
  0.7340180436265594  0.2690510208081439  0.4375344092085384
  0.7316044455200775  0.4347061973320690  0.4363697783350248
  0.7295691586982270  0.6008884397049372  0.4360251333254267
  0.7319183354888426  0.7692284328887369  0.4362229184498600
  0.7341535434236578  0.9372674947300951  0.4373989590399173
  0.9012526677398802  0.1041435416431627  0.4385558191023645
  0.9011375908644668  0.2692535443437272  0.4385782926443791
  0.8991223217953036  0.4346956945141250  0.4377080892341437
  0.8969635413342820  0.6009776686305884  0.4371094104714640
  0.8971581623279046  0.7683071495149479  0.4370941041108421
  0.8993954013933488  0.9367813678831268  0.4376946904113124
  0.3916396304654746  0.4479267518582039  0.6342644710642856
  0.4457082930462986  0.4530437787686453  0.6729842114591069
  0.5067113238760131  0.4967829357058331  0.6631029425449695
  0.4048966396651554  0.4327699982589744  0.6015056390982253
  0.4422572870913744  0.3962276683137528  0.6799360414928202
  0.4298577709399692  0.4717134254686814  0.7087574534016675
 
  0.00000000E+00  0.00000000E+00  0.00000000E+00
  0.00000000E+00  0.00000000E+00  0.00000000E+00
  0.00000000E+00  0.00000000E+00  0.00000000E+00
  0.00000000E+00  0.00000000E+00  0.00000000E+00
  0.00000000E+00  0.00000000E+00  0.00000000E+00
  0.00000000E+00  0.00000000E+00  0.00000000E+00
  0.00000000E+00  0.00000000E+00  0.00000000E+00
  0.00000000E+00  0.00000000E+00  0.00000000E+00
  0.00000000E+00  0.00000000E+00  0.00000000E+00
  0.00000000E+00  0.00000000E+00  0.00000000E+00
  0.00000000E+00  0.00000000E+00  0.00000000E+00
  0.00000000E+00  0.00000000E+00  0.00000000E+00
  0.00000000E+00  0.00000000E+00  0.00000000E+00
  0.00000000E+00  0.00000000E+00  0.00000000E+00
  0.00000000E+00  0.00000000E+00  0.00000000E+00
  0.00000000E+00  0.00000000E+00  0.00000000E+00
  0.00000000E+00  0.00000000E+00  0.00000000E+00
  0.00000000E+00  0.00000000E+00  0.00000000E+00
  0.00000000E+00  0.00000000E+00  0.00000000E+00
  0.00000000E+00  0.00000000E+00  0.00000000E+00
  0.00000000E+00  0.00000000E+00  0.00000000E+00
  0.00000000E+00  0.00000000E+00  0.00000000E+00
  0.00000000E+00  0.00000000E+00  0.00000000E+00
  0.00000000E+00  0.00000000E+00  0.00000000E+00
  0.00000000E+00  0.00000000E+00  0.00000000E+00
  0.00000000E+00  0.00000000E+00  0.00000000E+00
  0.00000000E+00  0.00000000E+00  0.00000000E+00
  0.00000000E+00  0.00000000E+00  0.00000000E+00
  0.00000000E+00  0.00000000E+00  0.00000000E+00
  0.00000000E+00  0.00000000E+00  0.00000000E+00
  0.00000000E+00  0.00000000E+00  0.00000000E+00
  0.00000000E+00  0.00000000E+00  0.00000000E+00
  0.00000000E+00  0.00000000E+00  0.00000000E+00
  0.00000000E+00  0.00000000E+00  0.00000000E+00
  0.00000000E+00  0.00000000E+00  0.00000000E+00
  0.00000000E+00  0.00000000E+00  0.00000000E+00
  0.00000000E+00  0.00000000E+00  0.00000000E+00
  0.00000000E+00  0.00000000E+00  0.00000000E+00
  0.00000000E+00  0.00000000E+00  0.00000000E+00
  0.00000000E+00  0.00000000E+00  0.00000000E+00
  0.00000000E+00  0.00000000E+00  0.00000000E+00
  0.00000000E+00  0.00000000E+00  0.00000000E+00
  0.00000000E+00  0.00000000E+00  0.00000000E+00
  0.00000000E+00  0.00000000E+00  0.00000000E+00
  0.00000000E+00  0.00000000E+00  0.00000000E+00
  0.00000000E+00  0.00000000E+00  0.00000000E+00
  0.00000000E+00  0.00000000E+00  0.00000000E+00
  0.00000000E+00  0.00000000E+00  0.00000000E+00
  0.00000000E+00  0.00000000E+00  0.00000000E+00
  0.00000000E+00  0.00000000E+00  0.00000000E+00
  0.00000000E+00  0.00000000E+00  0.00000000E+00
  0.00000000E+00  0.00000000E+00  0.00000000E+00
  0.00000000E+00  0.00000000E+00  0.00000000E+00
  0.00000000E+00  0.00000000E+00  0.00000000E+00
  0.00000000E+00  0.00000000E+00  0.00000000E+00
  0.00000000E+00  0.00000000E+00  0.00000000E+00
  0.00000000E+00  0.00000000E+00  0.00000000E+00
  0.00000000E+00  0.00000000E+00  0.00000000E+00
  0.00000000E+00  0.00000000E+00  0.00000000E+00
  0.00000000E+00  0.00000000E+00  0.00000000E+00
  0.00000000E+00  0.00000000E+00  0.00000000E+00
  0.00000000E+00  0.00000000E+00  0.00000000E+00
  0.00000000E+00  0.00000000E+00  0.00000000E+00
  0.00000000E+00  0.00000000E+00  0.00000000E+00
  0.00000000E+00  0.00000000E+00  0.00000000E+00
  0.00000000E+00  0.00000000E+00  0.00000000E+00
  0.00000000E+00  0.00000000E+00  0.00000000E+00
  0.00000000E+00  0.00000000E+00  0.00000000E+00
  0.00000000E+00  0.00000000E+00  0.00000000E+00
  0.00000000E+00  0.00000000E+00  0.00000000E+00
  0.00000000E+00  0.00000000E+00  0.00000000E+00
  0.00000000E+00  0.00000000E+00  0.00000000E+00
  0.00000000E+00  0.00000000E+00  0.00000000E+00
  0.00000000E+00  0.00000000E+00  0.00000000E+00
  0.00000000E+00  0.00000000E+00  0.00000000E+00
  0.00000000E+00  0.00000000E+00  0.00000000E+00
  0.00000000E+00  0.00000000E+00  0.00000000E+00
  0.00000000E+00  0.00000000E+00  0.00000000E+00
  0.00000000E+00  0.00000000E+00  0.00000000E+00
  0.00000000E+00  0.00000000E+00  0.00000000E+00
  0.00000000E+00  0.00000000E+00  0.00000000E+00
  0.00000000E+00  0.00000000E+00  0.00000000E+00
  0.00000000E+00  0.00000000E+00  0.00000000E+00
  0.00000000E+00  0.00000000E+00  0.00000000E+00
  0.00000000E+00  0.00000000E+00  0.00000000E+00
  0.00000000E+00  0.00000000E+00  0.00000000E+00
  0.00000000E+00  0.00000000E+00  0.00000000E+00
  0.00000000E+00  0.00000000E+00  0.00000000E+00
  0.00000000E+00  0.00000000E+00  0.00000000E+00
  0.00000000E+00  0.00000000E+00  0.00000000E+00
  0.00000000E+00  0.00000000E+00  0.00000000E+00
  0.00000000E+00  0.00000000E+00  0.00000000E+00
  0.00000000E+00  0.00000000E+00  0.00000000E+00
  0.00000000E+00  0.00000000E+00  0.00000000E+00
  0.00000000E+00  0.00000000E+00  0.00000000E+00
  0.00000000E+00  0.00000000E+00  0.00000000E+00
  0.00000000E+00  0.00000000E+00  0.00000000E+00
  0.00000000E+00  0.00000000E+00  0.00000000E+00
  0.00000000E+00  0.00000000E+00  0.00000000E+00
  0.00000000E+00  0.00000000E+00  0.00000000E+00
  0.00000000E+00  0.00000000E+00  0.00000000E+00
  0.00000000E+00  0.00000000E+00  0.00000000E+00
  0.00000000E+00  0.00000000E+00  0.00000000E+00
  0.00000000E+00  0.00000000E+00  0.00000000E+00
  0.00000000E+00  0.00000000E+00  0.00000000E+00
  0.00000000E+00  0.00000000E+00  0.00000000E+00
  0.00000000E+00  0.00000000E+00  0.00000000E+00
  0.00000000E+00  0.00000000E+00  0.00000000E+00
  0.00000000E+00  0.00000000E+00  0.00000000E+00
  0.00000000E+00  0.00000000E+00  0.00000000E+00
  0.00000000E+00  0.00000000E+00  0.00000000E+00
