Mo36 H4 Se69 C1 O1
1.0
  19.7339992522999985    0.0000000000000000    0.0000000000000000
  -9.8669996262000002   17.0901446708000009    0.0000000000000000
   0.0000000000000000    0.0000000000000000   25.8540000915999997
Mo Se O C H
36 69 1 1 4
direct
   0.1228368621658668    0.0485194178851375    0.5003610593009564 Mo
   0.1285010944763539    0.2174508721596468    0.5005244050495847 Mo
   0.1285245982460521    0.3832670209744565    0.5005241231589692 Mo
   0.1228029818226583    0.5464965777590929    0.5003412254261911 Mo
   0.1200287596510929    0.7124008391106311    0.5011742660745895 Mo
   0.1200632429387896    0.8798698192234848    0.5011864446929419 Mo
   0.2883911766565560    0.0487219712904292    0.4972563247641107 Mo
   0.2957317964437770    0.2186712861702804    0.4907325014330047 Mo
   0.2984198688130864    0.3853496274523766    0.4878877382729745 Mo
   0.2957033709914693    0.5492993722890797    0.4907035459136518 Mo
   0.2884055530424825    0.7119013198751628    0.4972122193647157 Mo
   0.2871790516819796    0.8796757694325743    0.4998994983835849 Mo
   0.4536992472914910    0.0468629861494619    0.5003934487183399 Mo
   0.4496402322269288    0.2146890094072123    0.4947076167202282 Mo
   0.4450578295691002    0.3756004387702775    0.4881393664920876 Mo
   0.4450384036902385    0.5417033959822317    0.4881231353867069 Mo
   0.4496509722767507    0.7071656744749059    0.4946720711568051 Mo
   0.4537628047127951    0.8790022881823152    0.5003647315373478 Mo
   0.6206717386262660    0.0464625126524941    0.5034588841526714 Mo
   0.6189975233169548    0.2129168867842982    0.5024087190368748 Mo
   0.6135540306725158    0.3770726968163425    0.4994165017890248 Mo
   0.6101451812234520    0.5412178847030804    0.4985288539233680 Mo
   0.6135694418690889    0.7087480333443544    0.4994163733369482 Mo
   0.6190270155868697    0.8783229155834490    0.5023651924647384 Mo
   0.7880473318903496    0.0467345358032368    0.5051399088237482 Mo
   0.7880366569746413    0.2135176945713465    0.5051780011497522 Mo
   0.7854690877532829    0.3790237227229265    0.5039889326539264 Mo
   0.7825652837785906    0.5443733679385232    0.5031693244337313 Mo
   0.7825714899679794    0.7104370016682632    0.5032089641798584 Mo
   0.7854954938975205    0.8786888426788870    0.5040047213519443 Mo
   0.9559496858952369    0.0478828549297291    0.5042852959235502 Mo
   0.9579094781656970    0.2150428146626079    0.5050086494059414 Mo
   0.9559069365049593    0.3802385435685027    0.5043043827185626 Mo
   0.9530431966098962    0.5458007080500249    0.5034566114676017 Mo
   0.9517022115728186    0.7119977098140270    0.5032794719927129 Mo
   0.9530687677770715    0.8795250262967130    0.5035022999875914 Mo
   0.0722240368522825    0.1068956687137560    0.5664594840687055 Se
   0.0759448525748863    0.2740770259834634    0.5668466326710315 Se
   0.0721652584954597    0.4374611952685144    0.5664612260815406 Se
   0.0675216542563485    0.6018126062193567    0.5662920042209195 Se
   0.0654833350368306    0.7688554077280912    0.5664597875033760 Se
   0.0676110758769875    0.9379343973247742    0.5663505401532564 Se
   0.2411646015045846    0.1131798192033360    0.5604401497897301 Se
   0.2578312597823620    0.2838904101431979    0.5582207760063037 Se
   0.2579086392675242    0.4462600269868278    0.5582269921430496 Se
   0.2411167326240384    0.6002589755444002    0.5604155635362393 Se
   0.2335631860259709    0.7671870048825192    0.5639211937551178 Se
   0.2335985193939018    0.9385552247785129    0.5639375831725580 Se
   0.3973245907725403    0.1072336706506191    0.5623622837660560 Se
   0.3973628610914664    0.7622510607682409    0.5623302128680495 Se
   0.3975324265784815    0.9347645747724491    0.5650635969768768 Se
   0.5625619510381066    0.1016396999241252    0.5670664335134491 Se
   0.5550741374703020    0.2673867002897694    0.5637552086083399 Se
   0.5421314606613177    0.4244086333214447    0.5600730988124586 Se
   0.5420623855982482    0.5899397016940552    0.5600701502551858 Se
   0.5551199178318230    0.7599805847279593    0.5637289763813114 Se
   0.5626260808101183    0.9331305935781464    0.5670483871377104 Se
   0.7310333648997074    0.1016001290478672    0.5695438180873283 Se
   0.7289917393498503    0.2682686704714352    0.5688067839366171 Se
   0.7235257232542436    0.4321620744158551    0.5666442670029931 Se
   0.7201081651310637    0.5961313369925437    0.5659840067361284 Se
   0.7235289000208458    0.7636103169622327    0.5666757314184460 Se
   0.7290079731055387    0.9329720857332930    0.5687806149879978 Se
   0.9010948424188087    0.1032551128145246    0.5696942960012378 Se
   0.9011006723133601    0.2699585579800732    0.5697193433439199 Se
   0.8981386061083528    0.4352976350580982    0.5685825375925520 Se
   0.8951345084031179    0.6004136460899643    0.5678673506994411 Se
   0.8951456956661596    0.7670136088664479    0.5679044164531584 Se
   0.8981736348377518    0.9351572933906518    0.5686092561273068 Se
   0.0651781877711191    0.1034954514470593    0.4377562315270955 Se
   0.0670137324336513    0.2696118540103798    0.4384364734988481 Se
   0.0651331344109712    0.4338277042597403    0.4377700888798739 Se
   0.0627445861241273    0.6003900934514258    0.4372161803183645 Se
   0.0619714877208702    0.7671287845444726    0.4373926791573772 Se
   0.0627149980575137    0.9345645890458310    0.4372361793900041 Se
   0.2300027121335294    0.1008679639175521    0.4315651970475991 Se
   0.2312796296400822    0.2676465834028474    0.4284647123366841 Se
   0.2312603679682736    0.4358471464976383    0.4284117365497596 Se
   0.2299750879250559    0.6013592738369085    0.4315375837963625 Se
   0.2297781157880658    0.7683030063188667    0.4350058194536036 Se
   0.2298437651908102    0.9337395494530362    0.4350089749807835 Se
   0.4000781645992535    0.1015773700246119    0.4327647404022104 Se
   0.4009472639226992    0.2677246777680917    0.4240715907849865 Se
   0.4026114142597762    0.4374222175411264    0.4207772521256596 Se
   0.4009398653505513    0.6054640683457496    0.4240531561134343 Se
   0.4001118558920699    0.7706995381674226    0.4326978501726958 Se
   0.3989315600004246    0.9355078489368688    0.4355672901718123 Se
   0.5668663197331872    0.1024197531218479    0.4375265577830342 Se
   0.5651046153691036    0.2670481864789481    0.4344994497640539 Se
   0.5628210191363082    0.4338234911298116    0.4309127699980038 Se
   0.5628136773639751    0.6013074681315119    0.4308933296793598 Se
   0.5650808682508585    0.7702619139024404    0.4344689518141349 Se
   0.5669384015312441    0.9367777237341887    0.4375003068741770 Se
   0.7336590650179002    0.1029612664430202    0.4400815542928959 Se
   0.7326700460796911    0.2682756279315557    0.4393907028990412 Se
   0.7301382257310514    0.4340095870968886    0.4381395058740010 Se
   0.7280595061889843    0.6001826324223769    0.4378029174942853 Se
   0.7302116986334949    0.7683866177234233    0.4381658315488516 Se
   0.7326837853304631    0.9365819338175757    0.4393636442621757 Se
   0.8998208576161597    0.1034752594588317    0.4404570074516182 Se
   0.8997596007238493    0.2684934961282107    0.4404833329717540 Se
   0.8977626497810054    0.4340101433824078    0.4395956612799968 Se
   0.8954108604434432    0.6002868887077578    0.4390404971294148 Se
   0.8954080897562096    0.7674365627465487    0.4390709632854142 Se
   0.8977359653362610    0.9359464717305546    0.4395934906681069 Se
   0.4440594249774141    0.4370149126215903    0.5909636830226551 O
   0.4720079792460676    0.4800580356711487    0.6390486693147344 C
   0.5242598970437546    0.4795241384938130    0.6532829192836422 H
   0.4277896286935081    0.3817198534981520    0.5957125446906757 H
   0.4248543932692778    0.4547736341447939    0.6679293708446534 H
   0.4867654223915929    0.5403606843526919    0.6305505622821060 H
