W48 Se98                                
   1.00000000000000     
    33.0000000000000000    0.0000000000000000    0.0000000000000000
     0.0000000000000000   26.2560005188000005    0.0000000000000000
     0.0000000000000000    0.0000000000000000   18.1299991608000006
   W    Se   O    C 
    48    98     2     1
Direct
  0.2789278161665780  0.0408070221965162  0.5026761757042614
  0.2838780279556547  0.2879085829825315  0.4986997605359423
  0.2866893973072528  0.5284955024225340  0.4987245783332693
  0.2879944492704598  0.7759004337408356  0.4987167452649946
  0.4545723646304258  0.0356980037467980  0.5015071046264864
  0.4556453651936183  0.2859751613741293  0.5007390722344605
  0.4550539314178185  0.5356678577962217  0.4990290818995025
  0.4557091552982677  0.7856208677711519  0.4997283720490344
  0.6278557078766706  0.0356191278757638  0.5017071488778791
  0.6280258581681449  0.2855736387348201  0.5006280399335877
  0.6281356113820956  0.5355894788423755  0.5005448478897068
  0.6280975764248050  0.7856919308860877  0.5004041697240806
  0.2839755649000335  0.1649529167271202  0.5065731727793600
  0.2860766030279624  0.4206270787344284  0.4987483702969323
  0.2885441028167104  0.6690147920751284  0.4970528139348752
  0.2797557146494623  0.9017515383738671  0.5008029959103719
  0.4552764280600766  0.1602558099581315  0.5018213723945875
  0.4553489707046828  0.4108453481975743  0.4994981127888810
  0.4556002490895535  0.6603400229358540  0.4989216778931310
  0.4550832301524652  0.9102723264992005  0.5008068402387209
  0.6282121318819605  0.1600946457569449  0.5009630161738443
  0.6284164850628323  0.4110565054974656  0.5000291296366491
  0.6285216273596541  0.6601550073513990  0.4998840191675883
  0.6282468204574444  0.9111260194841483  0.5007985507648658
  0.3687951394617640  0.2234812873686071  0.5022269343550403
  0.3691236750962577  0.4736569645538385  0.4984961709543784
  0.3697903823390479  0.7220076598392619  0.4980511099273841
  0.3681147554167852  0.9724815622886890  0.5014258944925546
  0.5423560332412676  0.2228748496954407  0.5010922542882891
  0.5414869295662703  0.4732438412213600  0.4997183690312972
  0.5426180225698720  0.7228134699447103  0.4998149078209862
  0.5411708325156956  0.9731900570177533  0.5011406391375332
  0.7159228814008278  0.2141179733393144  0.5005413462393699
  0.7148814551667644  0.4762786117313182  0.5009717038024885
  0.7160836400113060  0.7142727398899491  0.5001285509148772
  0.7146862021925802  0.9763929450735886  0.5016387003840680
  0.3693263115185095  0.0990118961801778  0.5021770368993775
  0.3689401460446217  0.3486919251004783  0.4986805075788637
  0.3684529174090547  0.5987226860843851  0.4983005923346739
  0.3697555548920144  0.8465144795224631  0.5003975807825779
  0.5411753470370817  0.0979601511612358  0.5014110990276260
  0.5424956721359909  0.3483594661629964  0.5002657908550590
  0.5415971804579190  0.5979796321349592  0.4995556850109492
  0.5424406475808385  0.8483981798788878  0.5005522853894265
  0.7146698574382232  0.0948860907308123  0.5016640288614767
  0.7160001706115902  0.3569852664133721  0.5001448760587408
  0.7149127452637302  0.5949523999502022  0.5009809763409901
  0.7159750594197298  0.8571788893085385  0.5004627810540182
  0.2528769628896890  0.1008997472027506  0.5961456585525572
  0.2497433986173891  0.3524761839400495  0.5747320686845313
  0.2437583409929223  0.5996184090480564  0.5437237761867614
  0.2535796052651261  0.8389463727852366  0.5896835885794812
  0.4263381412326342  0.0979982161758143  0.5957287216785733
  0.4262652303118187  0.3486524527325366  0.5929022746481493
  0.4259073961512508  0.5981857539766147  0.5918835043886291
  0.4266957756969313  0.8475343355855892  0.5940493983266809
  0.5987018601749232  0.0981216070147467  0.5942968106710083
  0.6001221497025860  0.3483709045785489  0.5937487398517196
  0.5988947162067039  0.5981288320756563  0.5929317699998172
  0.6000550549670315  0.8480436916989147  0.5941023086858025
  0.4268687019359160  0.2236894927420626  0.5945526872116764
  0.4263195798712328  0.4733917376922693  0.5926464078661664
  0.4270398634693228  0.7225272786248771  0.5923500462008293
  0.4257016987462267  0.9725905988912059  0.5942334999529745
  0.6001046135076983  0.2231760589773145  0.5943333853832944
  0.5988217612114224  0.4731325749356555  0.5930283998190661
  0.6001682853040489  0.7228662957819418  0.5934560950865850
  0.5986852273754758  0.9730276333018437  0.5941404028371395
  0.3375379648907447  0.0350409576871851  0.5931854491308902
  0.3388056693365750  0.2867488586110341  0.5938161031140226
  0.3380099722676184  0.5353801164494543  0.5942062149202050
  0.3415131722934383  0.7829962853434447  0.5949839226451398
  0.5122266618694942  0.0354343397786252  0.5946010940008361
  0.5134465101714411  0.2859666548712654  0.5935443246411343
  0.5124639901542540  0.5357131387994788  0.5926257439978413
  0.5134439911847349  0.7853221533628488  0.5928218960554261
  0.6855959098555814  0.0356259863014745  0.5984247298202391
  0.6884927504382067  0.2856753234380325  0.5889596462725509
  0.6857142946946749  0.5356105293972701  0.5975966949215213
  0.6885115498299278  0.7856234717534236  0.5888520997079781
  0.3405810007477245  0.1614692292971485  0.5975173822346628
  0.3400660973893247  0.4113629282210323  0.5939458750065256
  0.3384064474451556  0.6610271492098774  0.5949385576249882
  0.3376434905390442  0.9091743214698514  0.5924120390345615
  0.5129768033850700  0.1608497676728669  0.5946312665815894
  0.5128597300210775  0.4106781798273882  0.5929257118751515
  0.5129934593271953  0.6605785130957881  0.5926113183308005
  0.5127498216642236  0.9102451305594239  0.5939743310859965
  0.6863306739695481  0.1582909530743288  0.5970997103191999
  0.6863910118206170  0.4130226435314486  0.5964101255965607
  0.6864453128259633  0.6582536460401612  0.5963849197026191
  0.6863300744926528  0.9129582785369348  0.5970124961307004
  0.2520183885855253  0.1041221335202244  0.4137455587567033
  0.2541509974406952  0.8415160649552482  0.4086918363676557
  0.4259067740964249  0.0982299648764208  0.4079524574286360
  0.4268849282099318  0.3479355336947199  0.4063707129572781
  0.4263819205773652  0.5980800315595555  0.4056085998066807
  0.4267147128827903  0.8482820617252179  0.4065884954454494
  0.5986886450611218  0.0978453287196106  0.4084131303162913
  0.6001548791178712  0.3480456208831111  0.4068660331940533
  0.5993149288317174  0.5979384465422933  0.4070227043951212
  0.6000646773277022  0.8484743300226735  0.4071940165272143
  0.2328350336344681  0.2261218693874637  0.5430141530196154
  0.2261162617944223  0.4752237179380339  0.5023848507148295
  0.2283578865473310  0.7226643613020948  0.4810575152186917
  0.2297330550521198  0.9710354420332395  0.5001557520103781
  0.4265380544760285  0.2228101669990748  0.4088728166422597
  0.4266801199074789  0.4731078010228102  0.4054746974932295
  0.4275694585655617  0.7230916025636313  0.4054053431872942
  0.4255433396983589  0.9730749500648452  0.4082628378699665
  0.5999012509626845  0.2227829714427786  0.4075026305571439
  0.5991992185739469  0.4732354427973597  0.4071268811356389
  0.6003471606977187  0.7231499864037235  0.4066403147850522
  0.5987604045065582  0.9734356890264181  0.4082907527100530
  0.3370283631331867  0.0359228553396509  0.4109956784363997
  0.3411156587572367  0.2844568168967119  0.4063327343726562
  0.3376903175996324  0.5364414688936291  0.4020660712417511
  0.3413124031326728  0.7849265166631658  0.4037309943056462
  0.5120696271938457  0.0356307919038032  0.4081819821753251
  0.5134123787045709  0.2853765020394579  0.4078319634548956
  0.5128315809642345  0.5355820112545873  0.4061462681062606
  0.5137019472763805  0.7858710337301795  0.4072845612597287
  0.6864171998147386  0.0356557297894523  0.4057989321782918
  0.6884224937517427  0.2854227348633583  0.4120105603071980
  0.6868737478598810  0.5356066817765764  0.4049644327649016
  0.6885611277948064  0.7858309823772708  0.4119136666668427
  0.3389342880156326  0.1618705183992830  0.4095071111295432
  0.3398909560090568  0.4114741729571099  0.4037728945491650
  0.3391880834134001  0.6600987818851075  0.4008237908806128
  0.3376024780298279  0.9102318082869200  0.4094731864030163
  0.5126936085201759  0.1606159758918477  0.4082442649959245
  0.5131982949360110  0.4103286685373165  0.4067082474672530
  0.5134290528262208  0.6607468191139289  0.4062966847006290
  0.5127811041636713  0.9106646732056183  0.4076917656157782
  0.6858689410317039  0.1580729494457731  0.4044754225533750
  0.6861916078108141  0.4129696202063135  0.4037211639804063
  0.6863318187845269  0.6582766732862698  0.4036561282134517
  0.6859347277728512  0.9132290162947704  0.4043950311979464
  0.7744989621299864  0.9137152714899420  0.4930012240338309
  0.7689545845274558  0.7857668786564268  0.5028119656362416
  0.7746542309828958  0.6577403354256618  0.4928517022916547
  0.7738657373723471  0.5355808621176847  0.5139053244037657
  0.7745960056380488  0.4134458739108711  0.4925643035657071
  0.7688989887697637  0.2855363819943544  0.5027632634338096
  0.7744601047143665  0.1576129926079398  0.4929802884503870
  0.7737241279869376  0.0356594652008499  0.5139247600600626
  0.2399670324655588  0.3960563587309739  0.3570491923008127
  0.2605237114385290  0.3241686916042251  0.4137852318752733
  0.2564516596606463  0.3759441926468300  0.4094544563512482
 
  0.00000000E+00  0.00000000E+00  0.00000000E+00
  0.00000000E+00  0.00000000E+00  0.00000000E+00
  0.00000000E+00  0.00000000E+00  0.00000000E+00
  0.00000000E+00  0.00000000E+00  0.00000000E+00
  0.00000000E+00  0.00000000E+00  0.00000000E+00
  0.00000000E+00  0.00000000E+00  0.00000000E+00
  0.00000000E+00  0.00000000E+00  0.00000000E+00
  0.00000000E+00  0.00000000E+00  0.00000000E+00
  0.00000000E+00  0.00000000E+00  0.00000000E+00
  0.00000000E+00  0.00000000E+00  0.00000000E+00
  0.00000000E+00  0.00000000E+00  0.00000000E+00
  0.00000000E+00  0.00000000E+00  0.00000000E+00
  0.00000000E+00  0.00000000E+00  0.00000000E+00
  0.00000000E+00  0.00000000E+00  0.00000000E+00
  0.00000000E+00  0.00000000E+00  0.00000000E+00
  0.00000000E+00  0.00000000E+00  0.00000000E+00
  0.00000000E+00  0.00000000E+00  0.00000000E+00
  0.00000000E+00  0.00000000E+00  0.00000000E+00
  0.00000000E+00  0.00000000E+00  0.00000000E+00
  0.00000000E+00  0.00000000E+00  0.00000000E+00
  0.00000000E+00  0.00000000E+00  0.00000000E+00
  0.00000000E+00  0.00000000E+00  0.00000000E+00
  0.00000000E+00  0.00000000E+00  0.00000000E+00
  0.00000000E+00  0.00000000E+00  0.00000000E+00
  0.00000000E+00  0.00000000E+00  0.00000000E+00
  0.00000000E+00  0.00000000E+00  0.00000000E+00
  0.00000000E+00  0.00000000E+00  0.00000000E+00
  0.00000000E+00  0.00000000E+00  0.00000000E+00
  0.00000000E+00  0.00000000E+00  0.00000000E+00
  0.00000000E+00  0.00000000E+00  0.00000000E+00
  0.00000000E+00  0.00000000E+00  0.00000000E+00
  0.00000000E+00  0.00000000E+00  0.00000000E+00
  0.00000000E+00  0.00000000E+00  0.00000000E+00
  0.00000000E+00  0.00000000E+00  0.00000000E+00
  0.00000000E+00  0.00000000E+00  0.00000000E+00
  0.00000000E+00  0.00000000E+00  0.00000000E+00
  0.00000000E+00  0.00000000E+00  0.00000000E+00
  0.00000000E+00  0.00000000E+00  0.00000000E+00
  0.00000000E+00  0.00000000E+00  0.00000000E+00
  0.00000000E+00  0.00000000E+00  0.00000000E+00
  0.00000000E+00  0.00000000E+00  0.00000000E+00
  0.00000000E+00  0.00000000E+00  0.00000000E+00
  0.00000000E+00  0.00000000E+00  0.00000000E+00
  0.00000000E+00  0.00000000E+00  0.00000000E+00
  0.00000000E+00  0.00000000E+00  0.00000000E+00
  0.00000000E+00  0.00000000E+00  0.00000000E+00
  0.00000000E+00  0.00000000E+00  0.00000000E+00
  0.00000000E+00  0.00000000E+00  0.00000000E+00
  0.00000000E+00  0.00000000E+00  0.00000000E+00
  0.00000000E+00  0.00000000E+00  0.00000000E+00
  0.00000000E+00  0.00000000E+00  0.00000000E+00
  0.00000000E+00  0.00000000E+00  0.00000000E+00
  0.00000000E+00  0.00000000E+00  0.00000000E+00
  0.00000000E+00  0.00000000E+00  0.00000000E+00
  0.00000000E+00  0.00000000E+00  0.00000000E+00
  0.00000000E+00  0.00000000E+00  0.00000000E+00
  0.00000000E+00  0.00000000E+00  0.00000000E+00
  0.00000000E+00  0.00000000E+00  0.00000000E+00
  0.00000000E+00  0.00000000E+00  0.00000000E+00
  0.00000000E+00  0.00000000E+00  0.00000000E+00
  0.00000000E+00  0.00000000E+00  0.00000000E+00
  0.00000000E+00  0.00000000E+00  0.00000000E+00
  0.00000000E+00  0.00000000E+00  0.00000000E+00
  0.00000000E+00  0.00000000E+00  0.00000000E+00
  0.00000000E+00  0.00000000E+00  0.00000000E+00
  0.00000000E+00  0.00000000E+00  0.00000000E+00
  0.00000000E+00  0.00000000E+00  0.00000000E+00
  0.00000000E+00  0.00000000E+00  0.00000000E+00
  0.00000000E+00  0.00000000E+00  0.00000000E+00
  0.00000000E+00  0.00000000E+00  0.00000000E+00
  0.00000000E+00  0.00000000E+00  0.00000000E+00
  0.00000000E+00  0.00000000E+00  0.00000000E+00
  0.00000000E+00  0.00000000E+00  0.00000000E+00
  0.00000000E+00  0.00000000E+00  0.00000000E+00
  0.00000000E+00  0.00000000E+00  0.00000000E+00
  0.00000000E+00  0.00000000E+00  0.00000000E+00
  0.00000000E+00  0.00000000E+00  0.00000000E+00
  0.00000000E+00  0.00000000E+00  0.00000000E+00
  0.00000000E+00  0.00000000E+00  0.00000000E+00
  0.00000000E+00  0.00000000E+00  0.00000000E+00
  0.00000000E+00  0.00000000E+00  0.00000000E+00
  0.00000000E+00  0.00000000E+00  0.00000000E+00
  0.00000000E+00  0.00000000E+00  0.00000000E+00
  0.00000000E+00  0.00000000E+00  0.00000000E+00
  0.00000000E+00  0.00000000E+00  0.00000000E+00
  0.00000000E+00  0.00000000E+00  0.00000000E+00
  0.00000000E+00  0.00000000E+00  0.00000000E+00
  0.00000000E+00  0.00000000E+00  0.00000000E+00
  0.00000000E+00  0.00000000E+00  0.00000000E+00
  0.00000000E+00  0.00000000E+00  0.00000000E+00
  0.00000000E+00  0.00000000E+00  0.00000000E+00
  0.00000000E+00  0.00000000E+00  0.00000000E+00
  0.00000000E+00  0.00000000E+00  0.00000000E+00
  0.00000000E+00  0.00000000E+00  0.00000000E+00
  0.00000000E+00  0.00000000E+00  0.00000000E+00
  0.00000000E+00  0.00000000E+00  0.00000000E+00
  0.00000000E+00  0.00000000E+00  0.00000000E+00
  0.00000000E+00  0.00000000E+00  0.00000000E+00
  0.00000000E+00  0.00000000E+00  0.00000000E+00
  0.00000000E+00  0.00000000E+00  0.00000000E+00
  0.00000000E+00  0.00000000E+00  0.00000000E+00
  0.00000000E+00  0.00000000E+00  0.00000000E+00
  0.00000000E+00  0.00000000E+00  0.00000000E+00
  0.00000000E+00  0.00000000E+00  0.00000000E+00
  0.00000000E+00  0.00000000E+00  0.00000000E+00
  0.00000000E+00  0.00000000E+00  0.00000000E+00
  0.00000000E+00  0.00000000E+00  0.00000000E+00
  0.00000000E+00  0.00000000E+00  0.00000000E+00
  0.00000000E+00  0.00000000E+00  0.00000000E+00
  0.00000000E+00  0.00000000E+00  0.00000000E+00
  0.00000000E+00  0.00000000E+00  0.00000000E+00
  0.00000000E+00  0.00000000E+00  0.00000000E+00
  0.00000000E+00  0.00000000E+00  0.00000000E+00
  0.00000000E+00  0.00000000E+00  0.00000000E+00
  0.00000000E+00  0.00000000E+00  0.00000000E+00
  0.00000000E+00  0.00000000E+00  0.00000000E+00
  0.00000000E+00  0.00000000E+00  0.00000000E+00
  0.00000000E+00  0.00000000E+00  0.00000000E+00
  0.00000000E+00  0.00000000E+00  0.00000000E+00
  0.00000000E+00  0.00000000E+00  0.00000000E+00
  0.00000000E+00  0.00000000E+00  0.00000000E+00
  0.00000000E+00  0.00000000E+00  0.00000000E+00
  0.00000000E+00  0.00000000E+00  0.00000000E+00
  0.00000000E+00  0.00000000E+00  0.00000000E+00
  0.00000000E+00  0.00000000E+00  0.00000000E+00
  0.00000000E+00  0.00000000E+00  0.00000000E+00
  0.00000000E+00  0.00000000E+00  0.00000000E+00
  0.00000000E+00  0.00000000E+00  0.00000000E+00
  0.00000000E+00  0.00000000E+00  0.00000000E+00
  0.00000000E+00  0.00000000E+00  0.00000000E+00
  0.00000000E+00  0.00000000E+00  0.00000000E+00
  0.00000000E+00  0.00000000E+00  0.00000000E+00
  0.00000000E+00  0.00000000E+00  0.00000000E+00
  0.00000000E+00  0.00000000E+00  0.00000000E+00
  0.00000000E+00  0.00000000E+00  0.00000000E+00
  0.00000000E+00  0.00000000E+00  0.00000000E+00
  0.00000000E+00  0.00000000E+00  0.00000000E+00
  0.00000000E+00  0.00000000E+00  0.00000000E+00
  0.00000000E+00  0.00000000E+00  0.00000000E+00
  0.00000000E+00  0.00000000E+00  0.00000000E+00
  0.00000000E+00  0.00000000E+00  0.00000000E+00
  0.00000000E+00  0.00000000E+00  0.00000000E+00
  0.00000000E+00  0.00000000E+00  0.00000000E+00
  0.00000000E+00  0.00000000E+00  0.00000000E+00
  0.00000000E+00  0.00000000E+00  0.00000000E+00
  0.00000000E+00  0.00000000E+00  0.00000000E+00
  0.00000000E+00  0.00000000E+00  0.00000000E+00
  0.00000000E+00  0.00000000E+00  0.00000000E+00
  0.00000000E+00  0.00000000E+00  0.00000000E+00
