W48 Se98
1.0
  33.0000000000         0.0000000000         0.0000000000
   0.0000000000        26.2560005188         0.0000000000
   0.0000000000         0.0000000000        18.1299991608
W Se O C
48 98 2 1
Cartesian
     9.222694140         1.113369161         9.172774086
     9.452591610         7.208998737         9.139611960
     9.454941210        13.896774117         9.037493290
     9.479434800        20.366119789         9.155929685
    14.986820310         0.934645615         9.118880306
    15.000743670         7.501284211         9.090205718
    14.988359430        14.060873595         9.066245293
    15.011673930        20.627714624         9.109062186
    20.703763410         0.931795001         9.073504544
    20.694929970         7.496998969         9.056963096
    20.695461600        14.059115230         9.065200642
    20.701065330        20.624233866         9.066019755
     9.470623140         4.453993098         9.155722459
     9.458003940        10.967451215         9.028335283
     9.495395250        17.591087386         9.139954436
     9.225948930        23.708429625         9.180644681
    15.003374100         4.213169123         9.105513602
    14.991147270        10.776462441         9.065210976
    15.007227840        17.340631922         9.090545837
    14.994146310        23.899709314         9.120632389
    20.708009850         4.202169960         9.059866978
    20.705652000        10.790392825         9.048385974
    20.711466930        17.328859782         9.055626733
    20.711217120        23.917743774         9.066661557
    12.177153780         5.872680686         9.116958164
    12.153944220        12.421957239         9.035945894
    12.178161930        18.954157151         9.117316050
    12.118315110        25.542216704         9.151694336
    17.872854780         5.849315471         9.078990863
    17.835860460        12.422884338         9.060294483
    17.877888600        18.976123183         9.081202905
    17.839441620        25.549927041         9.093266243
    23.599668510         5.624195998         9.034675888
    23.557303110        12.494197998         9.053734868
    23.602656000        18.744698856         9.034343927
    23.568523110        25.637063092         9.050094364
    12.171563250         2.598578952         9.141010508
    12.127461720         9.152806335         9.095142154
    12.128748060        15.710650483         9.099645284
    12.177325380        22.234131828         9.146155983
    17.839964670         2.567593195         9.087401370
    17.870451720         9.145826178         9.067472512
    17.842519200        15.696903104         9.068496132
    17.876661660        22.273891289         9.091571088
    23.566714050         2.485657932         9.048571444
    23.596940070         9.374228176         9.030787909
    23.559976110        15.622819960         9.054433961
    23.604575940        22.496996140         9.039201861
     8.356100280         2.747480144        10.792119685
     8.009050170         9.185509759         9.843340206
     8.035131060        15.673063180         9.918977656
     8.361150270        22.062842669        10.794719345
    14.065225350         2.579544139        10.821291941
    14.038265340         9.151220473        10.771683006
    14.043408720        15.691807077        10.772456975
    14.073675990        22.258007984        10.825546145
    19.750844520         2.573445920        10.757848185
    19.781209800         9.143673973        10.751417837
    19.744904190        15.698363200        10.748684377
    19.794003900        22.266142618        10.770033176
    14.079782640         5.870130441        10.800929051
    14.036136510        12.417605044        10.751142986
    14.085890280        18.970505187        10.800535993
    14.039487000        25.544390176        10.814705312
    19.786850490         5.854798775        10.759166780
    19.738096290        12.417655718        10.742973790
    19.792097820        18.976084324        10.761384441
    19.752568110        25.548899119        10.761951729
    11.135123010         0.942264844        10.817191842
    11.146146660         7.506049937        10.860970170
    11.156475990        14.014786700        10.804851295
    11.259121830        20.569461486        10.875936846
    16.900338180         0.932200919        10.791681483
    16.922679510         7.505152770        10.760256030
    16.888239720        14.056786848        10.756674267
    16.934181000        20.620528356        10.776102374
    22.628109900         0.933338592        10.812146807
    22.701359340         7.498419944        10.645800983
    22.604299740        14.058558078        10.811276930
    22.710642900        20.621293456        10.651715170
    11.252157180         4.256952842        10.875233402
    11.146227180        10.833607576        10.804001361
    11.165021670        17.337432366        10.881650878
    11.138264940        23.887725288        10.822645527
    16.916716080         4.221126004        10.779176860
    16.896963600        10.778419564        10.751681991
    16.916874810        17.337881081        10.769353120
    16.914227880        23.902583296        10.789806297
    22.637587500         4.152817606        10.789258952
    22.629105180        10.838632187        10.785825130
    22.637505990        17.278630478        10.789966747
    22.642768830        23.970074346        10.793212924
     8.346723330         2.724385103         7.534870801
     8.351275350        22.093594484         7.542017828
    14.033033190         2.566848837         7.422669856
    14.027388210         9.124883866         7.395552998
    14.028687090        15.718444839         7.398682417
    14.039727240        22.269642281         7.425716421
    19.727776860         2.563866156         7.389016589
    19.761988620         9.136815643         7.363997734
    19.735874400        15.697520645         7.377201087
    19.762546650        22.270239080         7.381399270
     7.440557850         5.816242100         9.030790448
     7.788161370        12.441297671         8.013061494
     7.480811250        18.974568565         8.966873861
     7.588464180        25.535025448         9.158559260
    14.053692180         5.853446328         7.407331152
    14.055897570        12.419514380         7.359944592
    14.060940960        18.989272976         7.409760753
    14.003178090        25.542966313         7.447311788
    19.761338520         5.849372709         7.371862890
    19.733037720        12.425984909         7.372177446
    19.766448900        18.984426643         7.374594900
    19.726990800        25.551191793         7.394024639
    11.104312230         0.930817228         7.494918809
    11.103561810         7.494154131         7.378925250
    11.167377540        14.111091609         7.326315075
    11.218970070        20.604864552         7.414399313
    16.867647390         0.926402282         7.409065467
    16.901602410         7.492556979         7.399431367
    16.884002190        14.065818125         7.372137016
    16.907136510        20.631459517         7.413109001
    22.619769150         0.931749579         7.314841686
    22.677298050         7.497358939         7.437346634
    22.625375190        14.059853549         7.325034553
    22.681009890        20.623402076         7.443955926
    11.211282720         4.228567480         7.407854021
    11.162047050        10.742496629         7.315669683
    11.124984420        17.344283082         7.362665723
    11.102393940        23.896746325         7.499215800
    16.890580740         4.212135687         7.401007045
    16.894086990        10.771726909         7.376274100
    16.898700060        17.350654363         7.390869475
    16.881508050        23.905123827         7.413546478
    22.602450420         4.149540332         7.298517797
    22.600190910        10.841300322         7.288625707
    22.602147810        17.278973118         7.293251214
    22.603959180        23.970253937         7.303232322
    25.537431480        23.981658756         8.924714542
    25.350071010        20.623583505         9.058937271
    25.534618560        17.263283845         8.860341986
    25.500199560        14.057336386         9.317083803
    25.530852930        10.853604671         8.865101110
    25.345225620         7.495861559         9.056509120
    25.534485900         4.141325879         8.924769476
    25.522568610         0.933798859         9.190228380
     9.458000000        10.967000000         7.316000000
     9.458000000         8.647000000         7.316000000
     9.458000000         9.807000000         7.316000000
