Mo48 H4 Se99 C1 O1                      
   1.00000000000000     
    33.0000000000000000    0.0000000000000000    0.0000000000000000
     0.0000000000000000   26.3120002699999986    0.0000000000000000
     0.0000000000000000    0.0000000000000000   18.0970000000000013
   Mo   Se   O    C    H 
    48    99     1     1     4
Direct
  0.2873595694202820  0.0271124186526121  0.4967689051620970
  0.2870939545734779  0.2751610750736921  0.4955853853007865
  0.2807805166308472  0.5365715289911033  0.4988610429374611
  0.2816150057387209  0.7933074542730517  0.5001822923636370
  0.4544067536714366  0.0366225002189749  0.4982865376802578
  0.4528499086683945  0.2855797592815745  0.4995594311624807
  0.4531106404240119  0.5356218635786821  0.4997665997562073
  0.4546075301433125  0.7864632230175403  0.4983732010963144
  0.6268035923368246  0.0374218450017982  0.5004811436840206
  0.6255961815746236  0.2861284444433536  0.5014149889879708
  0.6259695874832227  0.5346521630865392  0.5007141525387179
  0.6268009141604598  0.7858977389358964  0.4998324847589378
  0.2871339221681406  0.1700052303744455  0.4945929457029574
  0.2854229782305154  0.4084468788057267  0.4859354288299103
  0.2820265996848954  0.6634762990792540  0.5070192830707526
  0.2880422684907603  0.9195909650809136  0.4991137798965511
  0.4534777868339159  0.1610163293297606  0.4986994017660451
  0.4527791646077468  0.4104424705670850  0.4997322798715999
  0.4537663626202770  0.6607873992287746  0.4992521157967703
  0.4551011845419694  0.9114331290910002  0.4982870710157641
  0.6262403550754959  0.1625373293207515  0.5010786239318489
  0.6256656894594822  0.4096965451094137  0.5012197156333053
  0.6267814034442954  0.6601118615962749  0.5001877087742070
  0.6273815634684504  0.9118084622307203  0.5000080007077681
  0.3672640929376244  0.2225949313575192  0.4968236944872666
  0.3662575797927667  0.4723546631640881  0.4977053934906431
  0.3672222342399253  0.7243252586343110  0.4991128761309088
  0.3686109602775196  0.9748632610096577  0.4977464154555989
  0.5392189501066356  0.2238490387714113  0.5004218716147020
  0.5398690912097309  0.4726290108509381  0.5004850772854862
  0.5406517043753845  0.7231080971703696  0.4992509529304793
  0.5411146839089578  0.9742019057407660  0.4991443825833082
  0.7133555974887044  0.2280462474908968  0.5020372071095162
  0.7141068750336865  0.4621308500524014  0.5014566178955213
  0.7138688119287350  0.7145909062929932  0.5006986020887761
  0.7142272896029797  0.9663427657045242  0.5012878768062333
  0.3663259287618834  0.0985003002436977  0.4969384767043360
  0.3665518303537699  0.3472315127787530  0.4971590304491461
  0.3672897478055249  0.5984946225372407  0.5007322857802232
  0.3694857608638654  0.8498587866653281  0.4985877951457331
  0.5408539488237394  0.0994357691941633  0.4997143258913175
  0.5388758818253414  0.3481234310590268  0.5007310156167091
  0.5401137781401646  0.5979399181522832  0.4999831319800412
  0.5412035577543236  0.8488974855789849  0.4988922782808420
  0.7147059864517091  0.1100371351151034  0.5017857508228664
  0.7130950044796657  0.3444164780495791  0.5018771375072986
  0.7136222747628579  0.6055121673860334  0.5009282096021418
  0.7141936663609458  0.8571301638554966  0.5009039680572431
  0.2421627220081840  0.0986738652129059  0.5586723444764260
  0.2405576936259859  0.3469632674896779  0.5368649288985343
  0.2526399164180209  0.6045329250369739  0.5921241087527020
  0.2560582352017945  0.8554495991859311  0.5906746974895449
  0.4241407731883764  0.0984097127770258  0.5902220848967841
  0.4231798723815970  0.3480218946486739  0.5917557369828442
  0.4251597175227788  0.5984307324542887  0.5926024360959947
  0.4266489847779255  0.8489975692459337  0.5914230904898841
  0.5981970531275750  0.0991654624049649  0.5934132594904005
  0.5960699223346938  0.3482030790741702  0.5938039971922137
  0.5977939179113614  0.5976661447715873  0.5928019620393855
  0.5985874227868337  0.8485467064323305  0.5920904898982959
  0.4241197516655237  0.2227728533348401  0.5914574218585141
  0.4233666824981870  0.4729453062082571  0.5917784870529568
  0.4254665898078391  0.7242170838329431  0.5910976340599249
  0.4262743236284981  0.9740916277884381  0.5908957168186560
  0.5963158894728574  0.2238503205790825  0.5936823737382205
  0.5974909609337777  0.4729235206155394  0.5937520240267260
  0.5982132704830752  0.7234436874311279  0.5922116523885641
  0.5984594851496587  0.9744273723284959  0.5924291632062054
  0.3377495828764799  0.0360873240641318  0.5935942779543861
  0.3363493738550624  0.2842281497380834  0.5930939752217353
  0.3375363126751559  0.5351155022788763  0.5921179713096946
  0.3387306723240236  0.7875814664031424  0.5913113091367367
  0.5118526926515083  0.0365568217983586  0.5914391866228063
  0.5098911166699296  0.2858266063239567  0.5932120881887697
  0.5108305249433293  0.5355746176546872  0.5924084047970954
  0.5121972930188781  0.7862218263843029  0.5911646621966665
  0.6872794716935415  0.0379675602054156  0.5887668939044366
  0.6835772905736442  0.2861998505699128  0.5976571618123143
  0.6867023131351988  0.5340374602004374  0.5885791830779677
  0.6871819117019273  0.7858527220580835  0.5883627387945286
  0.3370589317070809  0.1611308168114166  0.5926515420781134
  0.3343136010378739  0.4101384983114911  0.5886045509280298
  0.3406019628129199  0.6627064074931710  0.5940367482198156
  0.3414035881909142  0.9128260068848975  0.5937293281555411
  0.5107129317005947  0.1608033150782223  0.5923659274092290
  0.5101204818809063  0.4108421005583254  0.5930438213557933
  0.5115056029711058  0.6609240925336506  0.5920618921401161
  0.5125339141128141  0.9113769518472615  0.5914502508982646
  0.6838850398157087  0.1647305952094380  0.5973722927584855
  0.6834684036079701  0.4075425730482986  0.5972944742588531
  0.6830556130103227  0.6601384620927714  0.5986699992356191
  0.6834376671078278  0.9116763570045007  0.5987839760573673
  0.2431350968030781  0.0976898242281500  0.4308762056171344
  0.2515245657646829  0.5985791942512625  0.4147223495572490
  0.2541761635839936  0.8550839999278250  0.4117804024580954
  0.4250619420862495  0.0986203537985035  0.4057033411296873
  0.4250028759417689  0.3479230637639594  0.4062545498031108
  0.4244320613232707  0.5984058632814689  0.4069700648191937
  0.4265667587984999  0.8488686858358356  0.4052351353916949
  0.5988872883231460  0.0995382104099855  0.4074311087973317
  0.5965006095996092  0.3481047828894097  0.4085712099544898
  0.5980826598855155  0.5973327561723170  0.4077765892898050
  0.5992249122091491  0.8486573309007678  0.4070389439314934
  0.2264280717739936  0.2231137692862222  0.4905964015348400
  0.2452353715989288  0.4715352313610298  0.4209841303825132
  0.2297645417388220  0.7272736561766350  0.4923891107836822
  0.2278670112863526  0.9719259616046970  0.4992548772502597
  0.4254369792154157  0.2232459750143316  0.4053846995994372
  0.4246970703184461  0.4733234418169106  0.4068039703204810
  0.4250444962827261  0.7235522610789885  0.4066197635978573
  0.4266177690568849  0.9739824805561437  0.4052905220706611
  0.5969013211113060  0.2240912812302277  0.4083950185025512
  0.5977948836972002  0.4726234336588537  0.4078683717795328
  0.5986463232956669  0.7232111135411506  0.4072885736880354
  0.5991428763101568  0.9747362654804397  0.4073148757521075
  0.3382607615193001  0.0354106260753011  0.4004979828107141
  0.3377546677304412  0.2851440479698223  0.4001104264340302
  0.3378159490763102  0.5362020752192400  0.4075307099637910
  0.3378759140582759  0.7868912028166156  0.4071514005607844
  0.5125597048122988  0.0368985842549749  0.4065944965328553
  0.5106147919639438  0.2860001990379858  0.4074015703316430
  0.5111662847667533  0.5353626813636140  0.4078051390078765
  0.5125652117000581  0.7859599885789433  0.4063207924080883
  0.6879187192099800  0.0382829658163443  0.4136695931437236
  0.6840083076933395  0.2861430875132079  0.4058920949692670
  0.6869656684230008  0.5337138599601448  0.4135170214830545
  0.6877280574386651  0.7859324798380725  0.4125485091337399
  0.3384331805506645  0.1612025230082013  0.3994901971431936
  0.3409375116926041  0.4086582647695682  0.3980647757282699
  0.3353281808494541  0.6611456988704516  0.4090183317123726
  0.3408491599212428  0.9122043346010807  0.4031924120601045
  0.5115887984149159  0.1612108140281290  0.4069266773904685
  0.5107461067673739  0.4107518386708646  0.4076525198375796
  0.5117141717661462  0.6604696145094949  0.4069327729132975
  0.5129937027415326  0.9114957467353135  0.4060292687662898
  0.6844459871115345  0.1649996437871230  0.4059159911666251
  0.7750045777439819  0.9126205617418433  0.5019772003305415
  0.7669576188489766  0.7857282594241304  0.5014175644071901
  0.7745268685890652  0.6589997593395424  0.5009680930784390
  0.7664595708428605  0.5327722180638782  0.5013075689425658
  0.7730967792307402  0.4062419438955044  0.5015905362088581
  0.7728755265649930  0.2863676520987520  0.5027131882215743
  0.7734937341055566  0.1662713776453631  0.5023371199403462
  0.7669962055358188  0.0392639538321801  0.5022191175812328
  0.6837577731703323  0.4072673130064079  0.4057270132439381
  0.6834383256950602  0.6598949852089332  0.4025319502944980
  0.6841873136808332  0.9119995367421135  0.4026259319168193
  0.2469457368997326  0.4920686992532923  0.5978612171466289
  0.2030513334160685  0.4871765737514030  0.5998768245862893
  0.1944037191213940  0.4653757675547169  0.6491028437352800
  0.1909781420265962  0.5258720162620130  0.6033966220694067
  0.2588805857591402  0.4576200815189540  0.5986850354020301
  0.1917588253643459  0.4686269119257579  0.5494821052988698
 
  0.00000000E+00  0.00000000E+00  0.00000000E+00
  0.00000000E+00  0.00000000E+00  0.00000000E+00
  0.00000000E+00  0.00000000E+00  0.00000000E+00
  0.00000000E+00  0.00000000E+00  0.00000000E+00
  0.00000000E+00  0.00000000E+00  0.00000000E+00
  0.00000000E+00  0.00000000E+00  0.00000000E+00
  0.00000000E+00  0.00000000E+00  0.00000000E+00
  0.00000000E+00  0.00000000E+00  0.00000000E+00
  0.00000000E+00  0.00000000E+00  0.00000000E+00
  0.00000000E+00  0.00000000E+00  0.00000000E+00
  0.00000000E+00  0.00000000E+00  0.00000000E+00
  0.00000000E+00  0.00000000E+00  0.00000000E+00
  0.00000000E+00  0.00000000E+00  0.00000000E+00
  0.00000000E+00  0.00000000E+00  0.00000000E+00
  0.00000000E+00  0.00000000E+00  0.00000000E+00
  0.00000000E+00  0.00000000E+00  0.00000000E+00
  0.00000000E+00  0.00000000E+00  0.00000000E+00
  0.00000000E+00  0.00000000E+00  0.00000000E+00
  0.00000000E+00  0.00000000E+00  0.00000000E+00
  0.00000000E+00  0.00000000E+00  0.00000000E+00
  0.00000000E+00  0.00000000E+00  0.00000000E+00
  0.00000000E+00  0.00000000E+00  0.00000000E+00
  0.00000000E+00  0.00000000E+00  0.00000000E+00
  0.00000000E+00  0.00000000E+00  0.00000000E+00
  0.00000000E+00  0.00000000E+00  0.00000000E+00
  0.00000000E+00  0.00000000E+00  0.00000000E+00
  0.00000000E+00  0.00000000E+00  0.00000000E+00
  0.00000000E+00  0.00000000E+00  0.00000000E+00
  0.00000000E+00  0.00000000E+00  0.00000000E+00
  0.00000000E+00  0.00000000E+00  0.00000000E+00
  0.00000000E+00  0.00000000E+00  0.00000000E+00
  0.00000000E+00  0.00000000E+00  0.00000000E+00
  0.00000000E+00  0.00000000E+00  0.00000000E+00
  0.00000000E+00  0.00000000E+00  0.00000000E+00
  0.00000000E+00  0.00000000E+00  0.00000000E+00
  0.00000000E+00  0.00000000E+00  0.00000000E+00
  0.00000000E+00  0.00000000E+00  0.00000000E+00
  0.00000000E+00  0.00000000E+00  0.00000000E+00
  0.00000000E+00  0.00000000E+00  0.00000000E+00
  0.00000000E+00  0.00000000E+00  0.00000000E+00
  0.00000000E+00  0.00000000E+00  0.00000000E+00
  0.00000000E+00  0.00000000E+00  0.00000000E+00
  0.00000000E+00  0.00000000E+00  0.00000000E+00
  0.00000000E+00  0.00000000E+00  0.00000000E+00
  0.00000000E+00  0.00000000E+00  0.00000000E+00
  0.00000000E+00  0.00000000E+00  0.00000000E+00
  0.00000000E+00  0.00000000E+00  0.00000000E+00
  0.00000000E+00  0.00000000E+00  0.00000000E+00
  0.00000000E+00  0.00000000E+00  0.00000000E+00
  0.00000000E+00  0.00000000E+00  0.00000000E+00
  0.00000000E+00  0.00000000E+00  0.00000000E+00
  0.00000000E+00  0.00000000E+00  0.00000000E+00
  0.00000000E+00  0.00000000E+00  0.00000000E+00
  0.00000000E+00  0.00000000E+00  0.00000000E+00
  0.00000000E+00  0.00000000E+00  0.00000000E+00
  0.00000000E+00  0.00000000E+00  0.00000000E+00
  0.00000000E+00  0.00000000E+00  0.00000000E+00
  0.00000000E+00  0.00000000E+00  0.00000000E+00
  0.00000000E+00  0.00000000E+00  0.00000000E+00
  0.00000000E+00  0.00000000E+00  0.00000000E+00
  0.00000000E+00  0.00000000E+00  0.00000000E+00
  0.00000000E+00  0.00000000E+00  0.00000000E+00
  0.00000000E+00  0.00000000E+00  0.00000000E+00
  0.00000000E+00  0.00000000E+00  0.00000000E+00
  0.00000000E+00  0.00000000E+00  0.00000000E+00
  0.00000000E+00  0.00000000E+00  0.00000000E+00
  0.00000000E+00  0.00000000E+00  0.00000000E+00
  0.00000000E+00  0.00000000E+00  0.00000000E+00
  0.00000000E+00  0.00000000E+00  0.00000000E+00
  0.00000000E+00  0.00000000E+00  0.00000000E+00
  0.00000000E+00  0.00000000E+00  0.00000000E+00
  0.00000000E+00  0.00000000E+00  0.00000000E+00
  0.00000000E+00  0.00000000E+00  0.00000000E+00
  0.00000000E+00  0.00000000E+00  0.00000000E+00
  0.00000000E+00  0.00000000E+00  0.00000000E+00
  0.00000000E+00  0.00000000E+00  0.00000000E+00
  0.00000000E+00  0.00000000E+00  0.00000000E+00
  0.00000000E+00  0.00000000E+00  0.00000000E+00
  0.00000000E+00  0.00000000E+00  0.00000000E+00
  0.00000000E+00  0.00000000E+00  0.00000000E+00
  0.00000000E+00  0.00000000E+00  0.00000000E+00
  0.00000000E+00  0.00000000E+00  0.00000000E+00
  0.00000000E+00  0.00000000E+00  0.00000000E+00
  0.00000000E+00  0.00000000E+00  0.00000000E+00
  0.00000000E+00  0.00000000E+00  0.00000000E+00
  0.00000000E+00  0.00000000E+00  0.00000000E+00
  0.00000000E+00  0.00000000E+00  0.00000000E+00
  0.00000000E+00  0.00000000E+00  0.00000000E+00
  0.00000000E+00  0.00000000E+00  0.00000000E+00
  0.00000000E+00  0.00000000E+00  0.00000000E+00
  0.00000000E+00  0.00000000E+00  0.00000000E+00
  0.00000000E+00  0.00000000E+00  0.00000000E+00
  0.00000000E+00  0.00000000E+00  0.00000000E+00
  0.00000000E+00  0.00000000E+00  0.00000000E+00
  0.00000000E+00  0.00000000E+00  0.00000000E+00
  0.00000000E+00  0.00000000E+00  0.00000000E+00
  0.00000000E+00  0.00000000E+00  0.00000000E+00
  0.00000000E+00  0.00000000E+00  0.00000000E+00
  0.00000000E+00  0.00000000E+00  0.00000000E+00
  0.00000000E+00  0.00000000E+00  0.00000000E+00
  0.00000000E+00  0.00000000E+00  0.00000000E+00
  0.00000000E+00  0.00000000E+00  0.00000000E+00
  0.00000000E+00  0.00000000E+00  0.00000000E+00
  0.00000000E+00  0.00000000E+00  0.00000000E+00
  0.00000000E+00  0.00000000E+00  0.00000000E+00
  0.00000000E+00  0.00000000E+00  0.00000000E+00
  0.00000000E+00  0.00000000E+00  0.00000000E+00
  0.00000000E+00  0.00000000E+00  0.00000000E+00
  0.00000000E+00  0.00000000E+00  0.00000000E+00
  0.00000000E+00  0.00000000E+00  0.00000000E+00
  0.00000000E+00  0.00000000E+00  0.00000000E+00
  0.00000000E+00  0.00000000E+00  0.00000000E+00
  0.00000000E+00  0.00000000E+00  0.00000000E+00
  0.00000000E+00  0.00000000E+00  0.00000000E+00
  0.00000000E+00  0.00000000E+00  0.00000000E+00
  0.00000000E+00  0.00000000E+00  0.00000000E+00
  0.00000000E+00  0.00000000E+00  0.00000000E+00
  0.00000000E+00  0.00000000E+00  0.00000000E+00
  0.00000000E+00  0.00000000E+00  0.00000000E+00
  0.00000000E+00  0.00000000E+00  0.00000000E+00
  0.00000000E+00  0.00000000E+00  0.00000000E+00
  0.00000000E+00  0.00000000E+00  0.00000000E+00
  0.00000000E+00  0.00000000E+00  0.00000000E+00
  0.00000000E+00  0.00000000E+00  0.00000000E+00
  0.00000000E+00  0.00000000E+00  0.00000000E+00
  0.00000000E+00  0.00000000E+00  0.00000000E+00
  0.00000000E+00  0.00000000E+00  0.00000000E+00
  0.00000000E+00  0.00000000E+00  0.00000000E+00
  0.00000000E+00  0.00000000E+00  0.00000000E+00
  0.00000000E+00  0.00000000E+00  0.00000000E+00
  0.00000000E+00  0.00000000E+00  0.00000000E+00
  0.00000000E+00  0.00000000E+00  0.00000000E+00
  0.00000000E+00  0.00000000E+00  0.00000000E+00
  0.00000000E+00  0.00000000E+00  0.00000000E+00
  0.00000000E+00  0.00000000E+00  0.00000000E+00
  0.00000000E+00  0.00000000E+00  0.00000000E+00
  0.00000000E+00  0.00000000E+00  0.00000000E+00
  0.00000000E+00  0.00000000E+00  0.00000000E+00
  0.00000000E+00  0.00000000E+00  0.00000000E+00
  0.00000000E+00  0.00000000E+00  0.00000000E+00
  0.00000000E+00  0.00000000E+00  0.00000000E+00
  0.00000000E+00  0.00000000E+00  0.00000000E+00
  0.00000000E+00  0.00000000E+00  0.00000000E+00
  0.00000000E+00  0.00000000E+00  0.00000000E+00
  0.00000000E+00  0.00000000E+00  0.00000000E+00
  0.00000000E+00  0.00000000E+00  0.00000000E+00
  0.00000000E+00  0.00000000E+00  0.00000000E+00
  0.00000000E+00  0.00000000E+00  0.00000000E+00
  0.00000000E+00  0.00000000E+00  0.00000000E+00
  0.00000000E+00  0.00000000E+00  0.00000000E+00
  0.00000000E+00  0.00000000E+00  0.00000000E+00
  0.00000000E+00  0.00000000E+00  0.00000000E+00
  0.00000000E+00  0.00000000E+00  0.00000000E+00
