W48 S98                                 
   1.00000000000000     
    33.0000000000000000    0.0000000000000000    0.0000000000000000
     0.0000000000000000   25.2255992888999998    0.0000000000000000
     0.0000000000000000    0.0000000000000000   17.4930000304999993
   W    S    O    C 
    48    98     1     1
Direct
  0.2886909313696378  0.0404426072041671  0.5035724984139628
  0.2924406454135805  0.2827109287719501  0.5094069496261027
  0.2945607053852774  0.5363365795816106  0.5080500163668283
  0.2923620698963190  0.7826743017666884  0.5030503792337504
  0.4558070830498651  0.0355535952717235  0.5022009639129067
  0.4558588690141422  0.2856038419752621  0.5011184513918170
  0.4561190828035181  0.5355035603256717  0.5032043074763984
  0.4565527590869587  0.7854597805692789  0.5022206551889606
  0.6224449767904363  0.0358771421741042  0.4993149892158391
  0.6224568142610761  0.2854012171295318  0.4991550255284298
  0.6225576395898319  0.5349102301599802  0.4998148360749645
  0.6228536353532000  0.7854790924626969  0.4996671079074738
  0.2922319143319477  0.1635308613376031  0.5051963747598726
  0.2921151884805344  0.4153650453666350  0.4969222229570759
  0.2941765413326185  0.6607101424560697  0.5084772551507521
  0.2890925647075697  0.9052927581808736  0.5015376239609597
  0.4560305260878563  0.1605013071109869  0.5011676585116730
  0.4558614621931725  0.4102797295940818  0.5019400346478232
  0.4565452768233617  0.6601669080960374  0.5031498147553511
  0.4560010143486589  0.9103203747156311  0.5024128727247660
  0.6223599077758513  0.1602958502582799  0.4991156102930582
  0.6224286800933582  0.4104851353804986  0.4994681607398273
  0.6228316836408705  0.6601214365506157  0.4998653679311178
  0.6227135096209890  0.9107575011147242  0.4994977618732798
  0.3730047199287584  0.2233172477357070  0.5023148951168556
  0.3722073753515397  0.4730581931642263  0.5030743452478995
  0.3733315022821209  0.7219413702732452  0.5031632318450067
  0.3716436071721229  0.9727050832984341  0.5042167581970671
  0.5395053405374531  0.2229197226794452  0.5000081579126064
  0.5390627689767812  0.4727058550047517  0.5010161203252063
  0.5398717673650100  0.7228788029333318  0.5011525426775478
  0.5395779319988460  0.9731479641425075  0.5007330150582370
  0.7074750515223167  0.2160862185630084  0.4981220993845440
  0.7070199367869577  0.4723561616008936  0.4983935531295594
  0.7074142694275327  0.7290038058861499  0.4984260671167072
  0.7078155105953251  0.9796745773607048  0.4982398704112574
  0.3732496794162918  0.0983792967962287  0.5039791283258677
  0.3720035018453270  0.3486805035965320  0.5038087391475455
  0.3733441771789304  0.5980211477213392  0.5073186923695979
  0.3735556849622986  0.8472471368850548  0.5036464066876790
  0.5389832659577636  0.0979988359955933  0.5003171869849891
  0.5394923561607893  0.3479939320361713  0.5003485986908494
  0.5398769934824205  0.5976391887903705  0.5014667584526987
  0.5396805515233954  0.8480580183671460  0.5008947760418101
  0.7069363426421579  0.0984557979848563  0.4981805619343287
  0.7075201215195704  0.3546458085747236  0.4982109546910859
  0.7078987562400876  0.5911929798510626  0.4984830345130971
  0.7073841648302324  0.8419672304377589  0.4983250630043233
  0.2640602187333252  0.1020291473054803  0.5942050776770040
  0.2563613567527518  0.3485573537467311  0.5712788430402448
  0.2537170501659593  0.5985361643786435  0.5685097005004136
  0.2632676218135550  0.8426388743488370  0.5911522883218229
  0.4288403107700558  0.0982240296389133  0.5930401453620421
  0.4281166578234294  0.3477841412602237  0.5923931189123117
  0.4295896479243984  0.5978911619952955  0.5952345717535332
  0.4289586498473003  0.8478191427687011  0.5933986634165997
  0.5947108985708379  0.0980978743168881  0.5896750351585662
  0.5954089781462689  0.3476878922788185  0.5899753731454878
  0.5959114241549901  0.5977308011986570  0.5907288170414905
  0.5956331284049355  0.8483295672399952  0.5901311629748082
  0.4288132683512947  0.2230507909051794  0.5917303560453381
  0.4283303356693215  0.4723932258777303  0.5927933721052421
  0.4292092891318366  0.7230885588612548  0.5929958950078028
  0.4280438324621311  0.9729217172879733  0.5927123017804388
  0.5953489144887284  0.2230148716061502  0.5897440519856167
  0.5948875248927963  0.4726095061977340  0.5901983852041116
  0.5958022473913618  0.7227344409762387  0.5903679814007718
  0.5956037239319973  0.9731298976363963  0.5901184518363516
  0.3435002409380227  0.0357197392584310  0.5937450739031386
  0.3453995349536084  0.2840228302887242  0.5967573808712050
  0.3452447804295631  0.5337388912550861  0.5998957048235529
  0.3461948167165771  0.7836774508711132  0.5942909737740852
  0.5118202904507956  0.0354759023780297  0.5912973029816270
  0.5118184576969014  0.2854061713300409  0.5904545306612086
  0.5121879515810392  0.5352037716481083  0.5921202617562756
  0.5124319647017260  0.7855339024241726  0.5916321353488959
  0.6788124063276076  0.0369185014701769  0.5910336121940644
  0.6803582571347656  0.2853478646665722  0.5852748809587268
  0.6789953692573414  0.5338912907523754  0.5913784147378869
  0.6784062432930753  0.7855232968547960  0.5927368349088821
  0.3463604860673213  0.1624252955470706  0.5952347884625141
  0.3433143374145778  0.4114859653369869  0.5947603482276950
  0.3455481770865039  0.6618347755879006  0.5990605507575091
  0.3431729949603935  0.9095198731689452  0.5931802818975066
  0.5117945498300376  0.1607001862313474  0.5907353576722996
  0.5117272576820520  0.4099820259317209  0.5913543787325282
  0.5126202721028954  0.6603640003912254  0.5920084772347272
  0.5120905858612476  0.9106624340356300  0.5913894987578501
  0.6785832849317370  0.1594070277856761  0.5912385494271927
  0.6787246149419777  0.4113237443987650  0.5914460786337111
  0.6807570614249344  0.6598884867730871  0.5859531555715167
  0.6806146649936328  0.9110565203572196  0.5857035000058074
  0.2622549644395944  0.0993975124765785  0.4163573838032512
  0.2634462702655790  0.8460655763508155  0.4129088726267370
  0.4276749986662451  0.0977372194603488  0.4118281527682274
  0.4271875170301750  0.3480810637082985  0.4121185716003099
  0.4277062848909977  0.5979268049052558  0.4140666224112232
  0.4282804561643985  0.8478132716084907  0.4121319842974778
  0.5940339966609571  0.0979452127835192  0.4094669031761469
  0.5947587647413919  0.3479023211640893  0.4093165396038373
  0.5949518756386297  0.5977726352249080  0.4100443578623083
  0.5948362811836980  0.8482082335630431  0.4098760006645546
  0.2429093741915235  0.2245449028265412  0.4713260630534972
  0.2451522436094634  0.4817374247643516  0.4611472324179169
  0.2453741737677159  0.7189964851226540  0.4658194934517524
  0.2411920452601277  0.9722081539326582  0.5009948870113086
  0.4278955034011159  0.2232072504840059  0.4107706204478295
  0.4278304162897009  0.4734416964281912  0.4126575395550561
  0.4285744142220677  0.7223612343947344  0.4124683553444004
  0.4271196086924012  0.9728304413461160  0.4132531601848704
  0.5947818312916819  0.2230417924363200  0.4090712814205665
  0.5940530232913568  0.4728595567353062  0.4100068371559339
  0.5949547012133515  0.7225951365800731  0.4100714044899144
  0.5948097406749326  0.9730009466584384  0.4095407673728153
  0.3434904728439975  0.0352562297020729  0.4147658346049869
  0.3412649141452147  0.2864541473135773  0.4137444915537825
  0.3436926882278098  0.5380580591431425  0.4134940429132506
  0.3453780511418298  0.7844555762712708  0.4124730786637714
  0.5108563691379293  0.0352185244665409  0.4108527910094662
  0.5112029290115248  0.2855959841705460  0.4104474970731717
  0.5110696172132896  0.5355543142895272  0.4117259087782281
  0.5116737871698481  0.7853382309042553  0.4111672755036959
  0.6781298405039555  0.0368506896579399  0.4061437874759141
  0.6797673799547136  0.2854233630565192  0.4116803528257506
  0.6781514128426568  0.5339764583476067  0.4064752142534752
  0.6775900915505815  0.7854308047534783  0.4049100203782562
  0.3444182541451569  0.1606979174879502  0.4126735693569230
  0.3453823452171763  0.4113370479832115  0.4095695587246222
  0.3434394816421893  0.6583075803269166  0.4137537117416831
  0.3442139632048004  0.9102866702597252  0.4138391503627278
  0.5111197323181237  0.1605218044090935  0.4101509502785958
  0.5109480770110565  0.4104159216404985  0.4107910638737503
  0.5115366702392937  0.6601522391209955  0.4118530637197108
  0.5111665738050531  0.9105605087819331  0.4112949093188548
  0.6779871525583311  0.1593654221822943  0.4057317225170907
  0.6780024106627535  0.4114710458861620  0.4059632634438619
  0.6799542572700826  0.6598576341525699  0.4118916467715604
  0.6799076733615176  0.9109963258767600  0.4116358153317660
  0.7584755516594137  0.9115395928697803  0.4976265545074141
  0.7640461283828966  0.7854706358065663  0.4974701169428721
  0.7585042940124902  0.6593385493630897  0.4977048174799429
  0.7630191075813271  0.5333448458121567  0.4975590140419841
  0.7630811828026011  0.4111175044919487  0.4975731782482548
  0.7580247938236979  0.2853858051388246  0.4975416857057733
  0.7630347224424164  0.1596754632097948  0.4975856180030399
  0.7629533792888658  0.0374766342166274  0.4975250454199471
  0.2398062913335458  0.3564000765134542  0.3685982674742363
  0.2582237733949633  0.3768054963552075  0.4169628207342986
 
  0.00000000E+00  0.00000000E+00  0.00000000E+00
  0.00000000E+00  0.00000000E+00  0.00000000E+00
  0.00000000E+00  0.00000000E+00  0.00000000E+00
  0.00000000E+00  0.00000000E+00  0.00000000E+00
  0.00000000E+00  0.00000000E+00  0.00000000E+00
  0.00000000E+00  0.00000000E+00  0.00000000E+00
  0.00000000E+00  0.00000000E+00  0.00000000E+00
  0.00000000E+00  0.00000000E+00  0.00000000E+00
  0.00000000E+00  0.00000000E+00  0.00000000E+00
  0.00000000E+00  0.00000000E+00  0.00000000E+00
  0.00000000E+00  0.00000000E+00  0.00000000E+00
  0.00000000E+00  0.00000000E+00  0.00000000E+00
  0.00000000E+00  0.00000000E+00  0.00000000E+00
  0.00000000E+00  0.00000000E+00  0.00000000E+00
  0.00000000E+00  0.00000000E+00  0.00000000E+00
  0.00000000E+00  0.00000000E+00  0.00000000E+00
  0.00000000E+00  0.00000000E+00  0.00000000E+00
  0.00000000E+00  0.00000000E+00  0.00000000E+00
  0.00000000E+00  0.00000000E+00  0.00000000E+00
  0.00000000E+00  0.00000000E+00  0.00000000E+00
  0.00000000E+00  0.00000000E+00  0.00000000E+00
  0.00000000E+00  0.00000000E+00  0.00000000E+00
  0.00000000E+00  0.00000000E+00  0.00000000E+00
  0.00000000E+00  0.00000000E+00  0.00000000E+00
  0.00000000E+00  0.00000000E+00  0.00000000E+00
  0.00000000E+00  0.00000000E+00  0.00000000E+00
  0.00000000E+00  0.00000000E+00  0.00000000E+00
  0.00000000E+00  0.00000000E+00  0.00000000E+00
  0.00000000E+00  0.00000000E+00  0.00000000E+00
  0.00000000E+00  0.00000000E+00  0.00000000E+00
  0.00000000E+00  0.00000000E+00  0.00000000E+00
  0.00000000E+00  0.00000000E+00  0.00000000E+00
  0.00000000E+00  0.00000000E+00  0.00000000E+00
  0.00000000E+00  0.00000000E+00  0.00000000E+00
  0.00000000E+00  0.00000000E+00  0.00000000E+00
  0.00000000E+00  0.00000000E+00  0.00000000E+00
  0.00000000E+00  0.00000000E+00  0.00000000E+00
  0.00000000E+00  0.00000000E+00  0.00000000E+00
  0.00000000E+00  0.00000000E+00  0.00000000E+00
  0.00000000E+00  0.00000000E+00  0.00000000E+00
  0.00000000E+00  0.00000000E+00  0.00000000E+00
  0.00000000E+00  0.00000000E+00  0.00000000E+00
  0.00000000E+00  0.00000000E+00  0.00000000E+00
  0.00000000E+00  0.00000000E+00  0.00000000E+00
  0.00000000E+00  0.00000000E+00  0.00000000E+00
  0.00000000E+00  0.00000000E+00  0.00000000E+00
  0.00000000E+00  0.00000000E+00  0.00000000E+00
  0.00000000E+00  0.00000000E+00  0.00000000E+00
  0.00000000E+00  0.00000000E+00  0.00000000E+00
  0.00000000E+00  0.00000000E+00  0.00000000E+00
  0.00000000E+00  0.00000000E+00  0.00000000E+00
  0.00000000E+00  0.00000000E+00  0.00000000E+00
  0.00000000E+00  0.00000000E+00  0.00000000E+00
  0.00000000E+00  0.00000000E+00  0.00000000E+00
  0.00000000E+00  0.00000000E+00  0.00000000E+00
  0.00000000E+00  0.00000000E+00  0.00000000E+00
  0.00000000E+00  0.00000000E+00  0.00000000E+00
  0.00000000E+00  0.00000000E+00  0.00000000E+00
  0.00000000E+00  0.00000000E+00  0.00000000E+00
  0.00000000E+00  0.00000000E+00  0.00000000E+00
  0.00000000E+00  0.00000000E+00  0.00000000E+00
  0.00000000E+00  0.00000000E+00  0.00000000E+00
  0.00000000E+00  0.00000000E+00  0.00000000E+00
  0.00000000E+00  0.00000000E+00  0.00000000E+00
  0.00000000E+00  0.00000000E+00  0.00000000E+00
  0.00000000E+00  0.00000000E+00  0.00000000E+00
  0.00000000E+00  0.00000000E+00  0.00000000E+00
  0.00000000E+00  0.00000000E+00  0.00000000E+00
  0.00000000E+00  0.00000000E+00  0.00000000E+00
  0.00000000E+00  0.00000000E+00  0.00000000E+00
  0.00000000E+00  0.00000000E+00  0.00000000E+00
  0.00000000E+00  0.00000000E+00  0.00000000E+00
  0.00000000E+00  0.00000000E+00  0.00000000E+00
  0.00000000E+00  0.00000000E+00  0.00000000E+00
  0.00000000E+00  0.00000000E+00  0.00000000E+00
  0.00000000E+00  0.00000000E+00  0.00000000E+00
  0.00000000E+00  0.00000000E+00  0.00000000E+00
  0.00000000E+00  0.00000000E+00  0.00000000E+00
  0.00000000E+00  0.00000000E+00  0.00000000E+00
  0.00000000E+00  0.00000000E+00  0.00000000E+00
  0.00000000E+00  0.00000000E+00  0.00000000E+00
  0.00000000E+00  0.00000000E+00  0.00000000E+00
  0.00000000E+00  0.00000000E+00  0.00000000E+00
  0.00000000E+00  0.00000000E+00  0.00000000E+00
  0.00000000E+00  0.00000000E+00  0.00000000E+00
  0.00000000E+00  0.00000000E+00  0.00000000E+00
  0.00000000E+00  0.00000000E+00  0.00000000E+00
  0.00000000E+00  0.00000000E+00  0.00000000E+00
  0.00000000E+00  0.00000000E+00  0.00000000E+00
  0.00000000E+00  0.00000000E+00  0.00000000E+00
  0.00000000E+00  0.00000000E+00  0.00000000E+00
  0.00000000E+00  0.00000000E+00  0.00000000E+00
  0.00000000E+00  0.00000000E+00  0.00000000E+00
  0.00000000E+00  0.00000000E+00  0.00000000E+00
  0.00000000E+00  0.00000000E+00  0.00000000E+00
  0.00000000E+00  0.00000000E+00  0.00000000E+00
  0.00000000E+00  0.00000000E+00  0.00000000E+00
  0.00000000E+00  0.00000000E+00  0.00000000E+00
  0.00000000E+00  0.00000000E+00  0.00000000E+00
  0.00000000E+00  0.00000000E+00  0.00000000E+00
  0.00000000E+00  0.00000000E+00  0.00000000E+00
  0.00000000E+00  0.00000000E+00  0.00000000E+00
  0.00000000E+00  0.00000000E+00  0.00000000E+00
  0.00000000E+00  0.00000000E+00  0.00000000E+00
  0.00000000E+00  0.00000000E+00  0.00000000E+00
  0.00000000E+00  0.00000000E+00  0.00000000E+00
  0.00000000E+00  0.00000000E+00  0.00000000E+00
  0.00000000E+00  0.00000000E+00  0.00000000E+00
  0.00000000E+00  0.00000000E+00  0.00000000E+00
  0.00000000E+00  0.00000000E+00  0.00000000E+00
  0.00000000E+00  0.00000000E+00  0.00000000E+00
  0.00000000E+00  0.00000000E+00  0.00000000E+00
  0.00000000E+00  0.00000000E+00  0.00000000E+00
  0.00000000E+00  0.00000000E+00  0.00000000E+00
  0.00000000E+00  0.00000000E+00  0.00000000E+00
  0.00000000E+00  0.00000000E+00  0.00000000E+00
  0.00000000E+00  0.00000000E+00  0.00000000E+00
  0.00000000E+00  0.00000000E+00  0.00000000E+00
  0.00000000E+00  0.00000000E+00  0.00000000E+00
  0.00000000E+00  0.00000000E+00  0.00000000E+00
  0.00000000E+00  0.00000000E+00  0.00000000E+00
  0.00000000E+00  0.00000000E+00  0.00000000E+00
  0.00000000E+00  0.00000000E+00  0.00000000E+00
  0.00000000E+00  0.00000000E+00  0.00000000E+00
  0.00000000E+00  0.00000000E+00  0.00000000E+00
  0.00000000E+00  0.00000000E+00  0.00000000E+00
  0.00000000E+00  0.00000000E+00  0.00000000E+00
  0.00000000E+00  0.00000000E+00  0.00000000E+00
  0.00000000E+00  0.00000000E+00  0.00000000E+00
  0.00000000E+00  0.00000000E+00  0.00000000E+00
  0.00000000E+00  0.00000000E+00  0.00000000E+00
  0.00000000E+00  0.00000000E+00  0.00000000E+00
  0.00000000E+00  0.00000000E+00  0.00000000E+00
  0.00000000E+00  0.00000000E+00  0.00000000E+00
  0.00000000E+00  0.00000000E+00  0.00000000E+00
  0.00000000E+00  0.00000000E+00  0.00000000E+00
  0.00000000E+00  0.00000000E+00  0.00000000E+00
  0.00000000E+00  0.00000000E+00  0.00000000E+00
  0.00000000E+00  0.00000000E+00  0.00000000E+00
  0.00000000E+00  0.00000000E+00  0.00000000E+00
  0.00000000E+00  0.00000000E+00  0.00000000E+00
  0.00000000E+00  0.00000000E+00  0.00000000E+00
  0.00000000E+00  0.00000000E+00  0.00000000E+00
  0.00000000E+00  0.00000000E+00  0.00000000E+00
  0.00000000E+00  0.00000000E+00  0.00000000E+00
  0.00000000E+00  0.00000000E+00  0.00000000E+00
  0.00000000E+00  0.00000000E+00  0.00000000E+00
  0.00000000E+00  0.00000000E+00  0.00000000E+00
