W48 Se98                                
   1.00000000000000     
    33.0000000000000000    0.0000000000000000    0.0000000000000000
     0.0000000000000000   26.2560005188000005    0.0000000000000000
     0.0000000000000000    0.0000000000000000   18.1299991608000006
   W    Se   O    C 
    48    98     1     1
Direct
  0.2792969558946136  0.0418447392356494  0.5088777476377319
  0.2855702070168131  0.2750250365293401  0.5086298126193551
  0.2862952546900243  0.5323700387650876  0.4977718966407164
  0.2873611406243539  0.7761982005998690  0.5049896290612085
  0.4543097887698823  0.0355388164743837  0.5029196472978794
  0.4543752022750721  0.2854636322367334  0.5005564898855779
  0.4539700172218065  0.5357618828396141  0.5008743845063183
  0.4550959652302292  0.7857460638498861  0.5027154793429576
  0.6274988333639798  0.0355179448125496  0.5002543102035631
  0.6270651811390250  0.2855458184706044  0.4991746030173750
  0.6270235240671934  0.5354319564313569  0.5001734293945956
  0.6274351149290429  0.7854692543125479  0.5002842272530509
  0.2868859682042123  0.1682617584090132  0.5079425106321956
  0.2852883517286595  0.4180461936492855  0.4895767587486839
  0.2879787178880481  0.6705901023646271  0.5039709893030617
  0.2795277018419914  0.9030549920304396  0.5069191916200786
  0.4546404246885463  0.1603891690261035  0.5016667025342766
  0.4541148760845318  0.4103900577284661  0.4997982921605833
  0.4547625485931301  0.6605432004643668  0.5020273667206627
  0.4545841119148469  0.9102869477898829  0.5031266109917323
  0.6275556912850947  0.1600899493066387  0.4992875432959729
  0.6272951912947274  0.4109402015076305  0.4989619717191082
  0.6276173991341201  0.6599573717389922  0.4997698509824535
  0.6277865080342359  0.9109353087904722  0.5000934801191526
  0.3687966772942739  0.2233450413679273  0.5029137736629594
  0.3673089475509034  0.4730922377033853  0.4982561989902617
  0.3692814398420343  0.7222251926670934  0.5031719613576381
  0.3675561236118854  0.9726955465399409  0.5055081983066450
  0.5415840784852514  0.2227722003902984  0.5001237371196701
  0.5402552606646446  0.4730618202099200  0.5000039212056021
  0.5418329643302213  0.7227644340839228  0.5012611542401153
  0.5407639459633335  0.9731232500887451  0.5013161245561852
  0.7151932444840633  0.2142574344586505  0.4980726883058748
  0.7137538600941500  0.4758320737639530  0.4990714461405460
  0.7152957937997585  0.7138633773102183  0.4987738787419254
  0.7143331755144899  0.9764061908006244  0.4993963674533111
  0.3690325478191907  0.0988212336598770  0.5051837531708809
  0.3666919456441570  0.3482565093606471  0.5002030713022577
  0.3674850386884869  0.5985045234166878  0.5023686417451000
  0.3692574950934726  0.8468401235606678  0.5046957962762667
  0.5406835889912222  0.0978020866886511  0.5007435050475130
  0.5413247655334580  0.3483379184747719  0.4997958869040032
  0.5406193776239615  0.5978296821033665  0.5007486447913264
  0.5419037190699646  0.8483378645351912  0.5015049825771327
  0.7142452405247159  0.0946865379353060  0.4991171269040472
  0.7149939513000587  0.3570592500779269  0.4977097625946361
  0.7138949583828942  0.5949606851081677  0.4994329834582159
  0.7154493375483230  0.8567708566476548  0.4990893076636327
  0.2543154790903573  0.1037874849880801  0.6000173184842887
  0.2443113754929075  0.3479585959095027  0.5539676774052070
  0.2434980892474990  0.5988498656546609  0.5489056438755768
  0.2534975778319346  0.8403699247905499  0.5959533299985857
  0.4267275935506845  0.0982571804346670  0.5970284404866888
  0.4247179717266873  0.3483355790223215  0.5928477965610550
  0.4253657850571450  0.5977779127275351  0.5949667706379269
  0.4267205190752382  0.8478869922192865  0.5973448244223337
  0.5985314404625495  0.0981043726665096  0.5929749574958920
  0.5992474972863950  0.3481243908710881  0.5927347530015198
  0.5983470153524217  0.5978415184058792  0.5932102197573338
  0.5999578509194614  0.8480876360549516  0.5941161047237808
  0.4267714542438943  0.2234468864618511  0.5951357046500060
  0.4246099028452254  0.4725261446997215  0.5927696799714005
  0.4269940225250046  0.7227725857972199  0.5962157125962110
  0.4258807055186931  0.9728892907944406  0.5968321585429459
  0.5995179690756082  0.2229989800690139  0.5929582964238721
  0.5980105876377658  0.4728101731654256  0.5926174939996810
  0.5998500862786992  0.7227581879107668  0.5938560766224777
  0.5986776866701672  0.9731345463549025  0.5934183558339861
  0.3381510170397500  0.0356121956853081  0.5979704777563383
  0.3390192919240662  0.2850336982573747  0.5996651397202717
  0.3373695231716635  0.5337059886875255  0.5962429942085936
  0.3413070950545765  0.7836321136030140  0.6000478613973298
  0.5123756849827913  0.0355824821568919  0.5949619114770800
  0.5125540179230722  0.2857209953072583  0.5928361124767585
  0.5116569397194799  0.5352520717063618  0.5938651457187660
  0.5133418282053352  0.7855140185401104  0.5946574700273016
  0.6856826036539881  0.0356333034477692  0.5963456320328152
  0.6878745305869621  0.2856260100339458  0.5868494899835516
  0.6849869233643019  0.5352929072204623  0.5962759850992383
  0.6881894242574254  0.7853495293977102  0.5879516604593217
  0.3417144302014357  0.1621539145591624  0.6011211572653672
  0.3364160455069948  0.4113925853952538  0.5928383650778148
  0.3384146846936131  0.6608067028784416  0.6003609507980969
  0.3377321772212997  0.9096333570803906  0.5973266615465053
  0.5126697460447104  0.1608001198213782  0.5939486929860283
  0.5117382294218915  0.4102901667528713  0.5930310554169410
  0.5126861994390409  0.6604268720963367  0.5945046214354820
  0.5128060693215442  0.9104670874733364  0.5950661528364484
  0.6859535378779756  0.1582814273864634  0.5948105606020501
  0.6856742899280001  0.4127239247681889  0.5946142264872184
  0.6859879036740941  0.6579358458509941  0.5953787156706873
  0.6862131266853168  0.9129827475906926  0.5955466554428426
  0.2519515733591459  0.1030541717484956  0.4194096151590935
  0.2532483028003177  0.8420841622165545  0.4157376093734942
  0.4249952446540260  0.0975139829652844  0.4094722483378795
  0.4249273086984122  0.3473049682571954  0.4073728760412478
  0.4251304276155923  0.5988110252834549  0.4086820765372887
  0.4256258394285183  0.8481870558322999  0.4097092888115408
  0.5979200788803318  0.0976031047087707  0.4071658405586201
  0.5987076836061911  0.3480626350785267  0.4059529792646127
  0.5979200916115205  0.5978908459667190  0.4072337822000816
  0.5990786461849678  0.8481091370025322  0.4072054533832620
  0.2259430866271682  0.2206193074286117  0.5003248230486297
  0.2329633653215506  0.4800670519181282  0.4469864893862698
  0.2267521989737726  0.7232773992640564  0.4957340086749583
  0.2295659881751908  0.9723137918564200  0.5075723792858187
  0.4254452887775855  0.2227289732553183  0.4078764049491817
  0.4257987344901029  0.4735324424560900  0.4067469844346798
  0.4263217243344739  0.7233063909733566  0.4090702590642343
  0.4243624234080365  0.9727978036072221  0.4109274846963284
  0.5988864008300204  0.2228156177761344  0.4060791679652465
  0.5977322818475405  0.4733368806993691  0.4067832239449598
  0.5990242121949195  0.7230148533133706  0.4070585229176195
  0.5979805985170684  0.9730918925434164  0.4076547764770079
  0.3360205637443631  0.0353342117576599  0.4152429194443729
  0.3343832049913519  0.2845531153207254  0.4082658665030074
  0.3383222699714679  0.5385220982875667  0.4034978960709273
  0.3401419912024913  0.7849352452013342  0.4089893506913840
  0.5111813066271471  0.0352029867553352  0.4083598994157371
  0.5121092545141962  0.2853660529952683  0.4075452039225521
  0.5113714683336266  0.5358339426180480  0.4073302071580132
  0.5124871490920548  0.7857331821978853  0.4090695322625990
  0.6856549188148037  0.0354146665863945  0.4034995376403001
  0.6871797363223807  0.2855605587752477  0.4099088878716011
  0.6854158903401242  0.5355655344260327  0.4039919345606237
  0.6875482035421295  0.7854242641892581  0.4110120069931512
  0.3391203067032713  0.1605024426502686  0.4100505756541534
  0.3412388245603578  0.4107132696720354  0.4010265853565673
  0.3376865730366638  0.6610671757626090  0.4063399969586604
  0.3365799322358526  0.9102881035300160  0.4142622036739071
  0.5118155559420651  0.1603546314988956  0.4076485491418457
  0.5117573283573195  0.4103768671415071  0.4066743119215814
  0.5120755532775229  0.6608239814254210  0.4081865064391978
  0.5117186258573240  0.9103944307022684  0.4088320520924602
  0.6850635124428526  0.1580036775789364  0.4023810266714530
  0.6846195113800955  0.4129519327291468  0.4017875771498549
  0.6849012274598275  0.6581702691113964  0.4025326992425949
  0.6852364038896883  0.9128064781826857  0.4030757796818551
  0.7740071816439213  0.9133650389255744  0.4924178851881304
  0.7683244322871683  0.7853954038561212  0.5012122900087315
  0.7737984589942286  0.6573939248469226  0.4888344211106518
  0.7726961817613474  0.5352854725873217  0.5134175664077762
  0.7735819938114052  0.4133967683892851  0.4880179248130390
  0.7680396725622325  0.2855771509745719  0.4992801324530593
  0.7738519509783560  0.1577727342013838  0.4921996729923689
  0.7735133612353553  0.0355952755884140  0.5076774167907185
  0.2397605928077279  0.3596914337921396  0.3599456707282533
  0.2552067082952079  0.3806305462793718  0.4090382173643130
 
  0.00000000E+00  0.00000000E+00  0.00000000E+00
  0.00000000E+00  0.00000000E+00  0.00000000E+00
  0.00000000E+00  0.00000000E+00  0.00000000E+00
  0.00000000E+00  0.00000000E+00  0.00000000E+00
  0.00000000E+00  0.00000000E+00  0.00000000E+00
  0.00000000E+00  0.00000000E+00  0.00000000E+00
  0.00000000E+00  0.00000000E+00  0.00000000E+00
  0.00000000E+00  0.00000000E+00  0.00000000E+00
  0.00000000E+00  0.00000000E+00  0.00000000E+00
  0.00000000E+00  0.00000000E+00  0.00000000E+00
  0.00000000E+00  0.00000000E+00  0.00000000E+00
  0.00000000E+00  0.00000000E+00  0.00000000E+00
  0.00000000E+00  0.00000000E+00  0.00000000E+00
  0.00000000E+00  0.00000000E+00  0.00000000E+00
  0.00000000E+00  0.00000000E+00  0.00000000E+00
  0.00000000E+00  0.00000000E+00  0.00000000E+00
  0.00000000E+00  0.00000000E+00  0.00000000E+00
  0.00000000E+00  0.00000000E+00  0.00000000E+00
  0.00000000E+00  0.00000000E+00  0.00000000E+00
  0.00000000E+00  0.00000000E+00  0.00000000E+00
  0.00000000E+00  0.00000000E+00  0.00000000E+00
  0.00000000E+00  0.00000000E+00  0.00000000E+00
  0.00000000E+00  0.00000000E+00  0.00000000E+00
  0.00000000E+00  0.00000000E+00  0.00000000E+00
  0.00000000E+00  0.00000000E+00  0.00000000E+00
  0.00000000E+00  0.00000000E+00  0.00000000E+00
  0.00000000E+00  0.00000000E+00  0.00000000E+00
  0.00000000E+00  0.00000000E+00  0.00000000E+00
  0.00000000E+00  0.00000000E+00  0.00000000E+00
  0.00000000E+00  0.00000000E+00  0.00000000E+00
  0.00000000E+00  0.00000000E+00  0.00000000E+00
  0.00000000E+00  0.00000000E+00  0.00000000E+00
  0.00000000E+00  0.00000000E+00  0.00000000E+00
  0.00000000E+00  0.00000000E+00  0.00000000E+00
  0.00000000E+00  0.00000000E+00  0.00000000E+00
  0.00000000E+00  0.00000000E+00  0.00000000E+00
  0.00000000E+00  0.00000000E+00  0.00000000E+00
  0.00000000E+00  0.00000000E+00  0.00000000E+00
  0.00000000E+00  0.00000000E+00  0.00000000E+00
  0.00000000E+00  0.00000000E+00  0.00000000E+00
  0.00000000E+00  0.00000000E+00  0.00000000E+00
  0.00000000E+00  0.00000000E+00  0.00000000E+00
  0.00000000E+00  0.00000000E+00  0.00000000E+00
  0.00000000E+00  0.00000000E+00  0.00000000E+00
  0.00000000E+00  0.00000000E+00  0.00000000E+00
  0.00000000E+00  0.00000000E+00  0.00000000E+00
  0.00000000E+00  0.00000000E+00  0.00000000E+00
  0.00000000E+00  0.00000000E+00  0.00000000E+00
  0.00000000E+00  0.00000000E+00  0.00000000E+00
  0.00000000E+00  0.00000000E+00  0.00000000E+00
  0.00000000E+00  0.00000000E+00  0.00000000E+00
  0.00000000E+00  0.00000000E+00  0.00000000E+00
  0.00000000E+00  0.00000000E+00  0.00000000E+00
  0.00000000E+00  0.00000000E+00  0.00000000E+00
  0.00000000E+00  0.00000000E+00  0.00000000E+00
  0.00000000E+00  0.00000000E+00  0.00000000E+00
  0.00000000E+00  0.00000000E+00  0.00000000E+00
  0.00000000E+00  0.00000000E+00  0.00000000E+00
  0.00000000E+00  0.00000000E+00  0.00000000E+00
  0.00000000E+00  0.00000000E+00  0.00000000E+00
  0.00000000E+00  0.00000000E+00  0.00000000E+00
  0.00000000E+00  0.00000000E+00  0.00000000E+00
  0.00000000E+00  0.00000000E+00  0.00000000E+00
  0.00000000E+00  0.00000000E+00  0.00000000E+00
  0.00000000E+00  0.00000000E+00  0.00000000E+00
  0.00000000E+00  0.00000000E+00  0.00000000E+00
  0.00000000E+00  0.00000000E+00  0.00000000E+00
  0.00000000E+00  0.00000000E+00  0.00000000E+00
  0.00000000E+00  0.00000000E+00  0.00000000E+00
  0.00000000E+00  0.00000000E+00  0.00000000E+00
  0.00000000E+00  0.00000000E+00  0.00000000E+00
  0.00000000E+00  0.00000000E+00  0.00000000E+00
  0.00000000E+00  0.00000000E+00  0.00000000E+00
  0.00000000E+00  0.00000000E+00  0.00000000E+00
  0.00000000E+00  0.00000000E+00  0.00000000E+00
  0.00000000E+00  0.00000000E+00  0.00000000E+00
  0.00000000E+00  0.00000000E+00  0.00000000E+00
  0.00000000E+00  0.00000000E+00  0.00000000E+00
  0.00000000E+00  0.00000000E+00  0.00000000E+00
  0.00000000E+00  0.00000000E+00  0.00000000E+00
  0.00000000E+00  0.00000000E+00  0.00000000E+00
  0.00000000E+00  0.00000000E+00  0.00000000E+00
  0.00000000E+00  0.00000000E+00  0.00000000E+00
  0.00000000E+00  0.00000000E+00  0.00000000E+00
  0.00000000E+00  0.00000000E+00  0.00000000E+00
  0.00000000E+00  0.00000000E+00  0.00000000E+00
  0.00000000E+00  0.00000000E+00  0.00000000E+00
  0.00000000E+00  0.00000000E+00  0.00000000E+00
  0.00000000E+00  0.00000000E+00  0.00000000E+00
  0.00000000E+00  0.00000000E+00  0.00000000E+00
  0.00000000E+00  0.00000000E+00  0.00000000E+00
  0.00000000E+00  0.00000000E+00  0.00000000E+00
  0.00000000E+00  0.00000000E+00  0.00000000E+00
  0.00000000E+00  0.00000000E+00  0.00000000E+00
  0.00000000E+00  0.00000000E+00  0.00000000E+00
  0.00000000E+00  0.00000000E+00  0.00000000E+00
  0.00000000E+00  0.00000000E+00  0.00000000E+00
  0.00000000E+00  0.00000000E+00  0.00000000E+00
  0.00000000E+00  0.00000000E+00  0.00000000E+00
  0.00000000E+00  0.00000000E+00  0.00000000E+00
  0.00000000E+00  0.00000000E+00  0.00000000E+00
  0.00000000E+00  0.00000000E+00  0.00000000E+00
  0.00000000E+00  0.00000000E+00  0.00000000E+00
  0.00000000E+00  0.00000000E+00  0.00000000E+00
  0.00000000E+00  0.00000000E+00  0.00000000E+00
  0.00000000E+00  0.00000000E+00  0.00000000E+00
  0.00000000E+00  0.00000000E+00  0.00000000E+00
  0.00000000E+00  0.00000000E+00  0.00000000E+00
  0.00000000E+00  0.00000000E+00  0.00000000E+00
  0.00000000E+00  0.00000000E+00  0.00000000E+00
  0.00000000E+00  0.00000000E+00  0.00000000E+00
  0.00000000E+00  0.00000000E+00  0.00000000E+00
  0.00000000E+00  0.00000000E+00  0.00000000E+00
  0.00000000E+00  0.00000000E+00  0.00000000E+00
  0.00000000E+00  0.00000000E+00  0.00000000E+00
  0.00000000E+00  0.00000000E+00  0.00000000E+00
  0.00000000E+00  0.00000000E+00  0.00000000E+00
  0.00000000E+00  0.00000000E+00  0.00000000E+00
  0.00000000E+00  0.00000000E+00  0.00000000E+00
  0.00000000E+00  0.00000000E+00  0.00000000E+00
  0.00000000E+00  0.00000000E+00  0.00000000E+00
  0.00000000E+00  0.00000000E+00  0.00000000E+00
  0.00000000E+00  0.00000000E+00  0.00000000E+00
  0.00000000E+00  0.00000000E+00  0.00000000E+00
  0.00000000E+00  0.00000000E+00  0.00000000E+00
  0.00000000E+00  0.00000000E+00  0.00000000E+00
  0.00000000E+00  0.00000000E+00  0.00000000E+00
  0.00000000E+00  0.00000000E+00  0.00000000E+00
  0.00000000E+00  0.00000000E+00  0.00000000E+00
  0.00000000E+00  0.00000000E+00  0.00000000E+00
  0.00000000E+00  0.00000000E+00  0.00000000E+00
  0.00000000E+00  0.00000000E+00  0.00000000E+00
  0.00000000E+00  0.00000000E+00  0.00000000E+00
  0.00000000E+00  0.00000000E+00  0.00000000E+00
  0.00000000E+00  0.00000000E+00  0.00000000E+00
  0.00000000E+00  0.00000000E+00  0.00000000E+00
  0.00000000E+00  0.00000000E+00  0.00000000E+00
  0.00000000E+00  0.00000000E+00  0.00000000E+00
  0.00000000E+00  0.00000000E+00  0.00000000E+00
  0.00000000E+00  0.00000000E+00  0.00000000E+00
  0.00000000E+00  0.00000000E+00  0.00000000E+00
  0.00000000E+00  0.00000000E+00  0.00000000E+00
  0.00000000E+00  0.00000000E+00  0.00000000E+00
  0.00000000E+00  0.00000000E+00  0.00000000E+00
  0.00000000E+00  0.00000000E+00  0.00000000E+00
  0.00000000E+00  0.00000000E+00  0.00000000E+00
  0.00000000E+00  0.00000000E+00  0.00000000E+00
  0.00000000E+00  0.00000000E+00  0.00000000E+00
