W48 S98                                 
   1.00000000000000     
    33.0000000000000000    0.0000000000000000    0.0000000000000000
     0.0000000000000000   25.2255992888999998    0.0000000000000000
     0.0000000000000000    0.0000000000000000   17.4930000304999993
   W    S    O    C 
    48    98     2     1
Direct
  0.2848910635309809  0.0396014592886179  0.4963440880687142
  0.2859169011510579  0.2894753203194762  0.4964156087550762
  0.2889043842564581  0.5448004249371083  0.4963638852295614
  0.2927850845392633  0.7823767303581037  0.4966784586351430
  0.4520334053911503  0.0386842389904917  0.5008016871069481
  0.4515277363584143  0.2871858439475081  0.5008947772062103
  0.4559275790059932  0.5359034231063539  0.5009754139114301
  0.4569284384402191  0.7902152837612632  0.5014307596616502
  0.6194541955379039  0.0416546902599458  0.5050404152120604
  0.6191053442029477  0.2855814363548530  0.5046001761366106
  0.6225108446014801  0.5260265184038985  0.5093352396939854
  0.6236373774086693  0.7961577844818197  0.5070934476074943
  0.2856058229231442  0.1618418606947886  0.4963851590467588
  0.2859383240666316  0.4117820543356722  0.4963140712319040
  0.2939033197542714  0.6665449556345878  0.4966764188990659
  0.2865217434757418  0.9050932142509809  0.4963965217561782
  0.4512589926204614  0.1625885678822921  0.5007466394305121
  0.4529546256402443  0.4108408875055243  0.5009705326150101
  0.4617280518737522  0.6624110735323370  0.5014351939994608
  0.4540139226386270  0.9144874345122388  0.5010727683440704
  0.6173947272479453  0.1634556380613059  0.5046230621406362
  0.6200637331653158  0.4079502598958250  0.5050095233733278
  0.5395598113723203  0.7393217220601226  0.5043794624295088
  0.6217671200366609  0.9189280635563465  0.5059087882249341
  0.3674635171773861  0.2252859149563623  0.4985696614606466
  0.3701962505040499  0.4756343500404545  0.4985841737740755
  0.3755979064053829  0.7249749608424302  0.4990115695431547
  0.3687575645282665  0.9749185099609722  0.4985965061726773
  0.5347302686562295  0.2245189214894149  0.5028456572018435
  0.5367427239994593  0.4696639210467375  0.5034379426675413
  0.5887603078055431  0.6618351975554451  0.5072360721478789
  0.5369122490523963  0.9787718733666275  0.5032229299147482
  0.6998633768813237  0.2202258233609488  0.5064452635522025
  0.7088111073851198  0.4567264092330643  0.4926674292692101
  0.7118448551441700  0.7448955232119684  0.5107538071095977
  0.7064699345547595  0.9889851025538606  0.5075461496282294
  0.3689439822827775  0.1000768444112608  0.4985668230579578
  0.3695432711171686  0.3504408349068998  0.4986413663415066
  0.3758574471513011  0.6012052907893960  0.4988232152130815
  0.3727252983843985  0.8498271379011041  0.4988311573336220
  0.5347405835578081  0.1014643387494035  0.5028505653409792
  0.5357661174977381  0.3472116043715036  0.5032252462872121
  0.5394184431724743  0.5848742704439269  0.5039055950314290
  0.5382982020473540  0.8556759570541659  0.5038513909601584
  0.7032709153303851  0.1028566421810378  0.5066550254292974
  0.7011663769768823  0.3459364383387237  0.5043434670215011
  0.7889536818353533  0.4383969404787519  0.4168839322055010
  0.7082295366215062  0.8543151407032664  0.5087626918280251
  0.2575276234619694  0.1002558904273012  0.5846889303515401
  0.2581763517546924  0.3513930685001348  0.5846456736724587
  0.2629493016160840  0.6048248766049396  0.5845443943459504
  0.2613351944586100  0.8442005010458103  0.5842502544440035
  0.4230804432175532  0.1003537270572284  0.5909179062809418
  0.4235828055052308  0.3496001641067474  0.5911004309647968
  0.4308429986722075  0.6011413879105253  0.5903948342348041
  0.4266296760254507  0.8515400895205221  0.5910820900079483
  0.5893519995766153  0.1020522222465335  0.5948222317816769
  0.5910531455944510  0.3466922364642339  0.5951235509160370
  0.5966087146446731  0.5905323010201933  0.5979314562485138
  0.5936126158187698  0.8573019732873750  0.5958106635573500
  0.4224613900775542  0.2249736892276560  0.5901159335441637
  0.4249917136066004  0.4744155383302920  0.5898265744249793
  0.4313209152096041  0.7244983328012864  0.5899809837319550
  0.4237789759324134  0.9759082647340261  0.5901064409232367
  0.5894629896780259  0.2251308964509294  0.5948990624631755
  0.5918638920607909  0.4683506786061122  0.5972944327302551
  0.5964020260624979  0.7327785620595582  0.5974899850019211
  0.5919865272293582  0.9795962379166570  0.5952874113674993
  0.3390682268628809  0.0369955915652814  0.5873539643153866
  0.3393211728837996  0.2879501703057611  0.5882291654607554
  0.3435144335288653  0.5395407453871276  0.5871032963395600
  0.3454688855735749  0.7860446671855845  0.5894950388416058
  0.5067763615323436  0.0394730357006068  0.5928577226780136
  0.5062472507905655  0.2860724368536927  0.5929023538796666
  0.5086337182444775  0.5305257251691796  0.5969466837642298
  0.5097589964574587  0.7950386740149955  0.5972935228003364
  0.6747280404347992  0.0435587591563207  0.5991209656644539
  0.6756047560337164  0.2837299576200281  0.5962787159330583
  0.6853734170593503  0.5379643467222484  0.5526319255103561
  0.6779198945336339  0.7975325114820765  0.6021339268436812
  0.3390554761939595  0.1628164902206538  0.5881805359993932
  0.3400708265525243  0.4138425401048517  0.5874443564635102
  0.3468470556282587  0.6634972589154802  0.5894321063933343
  0.3407821092285097  0.9116320058179468  0.5872065429369659
  0.5058861657096638  0.1629714714748538  0.5927989466345478
  0.5073756726819856  0.4087077679799293  0.5935118677869787
  0.5209084304729937  0.6620587705647231  0.5885447165778261
  0.5087256678113438  0.9170443355819543  0.5931877828665995
  0.6725578445461124  0.1618717446767765  0.5981605793080276
  0.6779936291073654  0.4093903187127070  0.5960155566316625
  0.7077029330969988  0.6735309299227420  0.6038226168442752
  0.6789657376731418  0.9211479365057906  0.5946061944129046
  0.2588402767627195  0.1002633613411134  0.4066237545037859
  0.2594918088174834  0.3513497662005629  0.4066710462253628
  0.2643896858897773  0.6050089472399869  0.4068943703520328
  0.2627706215598951  0.8440484588326075  0.4072349780494451
  0.4244350606603758  0.1003273663581767  0.4091332632803097
  0.4249959481651581  0.3496340973546592  0.4092171443927582
  0.4323342869351301  0.6013106555767298  0.4104192986204587
  0.4281353169184304  0.8513640592045022  0.4097568276457254
  0.5905522116349067  0.1018087826376289  0.4134772982091779
  0.5914789823269929  0.3470382371293202  0.4135761646146482
  0.6010450235763126  0.5914717820766187  0.4173579861078679
  0.5952059612344867  0.8565693697449360  0.4154087280443632
  0.2353817955334939  0.2258568225613807  0.4952012924365743
  0.2390230861306636  0.4794505271592053  0.4949847920717218
  0.2392303046374737  0.7237157989383474  0.4960165949868943
  0.2378267840798524  0.9719336238537675  0.4950169743387820
  0.4238020556148537  0.2250444871071984  0.4100209597105603
  0.4264503636615682  0.4743930902874116  0.4104661823182585
  0.4328022320005505  0.7245555023162379  0.4113169037909550
  0.4251828186810089  0.9757745554283556  0.4101627052962226
  0.5905627720560515  0.2250310391539563  0.4130786019455507
  0.5937369443490963  0.4697999510575022  0.4143413362189454
  0.5981291587181359  0.7321019900412683  0.4161873897081756
  0.5933536027241657  0.9790754433713982  0.4141448298889177
  0.3404104208796961  0.0369689930951957  0.4082527304048200
  0.3406764032605756  0.2879740058985802  0.4074693402300233
  0.3449205245700717  0.5396148454115776  0.4086680090456679
  0.3469286584457601  0.7859613588548753  0.4068017023657560
  0.5081277789287837  0.0392663871113977  0.4116969528790910
  0.5074900057375707  0.2862622706169831  0.4118079214764613
  0.5104603427092939  0.5307798110602812  0.4083373656040969
  0.5115072133717502  0.7946955481873191  0.4090821420965770
  0.6760190101557878  0.0430507004458084  0.4135824362801140
  0.6770543081129985  0.2833592244264676  0.4136202713770011
  0.7515614855980611  0.5165037529308718  0.4295460108731233
  0.6794243105390321  0.7962206068937144  0.4152947053288615
  0.3404031385083075  0.1628467354057230  0.4074323675887637
  0.3414563343687291  0.4138034069222509  0.4081704832847760
  0.3482929913595452  0.6636382564023091  0.4068361467583639
  0.3421755009537301  0.9115337042771688  0.4085915308347680
  0.5071539400364371  0.1629544837247578  0.4114731332635166
  0.5088404629641164  0.4088563980585593  0.4116891142967057
  0.5226267032763722  0.6621602563399682  0.4187807995452845
  0.5102199245171767  0.9166675193459954  0.4122202887072280
  0.6736102065192207  0.1617643897298891  0.4136496016615043
  0.6733404776826596  0.4061083245135929  0.4065699212888250
  0.7054607732343513  0.6695671456522354  0.4241110137045497
  0.6802926499261746  0.9203780642554162  0.4202388148677840
  0.7589358626233225  0.9232548248803705  0.5100992299104179
  0.7671143699238943  0.7988210465275348  0.5086259633885557
  0.7458175175971543  0.6597554023210929  0.5125667257423689
  0.7663612945126921  0.3431552716381109  0.5529345844026267
  0.7590974174963153  0.1768736954922596  0.5067301910360984
  0.7615480023070046  0.0490124339279914  0.5083380824104706
  0.7860158910913485  0.4075332022327304  0.3278912271593311
  0.8384295757042096  0.4437568916215806  0.4508867136296894
  0.7556074557233650  0.3970730600484548  0.4954850816463706
 
  0.00000000E+00  0.00000000E+00  0.00000000E+00
  0.00000000E+00  0.00000000E+00  0.00000000E+00
  0.00000000E+00  0.00000000E+00  0.00000000E+00
  0.00000000E+00  0.00000000E+00  0.00000000E+00
  0.00000000E+00  0.00000000E+00  0.00000000E+00
  0.00000000E+00  0.00000000E+00  0.00000000E+00
  0.00000000E+00  0.00000000E+00  0.00000000E+00
  0.00000000E+00  0.00000000E+00  0.00000000E+00
  0.00000000E+00  0.00000000E+00  0.00000000E+00
  0.00000000E+00  0.00000000E+00  0.00000000E+00
  0.00000000E+00  0.00000000E+00  0.00000000E+00
  0.00000000E+00  0.00000000E+00  0.00000000E+00
  0.00000000E+00  0.00000000E+00  0.00000000E+00
  0.00000000E+00  0.00000000E+00  0.00000000E+00
  0.00000000E+00  0.00000000E+00  0.00000000E+00
  0.00000000E+00  0.00000000E+00  0.00000000E+00
  0.00000000E+00  0.00000000E+00  0.00000000E+00
  0.00000000E+00  0.00000000E+00  0.00000000E+00
  0.00000000E+00  0.00000000E+00  0.00000000E+00
  0.00000000E+00  0.00000000E+00  0.00000000E+00
  0.00000000E+00  0.00000000E+00  0.00000000E+00
  0.00000000E+00  0.00000000E+00  0.00000000E+00
  0.00000000E+00  0.00000000E+00  0.00000000E+00
  0.00000000E+00  0.00000000E+00  0.00000000E+00
  0.00000000E+00  0.00000000E+00  0.00000000E+00
  0.00000000E+00  0.00000000E+00  0.00000000E+00
  0.00000000E+00  0.00000000E+00  0.00000000E+00
  0.00000000E+00  0.00000000E+00  0.00000000E+00
  0.00000000E+00  0.00000000E+00  0.00000000E+00
  0.00000000E+00  0.00000000E+00  0.00000000E+00
  0.00000000E+00  0.00000000E+00  0.00000000E+00
  0.00000000E+00  0.00000000E+00  0.00000000E+00
  0.00000000E+00  0.00000000E+00  0.00000000E+00
  0.00000000E+00  0.00000000E+00  0.00000000E+00
  0.00000000E+00  0.00000000E+00  0.00000000E+00
  0.00000000E+00  0.00000000E+00  0.00000000E+00
  0.00000000E+00  0.00000000E+00  0.00000000E+00
  0.00000000E+00  0.00000000E+00  0.00000000E+00
  0.00000000E+00  0.00000000E+00  0.00000000E+00
  0.00000000E+00  0.00000000E+00  0.00000000E+00
  0.00000000E+00  0.00000000E+00  0.00000000E+00
  0.00000000E+00  0.00000000E+00  0.00000000E+00
  0.00000000E+00  0.00000000E+00  0.00000000E+00
  0.00000000E+00  0.00000000E+00  0.00000000E+00
  0.00000000E+00  0.00000000E+00  0.00000000E+00
  0.00000000E+00  0.00000000E+00  0.00000000E+00
  0.00000000E+00  0.00000000E+00  0.00000000E+00
  0.00000000E+00  0.00000000E+00  0.00000000E+00
  0.00000000E+00  0.00000000E+00  0.00000000E+00
  0.00000000E+00  0.00000000E+00  0.00000000E+00
  0.00000000E+00  0.00000000E+00  0.00000000E+00
  0.00000000E+00  0.00000000E+00  0.00000000E+00
  0.00000000E+00  0.00000000E+00  0.00000000E+00
  0.00000000E+00  0.00000000E+00  0.00000000E+00
  0.00000000E+00  0.00000000E+00  0.00000000E+00
  0.00000000E+00  0.00000000E+00  0.00000000E+00
  0.00000000E+00  0.00000000E+00  0.00000000E+00
  0.00000000E+00  0.00000000E+00  0.00000000E+00
  0.00000000E+00  0.00000000E+00  0.00000000E+00
  0.00000000E+00  0.00000000E+00  0.00000000E+00
  0.00000000E+00  0.00000000E+00  0.00000000E+00
  0.00000000E+00  0.00000000E+00  0.00000000E+00
  0.00000000E+00  0.00000000E+00  0.00000000E+00
  0.00000000E+00  0.00000000E+00  0.00000000E+00
  0.00000000E+00  0.00000000E+00  0.00000000E+00
  0.00000000E+00  0.00000000E+00  0.00000000E+00
  0.00000000E+00  0.00000000E+00  0.00000000E+00
  0.00000000E+00  0.00000000E+00  0.00000000E+00
  0.00000000E+00  0.00000000E+00  0.00000000E+00
  0.00000000E+00  0.00000000E+00  0.00000000E+00
  0.00000000E+00  0.00000000E+00  0.00000000E+00
  0.00000000E+00  0.00000000E+00  0.00000000E+00
  0.00000000E+00  0.00000000E+00  0.00000000E+00
  0.00000000E+00  0.00000000E+00  0.00000000E+00
  0.00000000E+00  0.00000000E+00  0.00000000E+00
  0.00000000E+00  0.00000000E+00  0.00000000E+00
  0.00000000E+00  0.00000000E+00  0.00000000E+00
  0.00000000E+00  0.00000000E+00  0.00000000E+00
  0.00000000E+00  0.00000000E+00  0.00000000E+00
  0.00000000E+00  0.00000000E+00  0.00000000E+00
  0.00000000E+00  0.00000000E+00  0.00000000E+00
  0.00000000E+00  0.00000000E+00  0.00000000E+00
  0.00000000E+00  0.00000000E+00  0.00000000E+00
  0.00000000E+00  0.00000000E+00  0.00000000E+00
  0.00000000E+00  0.00000000E+00  0.00000000E+00
  0.00000000E+00  0.00000000E+00  0.00000000E+00
  0.00000000E+00  0.00000000E+00  0.00000000E+00
  0.00000000E+00  0.00000000E+00  0.00000000E+00
  0.00000000E+00  0.00000000E+00  0.00000000E+00
  0.00000000E+00  0.00000000E+00  0.00000000E+00
  0.00000000E+00  0.00000000E+00  0.00000000E+00
  0.00000000E+00  0.00000000E+00  0.00000000E+00
  0.00000000E+00  0.00000000E+00  0.00000000E+00
  0.00000000E+00  0.00000000E+00  0.00000000E+00
  0.00000000E+00  0.00000000E+00  0.00000000E+00
  0.00000000E+00  0.00000000E+00  0.00000000E+00
  0.00000000E+00  0.00000000E+00  0.00000000E+00
  0.00000000E+00  0.00000000E+00  0.00000000E+00
  0.00000000E+00  0.00000000E+00  0.00000000E+00
  0.00000000E+00  0.00000000E+00  0.00000000E+00
  0.00000000E+00  0.00000000E+00  0.00000000E+00
  0.00000000E+00  0.00000000E+00  0.00000000E+00
  0.00000000E+00  0.00000000E+00  0.00000000E+00
  0.00000000E+00  0.00000000E+00  0.00000000E+00
  0.00000000E+00  0.00000000E+00  0.00000000E+00
  0.00000000E+00  0.00000000E+00  0.00000000E+00
  0.00000000E+00  0.00000000E+00  0.00000000E+00
  0.00000000E+00  0.00000000E+00  0.00000000E+00
  0.00000000E+00  0.00000000E+00  0.00000000E+00
  0.00000000E+00  0.00000000E+00  0.00000000E+00
  0.00000000E+00  0.00000000E+00  0.00000000E+00
  0.00000000E+00  0.00000000E+00  0.00000000E+00
  0.00000000E+00  0.00000000E+00  0.00000000E+00
  0.00000000E+00  0.00000000E+00  0.00000000E+00
  0.00000000E+00  0.00000000E+00  0.00000000E+00
  0.00000000E+00  0.00000000E+00  0.00000000E+00
  0.00000000E+00  0.00000000E+00  0.00000000E+00
  0.00000000E+00  0.00000000E+00  0.00000000E+00
  0.00000000E+00  0.00000000E+00  0.00000000E+00
  0.00000000E+00  0.00000000E+00  0.00000000E+00
  0.00000000E+00  0.00000000E+00  0.00000000E+00
  0.00000000E+00  0.00000000E+00  0.00000000E+00
  0.00000000E+00  0.00000000E+00  0.00000000E+00
  0.00000000E+00  0.00000000E+00  0.00000000E+00
  0.00000000E+00  0.00000000E+00  0.00000000E+00
  0.00000000E+00  0.00000000E+00  0.00000000E+00
  0.00000000E+00  0.00000000E+00  0.00000000E+00
  0.00000000E+00  0.00000000E+00  0.00000000E+00
  0.00000000E+00  0.00000000E+00  0.00000000E+00
  0.00000000E+00  0.00000000E+00  0.00000000E+00
  0.00000000E+00  0.00000000E+00  0.00000000E+00
  0.00000000E+00  0.00000000E+00  0.00000000E+00
  0.00000000E+00  0.00000000E+00  0.00000000E+00
  0.00000000E+00  0.00000000E+00  0.00000000E+00
  0.00000000E+00  0.00000000E+00  0.00000000E+00
  0.00000000E+00  0.00000000E+00  0.00000000E+00
  0.00000000E+00  0.00000000E+00  0.00000000E+00
  0.00000000E+00  0.00000000E+00  0.00000000E+00
  0.00000000E+00  0.00000000E+00  0.00000000E+00
  0.00000000E+00  0.00000000E+00  0.00000000E+00
  0.00000000E+00  0.00000000E+00  0.00000000E+00
  0.00000000E+00  0.00000000E+00  0.00000000E+00
  0.00000000E+00  0.00000000E+00  0.00000000E+00
  0.00000000E+00  0.00000000E+00  0.00000000E+00
  0.00000000E+00  0.00000000E+00  0.00000000E+00
  0.00000000E+00  0.00000000E+00  0.00000000E+00
  0.00000000E+00  0.00000000E+00  0.00000000E+00
  0.00000000E+00  0.00000000E+00  0.00000000E+00
  0.00000000E+00  0.00000000E+00  0.00000000E+00
