W48 S98
1.0
  33.0000000000         0.0000000000         0.0000000000
   0.0000000000        25.2255992889         0.0000000000
   0.0000000000         0.0000000000        17.4930000305
W S O C
48 98 2 1
Cartesian
     9.508109160         0.998318479         8.747524755
     9.595999710         7.181490240         8.747223001
     9.537872520        13.594960875         8.746328059
     9.591970410        19.776608253         8.746565264
    15.026395890         0.895921466         8.746477099
    15.052771140         7.209991384         8.746438790
    15.067025820        13.509268758         8.746207357
    15.055088070        19.816047721         8.746169398
    20.531763780         0.903375630         8.746366194
    20.569163340         7.202191880         8.746437390
    20.591699370        13.518482912         8.746350450
    20.540677080        19.829154438         8.746289749
     9.586785780         4.089845332         8.747321487
     9.533343270        10.267427604         8.746825735
     9.602077650        16.678052287         8.746239195
     9.513534360        22.864909508         8.747410176
    15.039282720         4.045558009         8.746523631
    15.061672560        10.351553717         8.746322636
    15.062504160        16.651286918         8.746098201
    15.031658070        22.964158620         8.746313715
    20.508803040         4.032275721         8.746410451
    20.591884170        10.322175731         8.746405378
    20.590717290        16.647345165         8.746264385
    20.541839010        22.977368761         8.746314415
    12.286728300         5.630381005         8.746791798
    12.281935380        11.931375990         8.746313365
    12.295590120        18.232301101         8.746216804
    12.251244390        24.543023834         8.746769582
    17.797206240         5.623649806         8.746444038
    17.830451100        11.927398418         8.746269283
    17.812368750        18.235591276         8.746140184
    17.791936800        24.547298816         8.746279254
    23.208561750         5.429994142         8.746484097
    23.066651190        11.958245794         8.746448936
    23.224047330        18.460785246         8.746390509
    23.368698540        24.726691170         8.746457857
    12.308599380         2.478094513         8.746810866
    12.330661530         8.778589527         8.746579608
    12.337784250        15.083633978         8.746198611
    12.316538520        21.381800416         8.746436516
    17.766469380         2.468447487         8.746402579
    17.818824870         8.775336181         8.746381413
    17.826564030        15.081917880         8.746160301
    17.790041280        21.394822375         8.746215579
    23.313099480         2.464956012         8.746526780
    23.331891990         8.774814011         8.746434417
    23.334590730        14.982798428         8.746457682
    23.335759920        21.249337011         8.746390334
     8.643752700         2.528601208        10.298254193
     8.659389420         8.743528971        10.299251294
     8.665576260        15.119769648        10.300066818
     8.649602280        21.334418669        10.299341383
    14.121276180         2.471712688        10.333599324
    14.144866230         8.783651043        10.334292397
    14.152278030        15.078677652        10.333766382
    14.130971910        21.386807950        10.332861295
    19.588394760         2.464524149        10.323545048
    19.654052880         8.770017616        10.326350750
    19.665114480        15.085696423        10.323657702
    19.619223690        21.406647379        10.322349051
    14.125408440         5.629990260        10.321284602
    14.129257890        11.931612354        10.316049647
    14.136651870        18.232766765        10.319713031
    14.094046560        24.541806194        10.317358123
    19.629148770         5.637157105        10.323505338
    19.669779030        11.922707465        10.321633587
    19.650446640        18.215388598        10.315730575
    19.630099830        24.545208371        10.324690139
    11.321376660         0.898401394        10.313388962
    11.374548570         7.199897360        10.334798644
    11.352266970        13.507445451        10.313878066
    11.371150890        19.797497572        10.334121840
    16.856720430         0.887781417        10.325461056
    16.884217020         7.203584838        10.322785851
    16.905792090        13.503844245        10.321825836
    16.886161050        19.810747570        10.325174695
    22.380618810         0.923390630        10.358947556
    22.495499730         7.129275268        10.306367271
    22.445983560        13.544829285        10.410145544
    22.323526830        19.876705197        10.407798158
    11.364285900         4.064023904        10.334711704
    11.347895790        10.356742875        10.314305770
    11.382294990        16.662757502        10.333639383
    11.326984350        22.960640910        10.313195839
    16.865917200         4.052471336        10.326452559
    16.899751440        10.355348151        10.321580059
    16.895437350        16.656854460        10.321641984
    16.865613270        22.972277226        10.321780704
    22.330369380         3.968476397        10.370519350
    22.466450490        10.301929161        10.368269401
    22.541390520        16.711790770        10.282387167
    22.450321410        22.992011969        10.258942699
     8.643165300         2.528507116         7.196833277
     8.658809610         8.743196245         7.195141179
     8.665540620        15.119716675         7.192484168
     8.648899050        21.335164337         7.195087826
    14.120903940         2.471747247         7.159552720
    14.144645790         8.783569312         7.158524307
    14.152223250        15.078574479         7.158491770
    14.130766650        21.386969646         7.159679020
    19.588393110         2.464559717         7.169252239
    19.654069050         8.769946227         7.166437615
    19.665231960        15.085581646         7.168797596
    19.619303550        21.406706912         7.170160825
     7.872720570         5.639997003         8.748391009
     7.924923930        11.933554978         8.746441414
     7.881631560        18.222298898         8.746239195
     7.913527380        24.541709076         8.749885261
    14.125089330         5.629943341         7.171828083
    14.129203110        11.931443343         7.176448160
    14.136540000        18.232876497         7.172534101
    14.093690820        24.541970161         7.175610245
    19.629133260         5.637163664         7.169328509
    19.669912350        11.922673663         7.171041073
    19.650590190        18.215408778         7.176631486
    19.630166160        24.545248984         7.167950760
    11.320724910         0.898465720         7.180683215
    11.373949620         7.199662762         7.158834458
    11.352150150        13.507381378         7.178530876
    11.370807360        19.797735701         7.158621043
    16.856591070         0.887897707         7.167305093
    16.884203160         7.203515215         7.170002864
    16.905799680        13.503718117         7.170552844
    16.886219460        19.810802562         7.167127364
    22.380765330         0.923433765         7.133941044
    22.495557810         7.129235916         7.186494739
    22.446184860        13.544776059         7.082624629
    22.323622860        19.876717557         7.084875278
    11.363732490         4.064048121         7.159199362
    11.347518600        10.356484565         7.178785749
    11.382196980        16.662786259         7.158712881
    11.326219740        22.961001383         7.180503912
    16.865834040         4.052505139         7.166449686
    16.899768600        10.355222528         7.171055767
    16.895477940        16.656834279         7.170553193
    16.865563770        22.972329191         7.170701184
    22.330480920         3.968441333         7.122397763
    22.466494710        10.301913017         7.124557099
    22.541619210        16.711750913         7.210309710
    22.450409520        22.992089160         7.233794062
    25.036117260        22.970549273         8.746316689
    25.179963600        19.644615053         8.746612145
    25.480078800        14.962468865         8.746661826
    25.473987660         8.860805052         8.746410801
    25.140499890         4.255365624         8.746718503
    25.190520630         0.999918035         8.746610746
    25.261000000        14.264000000         8.746000000
    25.261000000        11.784000000         8.746000000
    25.261000000        13.104000000         8.746000000
