W48 Se98
1.0
  33.0000000000000000    0.0000000000000000    0.0000000000000000
   0.0000000000000000   26.2560005200000006    0.0000000000000000
   0.0000000000000000    0.0000000000000000   18.1299999999999990
W Se
48 98
direct
   0.2806839900000000    0.0423138400000000    0.5000136400000000 W
   0.2860705200000000    0.2779105800000000    0.4999502500000000 W
   0.2810008600000000    0.5423145500000000    0.4999679600000000 W
   0.2862123900000000    0.7771864500000000    0.5000316800000000 W
   0.4538871500000000    0.0356438600000000    0.5000019500000000 W
   0.4550080300000000    0.2859380200000000    0.5000051500000000 W
   0.4545560900000000    0.5352568800000000    0.4999973100000000 W
   0.4546597200000000    0.7858602099999999    0.5000001900000000 W
   0.6275308900000000    0.0351457800000000    0.5000049700000000 W
   0.6274799300000000    0.2841258000000000    0.5000029100000000 W
   0.6299591600000000    0.5328928600000000    0.5000006700000000 W
   0.6268353900000000    0.7860198500000000    0.5000038000000000 W
   0.2858898600000000    0.1686264000000000    0.4999570200000000 W
   0.2808155800000000    0.4036665600000000    0.4999956900000000 W
   0.2864057100000000    0.6680245900000000    0.5000273800000000 W
   0.2807872400000000    0.9033647600000000    0.4999849000000000 W
   0.4543767500000000    0.1600687100000000    0.5000069600000000 W
   0.4544680600000000    0.4106229100000000    0.5000025299999999 W
   0.4552016000000000    0.6599847300000000    0.4999973100000000 W
   0.4540453400000000    0.9101939300000000    0.4999973000000000 W
   0.6265409000000000    0.1599601200000000    0.5000063900000000 W
   0.6307195200000000    0.4146912200000000    0.5000010800000000 W
   0.6276152300000000    0.6615365700000000    0.5000029400000000 W
   0.6276357900000000    0.9109420300000000    0.5000049700000000 W
   0.3685994200000000    0.2231783500000000    0.4999961800000000 W
   0.3670006000000000    0.4729330800000000    0.4999924800000000 W
   0.3689266700000000    0.7227327500000000    0.5000018200000000 W
   0.3662894700000000    0.9729193700000000    0.4999877600000000 W
   0.5405186700000000    0.2229616900000000    0.5000067700000000 W
   0.5427947900000000    0.4731231100000000    0.5000024100000000 W
   0.5407959300000000    0.7230820400000000    0.5000040300000000 W
   0.5402921700000000    0.9730180200000000    0.5000055799999999 W
   0.7141907600000000    0.2310051900000000    0.4999998200000000 W
   0.7045944500000000    0.4693335300000000    0.5000019600000000 W
   0.7141937800000000    0.7153206100000000    0.5000055000000000 W
   0.7147452700000000    0.9730161100000000    0.5000032300000000 W
   0.3682702100000000    0.0985895400000000    0.4999925100000000 W
   0.3686545800000000    0.3474436600000000    0.4999920200000000 W
   0.3688975400000000    0.5984613100000000    0.4999978400000000 W
   0.3684655400000000    0.8473034200000000    0.5000004900000000 W
   0.5410600500000000    0.0974386400000000    0.5000095300000000 W
   0.5407538100000000    0.3479777500000000    0.5000012100000000 W
   0.5410400500000000    0.5977807400000000    0.5000013500000000 W
   0.5412816100000000    0.8485344700000000    0.5000038700000000 W
   0.7158270000000000    0.0891849900000000    0.5000024400000000 W
   0.7068945900000000    0.3412973500000000    0.4999988800000000 W
   0.7085685600000000    0.6066305900000000    0.5000071500000000 W
   0.7158694799999999    0.8568071000000000    0.5000026400000001 W
   0.2524558800000000    0.1038826700000000    0.5890709300000000 Se
   0.2526583900000000    0.3424622500000000    0.5894448500000000 Se
   0.2530386100000000    0.6035943100000000    0.5896085000000000 Se
   0.2527535100000000    0.8417587800000000    0.5892546300000000 Se
   0.4253561200000000    0.0978840000000000    0.5937133900000000 Se
   0.4258632400000000    0.3482160900000000    0.5935303300000000 Se
   0.4260595100000000    0.5977157900000000    0.5935426700000000 Se
   0.4255478500000000    0.8480070100000000    0.5937231200000000 Se
   0.5987115900000000    0.0975913600000000    0.5934398200000000 Se
   0.5994468100000000    0.3497457800000000    0.5907137300000000 Se
   0.5994040300000000    0.5966132700000000    0.5914242500000000 Se
   0.5989396400000000    0.8484510500000000    0.5934144700000000 Se
   0.4262638900000000    0.2231417900000000    0.5931830900000000 Se
   0.4250007600000000    0.4729202700000000    0.5928344500000000 Se
   0.4265643300000000    0.7227935200000000    0.5931951900000000 Se
   0.4244056500000000    0.9728344300000000    0.5925033100000000 Se
   0.5977651800000000    0.2221336800000000    0.5932489300000000 Se
   0.5998985500000000    0.4732657300000000    0.5956494900000000 Se
   0.5980781600000000    0.7237860800000000    0.5931528200000000 Se
   0.5979916000000000    0.9730314700000000    0.5927694900000000 Se
   0.3370830700000000    0.0357671100000000    0.5927496300000000 Se
   0.3398063500000000    0.2848434700000000    0.5955160500000000 Se
   0.3376140600000000    0.5356695900000000    0.5925940700000000 Se
   0.3399318800000000    0.7844308000000000    0.5954779700000000 Se
   0.5115214500000000    0.0354170300000000    0.5932602500000000 Se
   0.5123301700000000    0.2856237700000000    0.5937301900000000 Se
   0.5124605000000000    0.5350956800000000    0.5928361500000000 Se
   0.5121900600000000    0.7859936199999999    0.5930429400000000 Se
   0.6853804000000000    0.0339615900000000    0.5963767100000000 Se
   0.6821227200000000    0.2820774900000000    0.5997410300000000 Se
   0.6905831800000000    0.5384748300000000    0.5944005200000000 Se
   0.6876309300000000    0.7863691900000001    0.5881325400000000 Se
   0.3395900800000000    0.1614329600000000    0.5954186600000000 Se
   0.3374078200000000    0.4102824300000000    0.5926165000000000 Se
   0.3401560300000000    0.6610641300000000    0.5955620200000000 Se
   0.3371458700000000    0.9100762200000000    0.5927787799999999 Se
   0.5119233399999999    0.1600518000000000    0.5929707500000000 Se
   0.5124458300000000    0.4108250300000000    0.5927293000000000 Se
   0.5125692600000000    0.6603362000000000    0.5935150300000001 Se
   0.5117054300000000    0.9105267100000000    0.5932277800000000 Se
   0.6874910700000000    0.1596382800000000    0.5878381400000000 Se
   0.6907868800000000    0.4059269600000000    0.5993064500000000 Se
   0.6823321000000000    0.6635446900000000    0.6000049100000000 Se
   0.6854722400000000    0.9120763000000000    0.5964096500000000 Se
   0.2524856300000000    0.1039175300000000    0.4108767100000000 Se
   0.2527467200000000    0.3424175000000000    0.4104030300000000 Se
   0.2529993500000000    0.6035825000000000    0.4104334200000000 Se
   0.2526524200000000    0.8417779600000000    0.4108805800000000 Se
   0.4253626600000000    0.0978831300000000    0.4062907700000000 Se
   0.4258703900000000    0.3482170000000000    0.4064742300000000 Se
   0.4260608100000000    0.5977180800000000    0.4064506600000000 Se
   0.4255480300000000    0.8480032800000000    0.4062734700000000 Se
   0.5987102700000000    0.0975945400000000    0.4065719500000000 Se
   0.5994471400000000    0.3497461300000000    0.4092907200000000 Se
   0.5994037300000000    0.5966157900000000    0.4085794500000000 Se
   0.5989405700000000    0.8484525800000000    0.4065931200000000 Se
   0.2262341600000000    0.2234124100000000    0.5000162800000000 Se
   0.2312451200000000    0.4730581800000000    0.4999688300000000 Se
   0.2265321600000000    0.7224518599999999    0.4999933700000000 Se
   0.2311858900000000    0.9727498700000000    0.4999949600000000 Se
   0.4262773400000000    0.2231404500000000    0.4068260300000000 Se
   0.4250050400000000    0.4729178700000000    0.4071592800000000 Se
   0.4265597300000000    0.7227957800000000    0.4068023300000000 Se
   0.4244076900000000    0.9728344700000000    0.4074890600000000 Se
   0.5977663200000000    0.2221343100000000    0.4067635000000000 Se
   0.5998985400000000    0.4732662400000000    0.4043559100000000 Se
   0.5980787900000000    0.7237883200000000    0.4068554700000000 Se
   0.5979894000000000    0.9730338600000000    0.4072457500000000 Se
   0.3370717400000000    0.0357784500000000    0.4072280000000000 Se
   0.3398462700000000    0.2848321200000000    0.4044554600000000 Se
   0.3376260300000000    0.5356695700000000    0.4073879800000000 Se
   0.3399060000000000    0.7844411800000000    0.4045330100000000 Se
   0.5115237800000000    0.0354202000000000    0.4067527200000000 Se
   0.5123311000000000    0.2856216400000000    0.4062779800000000 Se
   0.5124615400000000    0.5350938700000000    0.4071637800000000 Se
   0.5121920400000000    0.7859927900000000    0.4069610500000000 Se
   0.6853791700000000    0.0339619600000000    0.4036301300000000 Se
   0.6821198400000000    0.2820772600000000    0.4002584600000000 Se
   0.6905851600000000    0.5384764900000000    0.4056068800000000 Se
   0.6876314600000000    0.7863691700000000    0.4118746100000000 Se
   0.3396220800000000    0.1614398800000000    0.4045502400000000 Se
   0.3374103700000000    0.4102731100000000    0.4073675600000000 Se
   0.3401335900000000    0.6610652700000000    0.4044558700000000 Se
   0.3371477600000000    0.9100730600000000    0.4072090800000000 Se
   0.5119277800000001    0.1600517400000000    0.4070530000000000 Se
   0.5124459200000000    0.4108251600000000    0.4072763000000000 Se
   0.5125722700000001    0.6603363300000000    0.4064867000000000 Se
   0.5117084400000000    0.9105279900000000    0.4067737100000000 Se
   0.6874894800000000    0.1596390900000000    0.4121675600000000 Se
   0.6907863400000001    0.4059281700000000    0.4006956000000000 Se
   0.6823345400000000    0.6635443400000000    0.4000028500000000 Se
   0.6854690500000000    0.9120772300000000    0.4035988800000000 Se
   0.7752684200000000    0.9117832500000000    0.5000017500000000 Se
   0.7688760500000000    0.7832780499999999    0.5000018700000000 Se
   0.7728944599999999    0.6500059700000000    0.5000005199999999 Se
   0.7715566500000000    0.2973419600000000    0.4999995800000000 Se
   0.7687954100000000    0.1625985300000000    0.5000024500000000 Se
   0.7752276900000000    0.0339222800000000    0.5000031100000000 Se
