Mo48 Se100                              
   1.00000000000000     
    33.0000000000000000    0.0000000000000000    0.0000000000000000
     0.0000000000000000   26.3120002747000008    0.0000000000000000
     0.0000000000000000    0.0000000000000000   18.0970000000000013
   Mo   Se
    48    99
Direct
  0.2866205598019806  0.0274545194409745  0.5000072450869892
  0.2800798593498377  0.2909105608937745  0.4999730666584762
  0.2864326450141786  0.5280553991515557  0.4999948599189952
  0.2812090736221949  0.7902763160364173  0.5000043992176324
  0.4549716404024354  0.0359381828322322  0.4999993076544046
  0.4531108706233297  0.2855613890420405  0.4999964041104588
  0.4547710401122236  0.5355530955320927  0.5000045250597005
  0.4545265075978582  0.7854447548941377  0.5000024753837916
  0.6274954054754088  0.0366349117722960  0.4999988527445308
  0.6265491327629170  0.2856240760144894  0.5000027998035743
  0.6285873822142026  0.5342125715272020  0.5000060194184389
  0.6276117155735428  0.7849924675637339  0.5000045085422222
  0.2803483130769795  0.1553634177883922  0.4999892862278271
  0.2861253830570354  0.4186949905284964  0.4999847266958820
  0.2809725889810850  0.6555969761752876  0.4999998939795935
  0.2869823386163406  0.9180594324272421  0.4999990314705066
  0.4536280189155565  0.1604310054703910  0.4999998079718073
  0.4543489257253998  0.4103043128787022  0.5000000048816087
  0.4545564156294397  0.6600761653381966  0.5000035161259826
  0.4553794511296984  0.9102594027396633  0.5000017849281170
  0.6271072965679477  0.1618942470539539  0.5000001761292507
  0.6261220750030070  0.4095444073186391  0.5000026905605480
  0.6280898341466824  0.6595487131098134  0.5000027396137999
  0.6282164351259749  0.9107879695192577  0.5000003433635138
  0.3657952342568249  0.2230108454221034  0.4999904594515444
  0.3684590206134575  0.4730926251183536  0.4999923532412010
  0.3668839946294712  0.7228864588189508  0.5000034011058884
  0.3689672403644946  0.9729880563731251  0.5000022953755483
  0.5396773273633028  0.2233373386803947  0.5000021651430134
  0.5413420012563269  0.4725568448036114  0.5000037896569741
  0.5411789914147187  0.7224451450911764  0.5000022637218030
  0.5416952499392816  0.9732339658550837  0.5000003438626223
  0.7142708712988951  0.2260842798224223  0.5000019807705660
  0.7123610046699735  0.4619735534713653  0.5000055773696847
  0.7147336749835047  0.7141271676653153  0.5000103037141422
  0.7151482969615881  0.9655930088895684  0.5000027025423724
  0.3684387269631841  0.0972706845516365  0.4999971294118983
  0.3680445503503585  0.3489404058632566  0.4999851841748470
  0.3688457722920121  0.5972358146313740  0.5000017803894417
  0.3691434691826653  0.8486577470180722  0.5000026132560248
  0.5413051895024324  0.0988375961668029  0.4999994575873583
  0.5397067777596037  0.3475013574610509  0.5000052147351075
  0.5413436987394461  0.5974919987914046  0.5000090126303219
  0.5416224012511824  0.8479836726981159  0.5000004446348504
  0.7155426480399693  0.1092937150996042  0.5000001051689476
  0.7134961408724703  0.3429256278059264  0.5000017441988347
  0.7116250913201501  0.6059748152867007  0.5000086196418543
  0.7152642751334777  0.8564854666661993  0.5000073540822146
  0.2533168036859570  0.0922440627753010  0.5876494140338051
  0.2530180173759546  0.3538748077518457  0.5878429698343948
  0.2535729830336915  0.5929638386387158  0.5879359871616719
  0.2538839144175761  0.8532470883102153  0.5876408429152578
  0.4256185927372914  0.0979537112979031  0.5930954743767715
  0.4250953274544140  0.3481391502586082  0.5930979756773133
  0.4259974594028422  0.5979599224431096  0.5931119978593166
  0.4263428306403431  0.8479256613622869  0.5930342829524606
  0.5990197346949424  0.0987552576383880  0.5928229068275284
  0.5969526678466539  0.3475659100003436  0.5926293138448508
  0.5992118260239887  0.5963336322391710  0.5920042058081277
  0.5993850248674151  0.8477295685090768  0.5923833957344643
  0.4237337127363170  0.2228184678745966  0.5921580500423851
  0.4261041991326175  0.4730645070745609  0.5927357996515850
  0.4250183525856024  0.7227815982868374  0.5920449555218905
  0.4267557761411630  0.9729639001308976  0.5925860735215579
  0.5972168677712715  0.2233935168331231  0.5923880516729439
  0.5989378458244874  0.4729987711863183  0.5929344340164103
  0.5988788355346404  0.7226646229821971  0.5923096891917982
  0.5994292979633237  0.9736478510293257  0.5924325048163934
  0.3399001681655495  0.0344439539832259  0.5952252992874558
  0.3366100916432555  0.2862309856481243  0.5917579300961541
  0.3397977976176786  0.5347480231800033  0.5951643157477954
  0.3377729999041658  0.7860165776926328  0.5918903241387803
  0.5127467606990957  0.0358899508384298  0.5923347717162334
  0.5104930650114827  0.2852895370269045  0.5928316402091125
  0.5123780954399952  0.5351729302663208  0.5925137861993308
  0.5124042929806056  0.7853116658333223  0.5922388166769925
  0.6883337245314551  0.0373780749659527  0.5873756021353643
  0.6845438507992365  0.2848805254327246  0.5956341604262445
  0.6909008926283610  0.5339519105413701  0.5884885222190953
  0.6882593514072444  0.7851187963110492  0.5877979533409805
  0.3368061076647985  0.1598640070960721  0.5918883603007814
  0.3393874453224784  0.4116830002213855  0.5951943809912924
  0.3375815671235263  0.6599335531134342  0.5918733433803728
  0.3403361322317975  0.9112799935149259  0.5951534131808139
  0.5113336800552755  0.1605970843166613  0.5926011981624726
  0.5117996090540859  0.4104674019173556  0.5927171523995174
  0.5123423954836084  0.6601657631136328  0.5926225874169856
  0.5130329602110018  0.9105604030228222  0.5926500439815967
  0.6848932972452608  0.1638892465175218  0.5958809964905636
  0.6834994526788182  0.4056851782151549  0.5954245670088536
  0.6833300798935016  0.6607024668672744  0.5992135729364749
  0.6846176582596305  0.9109816823379637  0.5978937986500603
  0.2533179517410798  0.0922365267060825  0.4123486480799878
  0.2530280205817864  0.3538863040326096  0.4121136496507768
  0.2535770210853867  0.5929682210994552  0.4120487519341044
  0.2538660618020528  0.8532404636362312  0.4123880454924316
  0.4256205358847666  0.0979520433776575  0.4069036518020832
  0.4251018735342605  0.3481408826271727  0.4068861929520528
  0.4259982009330207  0.5979601154292349  0.4068909240303090
  0.4263422175721607  0.8479260763413575  0.4069718605115887
  0.5990200251739043  0.0987547609968252  0.4071777908296789
  0.5969515777119130  0.3475661570087000  0.4073752290485262
  0.5992106651469165  0.5963316364314334  0.4080049653288109
  0.5993863769984806  0.8477274339812962  0.4076197803354102
  0.2297394493567064  0.2230168679794864  0.4999516465141349
  0.2269360696503975  0.4735776301719875  0.4999916606707208
  0.2303153793424494  0.7230452215202915  0.4999996274665041
  0.2274984930426254  0.9724565746482506  0.5000004318717128
  0.4237378304974783  0.2228157885318071  0.4078318537479868
  0.4261095096107601  0.4730668644806587  0.4072610403176278
  0.4250171984561915  0.7227803498591200  0.4079598385122984
  0.4267550120968359  0.9729636628868522  0.4074181802369816
  0.5972172648390786  0.2233936485760565  0.4076154444475530
  0.5989384519232360  0.4730009212808607  0.4070678582534696
  0.5988798610978034  0.7226663167927814  0.4076927110981994
  0.5994289785131989  0.9736473493835012  0.4075682351120477
  0.3398963521418878  0.0344401970713263  0.4047796928330544
  0.3366201021589443  0.2862278891142657  0.4082015032825569
  0.3397972349168882  0.5347549635388789  0.4048268012079382
  0.3377725606977977  0.7860171100929366  0.4081131810040420
  0.5127474946057391  0.0358887003035787  0.4076670084079623
  0.5104990655077555  0.2852895589705452  0.4071699683835035
  0.5123781356518085  0.5351776823296921  0.4074946544593376
  0.5124031654524979  0.7853110054984822  0.4077640400946725
  0.6883363616107673  0.0373748104479526  0.4126252669900648
  0.6845431097482261  0.2848801753787707  0.4043704609585965
  0.6909021074784784  0.5339542836633864  0.4115266542664978
  0.6882636273509433  0.7851169131965343  0.4122190245151034
  0.3368074353686130  0.1598627347910776  0.4080961981752306
  0.3393928755503991  0.4116872516227703  0.4047697013293267
  0.3375820343166103  0.6599357729170446  0.4081294143075483
  0.3403380255255841  0.9112820585059679  0.4048467280108186
  0.5113342029839655  0.1605974011914619  0.4074000975813014
  0.5118023761854239  0.4104679650299397  0.4072854911159600
  0.5123432426737398  0.6601643113418514  0.4073817221453771
  0.5130321047084420  0.9105603761465982  0.4073539628547849
  0.6848938287811686  0.1638888957629678  0.4041186157018455
  0.7760176737799019  0.9109692511787388  0.4999994483250191
  0.7679526891068319  0.7824992686269296  0.5000194406055128
  0.7743662343593449  0.6499929110613495  0.5000185145093016
  0.7739372175965523  0.4175338893362425  0.5000020523842752
  0.7736154537873857  0.2895254758963225  0.5000078253823081
  0.7744073603488576  0.1665744266023386  0.5000046605750404
  0.7678779775357064  0.0385251562066661  0.5000071635199326
  0.6835006908426697  0.4056882899807449  0.4045811991546268
  0.6833337749125705  0.6607056399377468  0.4007968343731567
  0.6846200134541032  0.9109781984566933  0.4021124092606456
 
  0.00000000E+00  0.00000000E+00  0.00000000E+00
  0.00000000E+00  0.00000000E+00  0.00000000E+00
  0.00000000E+00  0.00000000E+00  0.00000000E+00
  0.00000000E+00  0.00000000E+00  0.00000000E+00
  0.00000000E+00  0.00000000E+00  0.00000000E+00
  0.00000000E+00  0.00000000E+00  0.00000000E+00
  0.00000000E+00  0.00000000E+00  0.00000000E+00
  0.00000000E+00  0.00000000E+00  0.00000000E+00
  0.00000000E+00  0.00000000E+00  0.00000000E+00
  0.00000000E+00  0.00000000E+00  0.00000000E+00
  0.00000000E+00  0.00000000E+00  0.00000000E+00
  0.00000000E+00  0.00000000E+00  0.00000000E+00
  0.00000000E+00  0.00000000E+00  0.00000000E+00
  0.00000000E+00  0.00000000E+00  0.00000000E+00
  0.00000000E+00  0.00000000E+00  0.00000000E+00
  0.00000000E+00  0.00000000E+00  0.00000000E+00
  0.00000000E+00  0.00000000E+00  0.00000000E+00
  0.00000000E+00  0.00000000E+00  0.00000000E+00
  0.00000000E+00  0.00000000E+00  0.00000000E+00
  0.00000000E+00  0.00000000E+00  0.00000000E+00
  0.00000000E+00  0.00000000E+00  0.00000000E+00
  0.00000000E+00  0.00000000E+00  0.00000000E+00
  0.00000000E+00  0.00000000E+00  0.00000000E+00
  0.00000000E+00  0.00000000E+00  0.00000000E+00
  0.00000000E+00  0.00000000E+00  0.00000000E+00
  0.00000000E+00  0.00000000E+00  0.00000000E+00
  0.00000000E+00  0.00000000E+00  0.00000000E+00
  0.00000000E+00  0.00000000E+00  0.00000000E+00
  0.00000000E+00  0.00000000E+00  0.00000000E+00
  0.00000000E+00  0.00000000E+00  0.00000000E+00
  0.00000000E+00  0.00000000E+00  0.00000000E+00
  0.00000000E+00  0.00000000E+00  0.00000000E+00
  0.00000000E+00  0.00000000E+00  0.00000000E+00
  0.00000000E+00  0.00000000E+00  0.00000000E+00
  0.00000000E+00  0.00000000E+00  0.00000000E+00
  0.00000000E+00  0.00000000E+00  0.00000000E+00
  0.00000000E+00  0.00000000E+00  0.00000000E+00
  0.00000000E+00  0.00000000E+00  0.00000000E+00
  0.00000000E+00  0.00000000E+00  0.00000000E+00
  0.00000000E+00  0.00000000E+00  0.00000000E+00
  0.00000000E+00  0.00000000E+00  0.00000000E+00
  0.00000000E+00  0.00000000E+00  0.00000000E+00
  0.00000000E+00  0.00000000E+00  0.00000000E+00
  0.00000000E+00  0.00000000E+00  0.00000000E+00
  0.00000000E+00  0.00000000E+00  0.00000000E+00
  0.00000000E+00  0.00000000E+00  0.00000000E+00
  0.00000000E+00  0.00000000E+00  0.00000000E+00
  0.00000000E+00  0.00000000E+00  0.00000000E+00
  0.00000000E+00  0.00000000E+00  0.00000000E+00
  0.00000000E+00  0.00000000E+00  0.00000000E+00
  0.00000000E+00  0.00000000E+00  0.00000000E+00
  0.00000000E+00  0.00000000E+00  0.00000000E+00
  0.00000000E+00  0.00000000E+00  0.00000000E+00
  0.00000000E+00  0.00000000E+00  0.00000000E+00
  0.00000000E+00  0.00000000E+00  0.00000000E+00
  0.00000000E+00  0.00000000E+00  0.00000000E+00
  0.00000000E+00  0.00000000E+00  0.00000000E+00
  0.00000000E+00  0.00000000E+00  0.00000000E+00
  0.00000000E+00  0.00000000E+00  0.00000000E+00
  0.00000000E+00  0.00000000E+00  0.00000000E+00
  0.00000000E+00  0.00000000E+00  0.00000000E+00
  0.00000000E+00  0.00000000E+00  0.00000000E+00
  0.00000000E+00  0.00000000E+00  0.00000000E+00
  0.00000000E+00  0.00000000E+00  0.00000000E+00
  0.00000000E+00  0.00000000E+00  0.00000000E+00
  0.00000000E+00  0.00000000E+00  0.00000000E+00
  0.00000000E+00  0.00000000E+00  0.00000000E+00
  0.00000000E+00  0.00000000E+00  0.00000000E+00
  0.00000000E+00  0.00000000E+00  0.00000000E+00
  0.00000000E+00  0.00000000E+00  0.00000000E+00
  0.00000000E+00  0.00000000E+00  0.00000000E+00
  0.00000000E+00  0.00000000E+00  0.00000000E+00
  0.00000000E+00  0.00000000E+00  0.00000000E+00
  0.00000000E+00  0.00000000E+00  0.00000000E+00
  0.00000000E+00  0.00000000E+00  0.00000000E+00
  0.00000000E+00  0.00000000E+00  0.00000000E+00
  0.00000000E+00  0.00000000E+00  0.00000000E+00
  0.00000000E+00  0.00000000E+00  0.00000000E+00
  0.00000000E+00  0.00000000E+00  0.00000000E+00
  0.00000000E+00  0.00000000E+00  0.00000000E+00
  0.00000000E+00  0.00000000E+00  0.00000000E+00
  0.00000000E+00  0.00000000E+00  0.00000000E+00
  0.00000000E+00  0.00000000E+00  0.00000000E+00
  0.00000000E+00  0.00000000E+00  0.00000000E+00
  0.00000000E+00  0.00000000E+00  0.00000000E+00
  0.00000000E+00  0.00000000E+00  0.00000000E+00
  0.00000000E+00  0.00000000E+00  0.00000000E+00
  0.00000000E+00  0.00000000E+00  0.00000000E+00
  0.00000000E+00  0.00000000E+00  0.00000000E+00
  0.00000000E+00  0.00000000E+00  0.00000000E+00
  0.00000000E+00  0.00000000E+00  0.00000000E+00
  0.00000000E+00  0.00000000E+00  0.00000000E+00
  0.00000000E+00  0.00000000E+00  0.00000000E+00
  0.00000000E+00  0.00000000E+00  0.00000000E+00
  0.00000000E+00  0.00000000E+00  0.00000000E+00
  0.00000000E+00  0.00000000E+00  0.00000000E+00
  0.00000000E+00  0.00000000E+00  0.00000000E+00
  0.00000000E+00  0.00000000E+00  0.00000000E+00
  0.00000000E+00  0.00000000E+00  0.00000000E+00
  0.00000000E+00  0.00000000E+00  0.00000000E+00
  0.00000000E+00  0.00000000E+00  0.00000000E+00
  0.00000000E+00  0.00000000E+00  0.00000000E+00
  0.00000000E+00  0.00000000E+00  0.00000000E+00
  0.00000000E+00  0.00000000E+00  0.00000000E+00
  0.00000000E+00  0.00000000E+00  0.00000000E+00
  0.00000000E+00  0.00000000E+00  0.00000000E+00
  0.00000000E+00  0.00000000E+00  0.00000000E+00
  0.00000000E+00  0.00000000E+00  0.00000000E+00
  0.00000000E+00  0.00000000E+00  0.00000000E+00
  0.00000000E+00  0.00000000E+00  0.00000000E+00
  0.00000000E+00  0.00000000E+00  0.00000000E+00
  0.00000000E+00  0.00000000E+00  0.00000000E+00
  0.00000000E+00  0.00000000E+00  0.00000000E+00
  0.00000000E+00  0.00000000E+00  0.00000000E+00
  0.00000000E+00  0.00000000E+00  0.00000000E+00
  0.00000000E+00  0.00000000E+00  0.00000000E+00
  0.00000000E+00  0.00000000E+00  0.00000000E+00
  0.00000000E+00  0.00000000E+00  0.00000000E+00
  0.00000000E+00  0.00000000E+00  0.00000000E+00
  0.00000000E+00  0.00000000E+00  0.00000000E+00
  0.00000000E+00  0.00000000E+00  0.00000000E+00
  0.00000000E+00  0.00000000E+00  0.00000000E+00
  0.00000000E+00  0.00000000E+00  0.00000000E+00
  0.00000000E+00  0.00000000E+00  0.00000000E+00
  0.00000000E+00  0.00000000E+00  0.00000000E+00
  0.00000000E+00  0.00000000E+00  0.00000000E+00
  0.00000000E+00  0.00000000E+00  0.00000000E+00
  0.00000000E+00  0.00000000E+00  0.00000000E+00
  0.00000000E+00  0.00000000E+00  0.00000000E+00
  0.00000000E+00  0.00000000E+00  0.00000000E+00
  0.00000000E+00  0.00000000E+00  0.00000000E+00
  0.00000000E+00  0.00000000E+00  0.00000000E+00
  0.00000000E+00  0.00000000E+00  0.00000000E+00
  0.00000000E+00  0.00000000E+00  0.00000000E+00
  0.00000000E+00  0.00000000E+00  0.00000000E+00
  0.00000000E+00  0.00000000E+00  0.00000000E+00
  0.00000000E+00  0.00000000E+00  0.00000000E+00
  0.00000000E+00  0.00000000E+00  0.00000000E+00
  0.00000000E+00  0.00000000E+00  0.00000000E+00
  0.00000000E+00  0.00000000E+00  0.00000000E+00
  0.00000000E+00  0.00000000E+00  0.00000000E+00
  0.00000000E+00  0.00000000E+00  0.00000000E+00
  0.00000000E+00  0.00000000E+00  0.00000000E+00
  0.00000000E+00  0.00000000E+00  0.00000000E+00
  0.00000000E+00  0.00000000E+00  0.00000000E+00
  0.00000000E+00  0.00000000E+00  0.00000000E+00
  0.00000000E+00  0.00000000E+00  0.00000000E+00
