W48 S99                                 
   1.00000000000000     
    33.0000000000000000    0.0000000000000000    0.0000000000000000
     0.0000000000000000   25.2255992888999998    0.0000000000000000
     0.0000000000000000    0.0000000000000000   17.4930000304999993
   W    S    O    C 
    48    99     1     1
Direct
  0.2898889175010610  0.0378337948443269  0.4988814014796242
  0.2904228907568457  0.2862847106973266  0.4991459816717202
  0.2897178276175542  0.5379744765990568  0.4989795610173162
  0.2905292634068588  0.7864684244203051  0.4987731033821804
  0.4564200463416022  0.0357320266268170  0.5000362457256511
  0.4562440096211060  0.2856876285733831  0.5003975441435483
  0.4561579734132601  0.5358593066053983  0.5004336493647517
  0.4564087007185988  0.7859159867477865  0.5000344451144574
  0.6231055873984644  0.0358966467457755  0.5018820148254202
  0.6228947741305133  0.2856130721167531  0.5017540824387985
  0.6236410375304378  0.5359545420772271  0.5019403486052751
  0.6229109622412391  0.7854590880324283  0.5021008185599882
  0.2904799930552610  0.1597497754243107  0.4990384055048185
  0.2897175736823966  0.4082617297124330  0.4991011941595279
  0.2904412587151505  0.6599160409418884  0.4988778708798859
  0.2898952586367352  0.9084009710819420  0.4987634588934975
  0.4563905503176541  0.1604424010754749  0.5002001876618438
  0.4562290864679466  0.4104872016588469  0.5005197160786087
  0.4563199984507288  0.6603975440599180  0.5002050659471198
  0.4564480018109017  0.9105323158024493  0.4999968425285274
  0.6230501965752011  0.1604219634880167  0.5017796657082999
  0.6222107076701714  0.4103669157377257  0.5018386282845887
  0.6225860962762667  0.6608581396054024  0.5033232876528562
  0.6231642183151004  0.9106220745960080  0.5021709745367173
  0.3723941376838942  0.2230429706009054  0.4996717840078787
  0.3721136102398774  0.4731313429887418  0.4997480107473898
  0.3724409339384004  0.7231682051617226  0.4994200443705702
  0.3723277386501068  0.9731279448975804  0.4993474279064050
  0.5399457886091433  0.2229854027008441  0.5010182189101799
  0.5395206793914687  0.4732647036084710  0.5013875609017450
  0.5393989528273903  0.7231888515609542  0.5010095972171603
  0.5401223856137269  0.9732439191725911  0.5008756941869860
  0.7084974315745327  0.2165145603520799  0.5025480920915711
  0.7037300515413518  0.4660383723475554  0.5016721904449778
  0.7069282440133500  0.7241132132821247  0.5062703367461859
  0.7082918207599761  0.9795736001750507  0.5032931445390281
  0.3738188532713194  0.0981100548045574  0.4994925549128619
  0.3736759771538434  0.3480650833318435  0.4997949470741868
  0.3736656133663059  0.5981989463925377  0.4996007574955950
  0.3738372260711300  0.8481437056368901  0.4993444296531470
  0.5395636397334143  0.0981179697664517  0.5008898920031657
  0.5393982598045004  0.3480123586877724  0.5012115643401198
  0.5399173884554024  0.5981123902073331  0.5012578714921425
  0.5399813414137881  0.8481490427009206  0.5009344895858960
  0.7076775025510846  0.0980904889891887  0.5027774285058733
  0.7073683719483161  0.3546700043647709  0.5021430997629829
  0.7071419692354417  0.6020878821099865  0.5021324961796838
  0.7080682398266438  0.8407865338812509  0.5034930034462252
  0.2627107875657236  0.0985137536829193  0.5877895428958412
  0.2626046104814215  0.3474634787617765  0.5879246087926016
  0.2625865940066979  0.5988121206943124  0.5877108704062903
  0.2627346435559734  0.8476515717870778  0.5875805005178705
  0.4286025195545309  0.0980153423174604  0.5905996714716201
  0.4284413772129809  0.3480771291999402  0.5909467596310166
  0.4283770991421639  0.5982177761083983  0.5908323492427709
  0.4285946424656240  0.8482564973411623  0.5904996173298991
  0.5947467712269285  0.0981789093830212  0.5915306399240932
  0.5946106390407576  0.3476296612381358  0.5918357528943288
  0.5951049222508438  0.5976468779993862  0.5925302344835497
  0.5952122449530144  0.8483629198427395  0.5919548024533636
  0.4280421409574061  0.2229855238491585  0.5899997992441562
  0.4277941234761524  0.4731749477861770  0.5900363335253426
  0.4280992501600125  0.7232283599411603  0.5897254243342797
  0.4280372342375502  0.9731153848825499  0.5896047423969762
  0.5954094883113314  0.2231429389729694  0.5917446842694479
  0.5950094444712163  0.4738247824289077  0.5916929139638911
  0.5942353198552719  0.7234601067948815  0.5920597147664578
  0.5954409440712554  0.9731802409465907  0.5918648569680026
  0.3442417178476340  0.0354814933544136  0.5893037623900779
  0.3444219177356204  0.2853320822580321  0.5899682961625757
  0.3440100992808930  0.5356351351266478  0.5894952948379193
  0.3445243370096210  0.7855227905960035  0.5896059328511980
  0.5116955533591473  0.0354703885868190  0.5908039382479123
  0.5115360104509974  0.2852869450699424  0.5910074118932580
  0.5114542411561405  0.5357698605647014  0.5911311150345617
  0.5115662531890806  0.7858422953538353  0.5909006286601516
  0.6787731767527124  0.0369352822443655  0.5951624996778605
  0.6805182195365377  0.2855799264076483  0.5887002730596406
  0.6822992174864366  0.5345626085722273  0.5890963204843657
  0.6781328970051659  0.7848199782916346  0.5964454485490411
  0.3444924211910314  0.1606688389852814  0.5898314505569703
  0.3440223719788976  0.4106982185954767  0.5896123423144897
  0.3444138943729143  0.6609410040026614  0.5897316694979508
  0.3442337492773794  0.9107265911185075  0.5892089560646823
  0.5116681208286227  0.1606623872820673  0.5909349910875824
  0.5114972450441914  0.4106545234378648  0.5913097683310642
  0.5115304993435018  0.6605807324462338  0.5910066076041477
  0.5118123950080189  0.9107846346900204  0.5906193048130808
  0.6788634151273528  0.1596239458044623  0.5947930574094275
  0.6765647486423592  0.4092947768088262  0.5964381315176238
  0.6771240756589824  0.6616796546403524  0.5966486368169257
  0.6804206029980620  0.9106257802745983  0.5899443886937068
  0.2630413227707441  0.0986276600620328  0.4097823400481260
  0.2629626148147775  0.3474785962360659  0.4099302968771746
  0.2629917418454069  0.5986957850996301  0.4097062015247562
  0.2630877954626331  0.8476192878480804  0.4095729299363229
  0.4289927945843710  0.0981187013796985  0.4091735485548725
  0.4288544968380057  0.3481449144489019  0.4095312760250113
  0.4288332874765490  0.5980713231354754  0.4093134637505123
  0.4290244433725852  0.8482191872946351  0.4090382377542828
  0.5953131836738318  0.0981233604260248  0.4114583418817450
  0.5949555406599527  0.3476911358725315  0.4114115189198115
  0.5960010947635441  0.5982197395986357  0.4117943657781967
  0.5959779991898139  0.8482515343624545  0.4115159415235934
  0.2397723378920688  0.2229850088354600  0.4987229504635706
  0.2401573224969102  0.4731286253945868  0.4985749183853415
  0.2398211120819989  0.7232229772160800  0.4983799505098352
  0.2402388991816800  0.9731077576574679  0.4983579275714123
  0.4284280254195346  0.2231052134942318  0.4101637646652810
  0.4282401145184405  0.4731239404960699  0.4104340457395916
  0.4285384265177624  0.7231141521439446  0.4100155063235731
  0.4284496805590914  0.9731328808605939  0.4099372792308419
  0.5958611253496764  0.2231523696117871  0.4112740162994826
  0.5951762626547414  0.4738350699741166  0.4119014939319271
  0.5952938439484412  0.7230469363803602  0.4119941353715689
  0.5961333815900690  0.9730288415357516  0.4113788410032318
  0.3445743104886153  0.0355589705388055  0.4091414376799787
  0.3447879124747663  0.2854061109642311  0.4091064215844777
  0.3444371423761298  0.5355237289135862  0.4093923857992364
  0.3449012672724087  0.7854600489918860  0.4087385025543940
  0.5122157666664885  0.0354907691084405  0.4103349441120061
  0.5119681400827012  0.2854109198732327  0.4107388315406674
  0.5119985614940944  0.5357067361134559  0.4109294016604005
  0.5121744216852997  0.7857699395011795  0.4103564506311141
  0.6794695426945599  0.0366304741100161  0.4100691492361353
  0.6808819143751680  0.2853729338949929  0.4156025343022757
  0.6806695736498092  0.5339085155284540  0.4124822750602633
  0.6791323929748183  0.7843278574003771  0.4102062764251883
  0.3448315668306501  0.1607843844401327  0.4089555631746866
  0.3444326761116380  0.4106665416189342  0.4094871829717640
  0.3448063504975509  0.6608219531648833  0.4088439680606715
  0.3445886377289274  0.9107275234570102  0.4090548894023558
  0.5121302176571851  0.1607478332259072  0.4104319443764015
  0.5119530209495086  0.4107552721836362  0.4107988054112360
  0.5121120275829667  0.6604484829389524  0.4105890539686510
  0.5123720229952089  0.9107357906321414  0.4105269184261641
  0.6793920325663513  0.1594852857850885  0.4099428689371220
  0.6766439058852405  0.4090250307784108  0.4073519406796196
  0.6796706230818483  0.6626645386289540  0.4128814027240465
  0.6812322837823890  0.9102909859759252  0.4163648443472526
  0.7587371599111067  0.9110556631141271  0.5049489859561220
  0.7636412107821382  0.7844476988943728  0.4989168451622545
  0.7611652713017703  0.6630181934761569  0.5321235941986019
  0.7630488063541739  0.4195654475917842  0.5024327626362955
  0.7589310714184146  0.2875142863840702  0.5026773300105709
  0.7638323406508877  0.1600956954960485  0.5031150748087942
  0.7636194636301067  0.0373067364361876  0.5035447185140094
  0.7855402302129744  0.5622947984368328  0.4115125183169358
  0.7566446935980843  0.5748035012466839  0.4453057814345150
 
  0.00000000E+00  0.00000000E+00  0.00000000E+00
  0.00000000E+00  0.00000000E+00  0.00000000E+00
  0.00000000E+00  0.00000000E+00  0.00000000E+00
  0.00000000E+00  0.00000000E+00  0.00000000E+00
  0.00000000E+00  0.00000000E+00  0.00000000E+00
  0.00000000E+00  0.00000000E+00  0.00000000E+00
  0.00000000E+00  0.00000000E+00  0.00000000E+00
  0.00000000E+00  0.00000000E+00  0.00000000E+00
  0.00000000E+00  0.00000000E+00  0.00000000E+00
  0.00000000E+00  0.00000000E+00  0.00000000E+00
  0.00000000E+00  0.00000000E+00  0.00000000E+00
  0.00000000E+00  0.00000000E+00  0.00000000E+00
  0.00000000E+00  0.00000000E+00  0.00000000E+00
  0.00000000E+00  0.00000000E+00  0.00000000E+00
  0.00000000E+00  0.00000000E+00  0.00000000E+00
  0.00000000E+00  0.00000000E+00  0.00000000E+00
  0.00000000E+00  0.00000000E+00  0.00000000E+00
  0.00000000E+00  0.00000000E+00  0.00000000E+00
  0.00000000E+00  0.00000000E+00  0.00000000E+00
  0.00000000E+00  0.00000000E+00  0.00000000E+00
  0.00000000E+00  0.00000000E+00  0.00000000E+00
  0.00000000E+00  0.00000000E+00  0.00000000E+00
  0.00000000E+00  0.00000000E+00  0.00000000E+00
  0.00000000E+00  0.00000000E+00  0.00000000E+00
  0.00000000E+00  0.00000000E+00  0.00000000E+00
  0.00000000E+00  0.00000000E+00  0.00000000E+00
  0.00000000E+00  0.00000000E+00  0.00000000E+00
  0.00000000E+00  0.00000000E+00  0.00000000E+00
  0.00000000E+00  0.00000000E+00  0.00000000E+00
  0.00000000E+00  0.00000000E+00  0.00000000E+00
  0.00000000E+00  0.00000000E+00  0.00000000E+00
  0.00000000E+00  0.00000000E+00  0.00000000E+00
  0.00000000E+00  0.00000000E+00  0.00000000E+00
  0.00000000E+00  0.00000000E+00  0.00000000E+00
  0.00000000E+00  0.00000000E+00  0.00000000E+00
  0.00000000E+00  0.00000000E+00  0.00000000E+00
  0.00000000E+00  0.00000000E+00  0.00000000E+00
  0.00000000E+00  0.00000000E+00  0.00000000E+00
  0.00000000E+00  0.00000000E+00  0.00000000E+00
  0.00000000E+00  0.00000000E+00  0.00000000E+00
  0.00000000E+00  0.00000000E+00  0.00000000E+00
  0.00000000E+00  0.00000000E+00  0.00000000E+00
  0.00000000E+00  0.00000000E+00  0.00000000E+00
  0.00000000E+00  0.00000000E+00  0.00000000E+00
  0.00000000E+00  0.00000000E+00  0.00000000E+00
  0.00000000E+00  0.00000000E+00  0.00000000E+00
  0.00000000E+00  0.00000000E+00  0.00000000E+00
  0.00000000E+00  0.00000000E+00  0.00000000E+00
  0.00000000E+00  0.00000000E+00  0.00000000E+00
  0.00000000E+00  0.00000000E+00  0.00000000E+00
  0.00000000E+00  0.00000000E+00  0.00000000E+00
  0.00000000E+00  0.00000000E+00  0.00000000E+00
  0.00000000E+00  0.00000000E+00  0.00000000E+00
  0.00000000E+00  0.00000000E+00  0.00000000E+00
  0.00000000E+00  0.00000000E+00  0.00000000E+00
  0.00000000E+00  0.00000000E+00  0.00000000E+00
  0.00000000E+00  0.00000000E+00  0.00000000E+00
  0.00000000E+00  0.00000000E+00  0.00000000E+00
  0.00000000E+00  0.00000000E+00  0.00000000E+00
  0.00000000E+00  0.00000000E+00  0.00000000E+00
  0.00000000E+00  0.00000000E+00  0.00000000E+00
  0.00000000E+00  0.00000000E+00  0.00000000E+00
  0.00000000E+00  0.00000000E+00  0.00000000E+00
  0.00000000E+00  0.00000000E+00  0.00000000E+00
  0.00000000E+00  0.00000000E+00  0.00000000E+00
  0.00000000E+00  0.00000000E+00  0.00000000E+00
  0.00000000E+00  0.00000000E+00  0.00000000E+00
  0.00000000E+00  0.00000000E+00  0.00000000E+00
  0.00000000E+00  0.00000000E+00  0.00000000E+00
  0.00000000E+00  0.00000000E+00  0.00000000E+00
  0.00000000E+00  0.00000000E+00  0.00000000E+00
  0.00000000E+00  0.00000000E+00  0.00000000E+00
  0.00000000E+00  0.00000000E+00  0.00000000E+00
  0.00000000E+00  0.00000000E+00  0.00000000E+00
  0.00000000E+00  0.00000000E+00  0.00000000E+00
  0.00000000E+00  0.00000000E+00  0.00000000E+00
  0.00000000E+00  0.00000000E+00  0.00000000E+00
  0.00000000E+00  0.00000000E+00  0.00000000E+00
  0.00000000E+00  0.00000000E+00  0.00000000E+00
  0.00000000E+00  0.00000000E+00  0.00000000E+00
  0.00000000E+00  0.00000000E+00  0.00000000E+00
  0.00000000E+00  0.00000000E+00  0.00000000E+00
  0.00000000E+00  0.00000000E+00  0.00000000E+00
  0.00000000E+00  0.00000000E+00  0.00000000E+00
  0.00000000E+00  0.00000000E+00  0.00000000E+00
  0.00000000E+00  0.00000000E+00  0.00000000E+00
  0.00000000E+00  0.00000000E+00  0.00000000E+00
  0.00000000E+00  0.00000000E+00  0.00000000E+00
  0.00000000E+00  0.00000000E+00  0.00000000E+00
  0.00000000E+00  0.00000000E+00  0.00000000E+00
  0.00000000E+00  0.00000000E+00  0.00000000E+00
  0.00000000E+00  0.00000000E+00  0.00000000E+00
  0.00000000E+00  0.00000000E+00  0.00000000E+00
  0.00000000E+00  0.00000000E+00  0.00000000E+00
  0.00000000E+00  0.00000000E+00  0.00000000E+00
  0.00000000E+00  0.00000000E+00  0.00000000E+00
  0.00000000E+00  0.00000000E+00  0.00000000E+00
  0.00000000E+00  0.00000000E+00  0.00000000E+00
  0.00000000E+00  0.00000000E+00  0.00000000E+00
  0.00000000E+00  0.00000000E+00  0.00000000E+00
  0.00000000E+00  0.00000000E+00  0.00000000E+00
  0.00000000E+00  0.00000000E+00  0.00000000E+00
  0.00000000E+00  0.00000000E+00  0.00000000E+00
  0.00000000E+00  0.00000000E+00  0.00000000E+00
  0.00000000E+00  0.00000000E+00  0.00000000E+00
  0.00000000E+00  0.00000000E+00  0.00000000E+00
  0.00000000E+00  0.00000000E+00  0.00000000E+00
  0.00000000E+00  0.00000000E+00  0.00000000E+00
  0.00000000E+00  0.00000000E+00  0.00000000E+00
  0.00000000E+00  0.00000000E+00  0.00000000E+00
  0.00000000E+00  0.00000000E+00  0.00000000E+00
  0.00000000E+00  0.00000000E+00  0.00000000E+00
  0.00000000E+00  0.00000000E+00  0.00000000E+00
  0.00000000E+00  0.00000000E+00  0.00000000E+00
  0.00000000E+00  0.00000000E+00  0.00000000E+00
  0.00000000E+00  0.00000000E+00  0.00000000E+00
  0.00000000E+00  0.00000000E+00  0.00000000E+00
  0.00000000E+00  0.00000000E+00  0.00000000E+00
  0.00000000E+00  0.00000000E+00  0.00000000E+00
  0.00000000E+00  0.00000000E+00  0.00000000E+00
  0.00000000E+00  0.00000000E+00  0.00000000E+00
  0.00000000E+00  0.00000000E+00  0.00000000E+00
  0.00000000E+00  0.00000000E+00  0.00000000E+00
  0.00000000E+00  0.00000000E+00  0.00000000E+00
  0.00000000E+00  0.00000000E+00  0.00000000E+00
  0.00000000E+00  0.00000000E+00  0.00000000E+00
  0.00000000E+00  0.00000000E+00  0.00000000E+00
  0.00000000E+00  0.00000000E+00  0.00000000E+00
  0.00000000E+00  0.00000000E+00  0.00000000E+00
  0.00000000E+00  0.00000000E+00  0.00000000E+00
  0.00000000E+00  0.00000000E+00  0.00000000E+00
  0.00000000E+00  0.00000000E+00  0.00000000E+00
  0.00000000E+00  0.00000000E+00  0.00000000E+00
  0.00000000E+00  0.00000000E+00  0.00000000E+00
  0.00000000E+00  0.00000000E+00  0.00000000E+00
  0.00000000E+00  0.00000000E+00  0.00000000E+00
  0.00000000E+00  0.00000000E+00  0.00000000E+00
  0.00000000E+00  0.00000000E+00  0.00000000E+00
  0.00000000E+00  0.00000000E+00  0.00000000E+00
  0.00000000E+00  0.00000000E+00  0.00000000E+00
  0.00000000E+00  0.00000000E+00  0.00000000E+00
  0.00000000E+00  0.00000000E+00  0.00000000E+00
  0.00000000E+00  0.00000000E+00  0.00000000E+00
  0.00000000E+00  0.00000000E+00  0.00000000E+00
  0.00000000E+00  0.00000000E+00  0.00000000E+00
  0.00000000E+00  0.00000000E+00  0.00000000E+00
  0.00000000E+00  0.00000000E+00  0.00000000E+00
  0.00000000E+00  0.00000000E+00  0.00000000E+00
  0.00000000E+00  0.00000000E+00  0.00000000E+00
