Mo  S                                   
   1.00000000000000     
    33.0000000000000000    0.0000000000000000    0.0000000000000000
     0.0000000000000000   25.5200004577999984    0.0000000000000000
     0.0000000000000000    0.0000000000000000   17.4729003905999996
   Mo   S    O    C 
    48    97     1     1
Direct
  0.2848363667686352  0.1035732902945706  0.4983786174941472
  0.3689402344591125  0.0357127630474002  0.4988922873291569
  0.2868901946433781  0.2143814215404832  0.4982948908188330
  0.3692097415460573  0.1603768623667562  0.4986418707879141
  0.4517497275342155  0.0981097106821585  0.4991037421324076
  0.5345376204367803  0.0356896782618928  0.4997996712299168
  0.2871406384566837  0.3533263405499180  0.4985367767032907
  0.3677065180397265  0.2857641994199714  0.4986773747281609
  0.4515899432966817  0.2233253280737427  0.4989908996738065
  0.5344161002104175  0.1604723992586878  0.4996935547445785
  0.6164266856456259  0.0980561229946606  0.5013740662817969
  0.2891462785163426  0.4647511134555252  0.4988882008681104
  0.3703298765577724  0.4099584959472879  0.4990214077683503
  0.4518635593690824  0.3476107239123927  0.4991799735002932
  0.5346762050692924  0.2855838386475066  0.4997300478693262
  0.2871597712793816  0.6071333823503023  0.4991805201113550
  0.3677173487981909  0.5356134104336905  0.4994475416083271
  0.4515247795346130  0.4730574407159329  0.4996168043374281
  0.5344125520978358  0.4102863093246661  0.4998860417669976
  0.2850828774682029  0.7171120361357992  0.4991941476118847
  0.3690698293093130  0.6606648319850599  0.4996846368005746
  0.4514482960734478  0.5977204835184585  0.5000177615063907
  0.5345341270393142  0.5355334053725993  0.5001147879566892
  0.4517859901280515  0.7229227289808665  0.5001338129944441
  0.5343883020866308  0.6601344318245901  0.5002128248765576
  0.6179237436280978  0.2229557888613473  0.5012998634927476
  0.6998068905304582  0.0370714545861639  0.5000417945094301
  0.6165037992829400  0.3479633214650352  0.5013412141353569
  0.6997696615479283  0.1588758337757125  0.5076928207011464
  0.6178795524078490  0.4728404071405508  0.5003953539806091
  0.6997957471443326  0.2870369161839008  0.5077583326634569
  0.6164717457785426  0.5978574480214112  0.4993135663188822
  0.6998701326362626  0.4088931755853644  0.4997599702966421
  0.6179088935121383  0.7227921061999150  0.4993942014912027
  0.6998154955527744  0.5366655124252027  0.5014755865554977
  0.6998409244664855  0.6584844689313453  0.4936765533780884
  0.2848199554528015  0.8555166642254938  0.4989624044367071
  0.3690069348900101  0.7854730242297455  0.4996161036331086
  0.2847602016175060  0.9654048335787094  0.4986774075113492
  0.3689784559749962  0.9105744261334662  0.4992964902569081
  0.4516222754813222  0.8480150161489646  0.4999334713456106
  0.5345729613937608  0.7855863937344785  0.5001769447830069
  0.4516108115547902  0.9730854955063398  0.4995024376358761
  0.5344355671756544  0.9103580041179298  0.5000353672808751
  0.6164849589295454  0.8479462348897153  0.4993665291441676
  0.6178788963164661  0.9730000852032593  0.5003559592121424
  0.6997960746556000  0.7870895272409756  0.4934667334899513
  0.6998103490969683  0.9089469822068639  0.5020494188269276
  0.3114442556613592  0.0350882810741626  0.4127616918893608
  0.3112223022582230  0.0352569900795902  0.5844958809219649
  0.3152636608883832  0.1587869690091694  0.4044563560097598
  0.3150483501065745  0.1588473776134421  0.5924101614193995
  0.3966619110114868  0.0976683389200703  0.4094641431807957
  0.3964364039766408  0.0978257084009055  0.5882704178217665
  0.4793869084505226  0.0354051795937020  0.4101095921129684
  0.4790582640893246  0.0355919152945178  0.5887754414604239
  0.3085489178408669  0.2839849423319725  0.4120724343441328
  0.3083789832570469  0.2838933428142711  0.5848431234379384
  0.3961051678808861  0.2240336971046409  0.4098850275082588
  0.3958751402913211  0.2240023882202338  0.5876118054098614
  0.4792436769633292  0.1607181378678853  0.4097938785774627
  0.4788266309804304  0.1607652836826940  0.5886416617868305
  0.5621157495070260  0.0981729938534724  0.4103336410338914
  0.5612121878418808  0.0979998004089855  0.5901061451361226
  0.3166220025514394  0.4085227251788521  0.4054169695995016
  0.3164251087158765  0.4082777958056252  0.5921956504966139
  0.3967590597779193  0.3469905204487408  0.4093171823553964
  0.3965378331379626  0.3467882395920625  0.5885607656483620
  0.4796496829688318  0.2853975309132241  0.4097914221931959
  0.4792413268870845  0.2853019124030979  0.5887297710254614
  0.5628867956726425  0.2229521485744539  0.4109680875392077
  0.5617649032058875  0.2229329966022781  0.5892477468589020
  0.6452693851816830  0.0355389654244681  0.4117824077291850
  0.6458252983932704  0.0352442078052722  0.5900934371234827
  0.6474002716742309  0.1604278065117827  0.4138829741290544
  0.6437674366235795  0.1607713596549297  0.5920802694729300
  0.3080595936306934  0.5368416902040742  0.4121551459504204
  0.3077929000778165  0.5366931071936369  0.5861814526393669
  0.3962179988167852  0.4740603637149374  0.4099879951378420
  0.3959896747380015  0.4738076386296739  0.5887485989550425
  0.4792061583020353  0.4105762983114286  0.4101525579077237
  0.4788832487248265  0.4103663092448295  0.5889160419250907
  0.5621916715912652  0.3479320857439280  0.4103438448519228
  0.5613353227205330  0.3480900460764375  0.5901722909903606
  0.3154091734912114  0.6622221819862516  0.4049629395188242
  0.3151048528246013  0.6622051793332961  0.5937880555307925
  0.3960304101327995  0.5971989699259121  0.4107270924659776
  0.3957737185518310  0.5970531245557006  0.5887443749465580
  0.4792692649213672  0.5354867346458195  0.4106093012627236
  0.4791200277384545  0.5353006172104323  0.5893005113821620
  0.5623442926531482  0.4729187241490761  0.4110371581205677
  0.5621163539275503  0.4728221228218520  0.5892574215401015
  0.3966686935265841  0.7233308897685787  0.4105312383440221
  0.3964048721815669  0.7233817153208315  0.5891430860025368
  0.4790344312736098  0.6603067309432851  0.4107496977649398
  0.4789770183183123  0.6602565423834862  0.5896083257988903
  0.5614969709517580  0.5978008557446424  0.4100528765044477
  0.5619202534428257  0.5979753426425063  0.5898706002295765
  0.5618947575676092  0.7228001669667347  0.4110247519306203
  0.5625481875596421  0.7228313482591144  0.5891104014160820
  0.6474560792753373  0.2855059520506270  0.4138985208442739
  0.6437631945365048  0.2851530343624666  0.5920618753683337
  0.7271780550827377  0.0977770567557096  0.4166930906650822
  0.7256036736434250  0.0981207957132428  0.5927545399765434
  0.6452638044382458  0.4104394908620971  0.4116705196979404
  0.6460376843298213  0.4106424509943276  0.5900699634063183
  0.7487677436156946  0.2229465927275403  0.5023891487514698
  0.6460946177791388  0.5350245218385078  0.4109001366046405
  0.6450450191010575  0.5353566556821765  0.5892194333367267
  0.7272632001230293  0.3481973345639443  0.4166263033371732
  0.7257012629543916  0.3477066737577340  0.5926330430941975
  0.6440336378238117  0.6606003792937378  0.4088647438080926
  0.6472265057950164  0.6602701668750689  0.5870306201595099
  0.7490890936693565  0.4727928801675498  0.5018231088186642
  0.7258763822496549  0.5977114734524882  0.4089206880986248
  0.7270013251041894  0.5974240106363898  0.5849588092132582
  0.7486078925853655  0.7228318906352913  0.4995154750273060
  0.2287947846865075  0.1689418693431427  0.4980955586060481
  0.2289892528959681  0.6525952143887174  0.4989040510725390
  0.2345817937444659  0.0378456904019790  0.4983160662257077
  0.3115552246282252  0.7857699809062015  0.4134725694484076
  0.3112727970369301  0.7858983316648162  0.5850610387721147
  0.3145525587977361  0.9104103334222954  0.4051738118938088
  0.3142507434581024  0.9106282390310217  0.5928097571776139
  0.3963656015356827  0.8477175506896407  0.4103183595847792
  0.3960963544915952  0.8479190698212123  0.5889485685905257
  0.4792814333720093  0.7854471290450715  0.4108314715100275
  0.4792141135518780  0.7855478248551738  0.5894551152530927
  0.3963172079075274  0.9732243614970273  0.4099609069262148
  0.3960635438471451  0.9734732662285641  0.5885025658287560
  0.4791296859773338  0.9104541495812931  0.4104429622656934
  0.4789663456993720  0.9106634597749993  0.5892705799665080
  0.5615294348947494  0.8480854664460821  0.4100570827453690
  0.5619031832568697  0.8479025187204555  0.5898108605834711
  0.5623694750972152  0.9729388257245155  0.4109728895526155
  0.5620968791157864  0.9730310335565526  0.5891498838917049
  0.6439152059819589  0.7850715280996593  0.4088988257837228
  0.6472622165738120  0.7854196446613837  0.5869596267274929
  0.6462944097537662  0.9107128289248568  0.4110588003798851
  0.6448967246803118  0.9104988305027879  0.5893626440549692
  0.7259182728885974  0.8477812168804203  0.4091437059633656
  0.7269376505598342  0.8482522333847015  0.5852324076870493
  0.7489087461742757  0.9729818251983920  0.5001420334615410
  0.2279597081739355  0.9106412118663688  0.4984414729975716
  0.2348344491848127  0.7835490651283585  0.4988824256041810
  0.2187814943871096  0.3802515274362811  0.4973118102298842
  0.2414433567781916  0.4185870799976693  0.4981488210564423
 
  0.00000000E+00  0.00000000E+00  0.00000000E+00
  0.00000000E+00  0.00000000E+00  0.00000000E+00
  0.00000000E+00  0.00000000E+00  0.00000000E+00
  0.00000000E+00  0.00000000E+00  0.00000000E+00
  0.00000000E+00  0.00000000E+00  0.00000000E+00
  0.00000000E+00  0.00000000E+00  0.00000000E+00
  0.00000000E+00  0.00000000E+00  0.00000000E+00
  0.00000000E+00  0.00000000E+00  0.00000000E+00
  0.00000000E+00  0.00000000E+00  0.00000000E+00
  0.00000000E+00  0.00000000E+00  0.00000000E+00
  0.00000000E+00  0.00000000E+00  0.00000000E+00
  0.00000000E+00  0.00000000E+00  0.00000000E+00
  0.00000000E+00  0.00000000E+00  0.00000000E+00
  0.00000000E+00  0.00000000E+00  0.00000000E+00
  0.00000000E+00  0.00000000E+00  0.00000000E+00
  0.00000000E+00  0.00000000E+00  0.00000000E+00
  0.00000000E+00  0.00000000E+00  0.00000000E+00
  0.00000000E+00  0.00000000E+00  0.00000000E+00
  0.00000000E+00  0.00000000E+00  0.00000000E+00
  0.00000000E+00  0.00000000E+00  0.00000000E+00
  0.00000000E+00  0.00000000E+00  0.00000000E+00
  0.00000000E+00  0.00000000E+00  0.00000000E+00
  0.00000000E+00  0.00000000E+00  0.00000000E+00
  0.00000000E+00  0.00000000E+00  0.00000000E+00
  0.00000000E+00  0.00000000E+00  0.00000000E+00
  0.00000000E+00  0.00000000E+00  0.00000000E+00
  0.00000000E+00  0.00000000E+00  0.00000000E+00
  0.00000000E+00  0.00000000E+00  0.00000000E+00
  0.00000000E+00  0.00000000E+00  0.00000000E+00
  0.00000000E+00  0.00000000E+00  0.00000000E+00
  0.00000000E+00  0.00000000E+00  0.00000000E+00
  0.00000000E+00  0.00000000E+00  0.00000000E+00
  0.00000000E+00  0.00000000E+00  0.00000000E+00
  0.00000000E+00  0.00000000E+00  0.00000000E+00
  0.00000000E+00  0.00000000E+00  0.00000000E+00
  0.00000000E+00  0.00000000E+00  0.00000000E+00
  0.00000000E+00  0.00000000E+00  0.00000000E+00
  0.00000000E+00  0.00000000E+00  0.00000000E+00
  0.00000000E+00  0.00000000E+00  0.00000000E+00
  0.00000000E+00  0.00000000E+00  0.00000000E+00
  0.00000000E+00  0.00000000E+00  0.00000000E+00
  0.00000000E+00  0.00000000E+00  0.00000000E+00
  0.00000000E+00  0.00000000E+00  0.00000000E+00
  0.00000000E+00  0.00000000E+00  0.00000000E+00
  0.00000000E+00  0.00000000E+00  0.00000000E+00
  0.00000000E+00  0.00000000E+00  0.00000000E+00
  0.00000000E+00  0.00000000E+00  0.00000000E+00
  0.00000000E+00  0.00000000E+00  0.00000000E+00
  0.00000000E+00  0.00000000E+00  0.00000000E+00
  0.00000000E+00  0.00000000E+00  0.00000000E+00
  0.00000000E+00  0.00000000E+00  0.00000000E+00
  0.00000000E+00  0.00000000E+00  0.00000000E+00
  0.00000000E+00  0.00000000E+00  0.00000000E+00
  0.00000000E+00  0.00000000E+00  0.00000000E+00
  0.00000000E+00  0.00000000E+00  0.00000000E+00
  0.00000000E+00  0.00000000E+00  0.00000000E+00
  0.00000000E+00  0.00000000E+00  0.00000000E+00
  0.00000000E+00  0.00000000E+00  0.00000000E+00
  0.00000000E+00  0.00000000E+00  0.00000000E+00
  0.00000000E+00  0.00000000E+00  0.00000000E+00
  0.00000000E+00  0.00000000E+00  0.00000000E+00
  0.00000000E+00  0.00000000E+00  0.00000000E+00
  0.00000000E+00  0.00000000E+00  0.00000000E+00
  0.00000000E+00  0.00000000E+00  0.00000000E+00
  0.00000000E+00  0.00000000E+00  0.00000000E+00
  0.00000000E+00  0.00000000E+00  0.00000000E+00
  0.00000000E+00  0.00000000E+00  0.00000000E+00
  0.00000000E+00  0.00000000E+00  0.00000000E+00
  0.00000000E+00  0.00000000E+00  0.00000000E+00
  0.00000000E+00  0.00000000E+00  0.00000000E+00
  0.00000000E+00  0.00000000E+00  0.00000000E+00
  0.00000000E+00  0.00000000E+00  0.00000000E+00
  0.00000000E+00  0.00000000E+00  0.00000000E+00
  0.00000000E+00  0.00000000E+00  0.00000000E+00
  0.00000000E+00  0.00000000E+00  0.00000000E+00
  0.00000000E+00  0.00000000E+00  0.00000000E+00
  0.00000000E+00  0.00000000E+00  0.00000000E+00
  0.00000000E+00  0.00000000E+00  0.00000000E+00
  0.00000000E+00  0.00000000E+00  0.00000000E+00
  0.00000000E+00  0.00000000E+00  0.00000000E+00
  0.00000000E+00  0.00000000E+00  0.00000000E+00
  0.00000000E+00  0.00000000E+00  0.00000000E+00
  0.00000000E+00  0.00000000E+00  0.00000000E+00
  0.00000000E+00  0.00000000E+00  0.00000000E+00
  0.00000000E+00  0.00000000E+00  0.00000000E+00
  0.00000000E+00  0.00000000E+00  0.00000000E+00
  0.00000000E+00  0.00000000E+00  0.00000000E+00
  0.00000000E+00  0.00000000E+00  0.00000000E+00
  0.00000000E+00  0.00000000E+00  0.00000000E+00
  0.00000000E+00  0.00000000E+00  0.00000000E+00
  0.00000000E+00  0.00000000E+00  0.00000000E+00
  0.00000000E+00  0.00000000E+00  0.00000000E+00
  0.00000000E+00  0.00000000E+00  0.00000000E+00
  0.00000000E+00  0.00000000E+00  0.00000000E+00
  0.00000000E+00  0.00000000E+00  0.00000000E+00
  0.00000000E+00  0.00000000E+00  0.00000000E+00
  0.00000000E+00  0.00000000E+00  0.00000000E+00
  0.00000000E+00  0.00000000E+00  0.00000000E+00
  0.00000000E+00  0.00000000E+00  0.00000000E+00
  0.00000000E+00  0.00000000E+00  0.00000000E+00
  0.00000000E+00  0.00000000E+00  0.00000000E+00
  0.00000000E+00  0.00000000E+00  0.00000000E+00
  0.00000000E+00  0.00000000E+00  0.00000000E+00
  0.00000000E+00  0.00000000E+00  0.00000000E+00
  0.00000000E+00  0.00000000E+00  0.00000000E+00
  0.00000000E+00  0.00000000E+00  0.00000000E+00
  0.00000000E+00  0.00000000E+00  0.00000000E+00
  0.00000000E+00  0.00000000E+00  0.00000000E+00
  0.00000000E+00  0.00000000E+00  0.00000000E+00
  0.00000000E+00  0.00000000E+00  0.00000000E+00
  0.00000000E+00  0.00000000E+00  0.00000000E+00
  0.00000000E+00  0.00000000E+00  0.00000000E+00
  0.00000000E+00  0.00000000E+00  0.00000000E+00
  0.00000000E+00  0.00000000E+00  0.00000000E+00
  0.00000000E+00  0.00000000E+00  0.00000000E+00
  0.00000000E+00  0.00000000E+00  0.00000000E+00
  0.00000000E+00  0.00000000E+00  0.00000000E+00
  0.00000000E+00  0.00000000E+00  0.00000000E+00
  0.00000000E+00  0.00000000E+00  0.00000000E+00
  0.00000000E+00  0.00000000E+00  0.00000000E+00
  0.00000000E+00  0.00000000E+00  0.00000000E+00
  0.00000000E+00  0.00000000E+00  0.00000000E+00
  0.00000000E+00  0.00000000E+00  0.00000000E+00
  0.00000000E+00  0.00000000E+00  0.00000000E+00
  0.00000000E+00  0.00000000E+00  0.00000000E+00
  0.00000000E+00  0.00000000E+00  0.00000000E+00
  0.00000000E+00  0.00000000E+00  0.00000000E+00
  0.00000000E+00  0.00000000E+00  0.00000000E+00
  0.00000000E+00  0.00000000E+00  0.00000000E+00
  0.00000000E+00  0.00000000E+00  0.00000000E+00
  0.00000000E+00  0.00000000E+00  0.00000000E+00
  0.00000000E+00  0.00000000E+00  0.00000000E+00
  0.00000000E+00  0.00000000E+00  0.00000000E+00
  0.00000000E+00  0.00000000E+00  0.00000000E+00
  0.00000000E+00  0.00000000E+00  0.00000000E+00
  0.00000000E+00  0.00000000E+00  0.00000000E+00
  0.00000000E+00  0.00000000E+00  0.00000000E+00
  0.00000000E+00  0.00000000E+00  0.00000000E+00
  0.00000000E+00  0.00000000E+00  0.00000000E+00
  0.00000000E+00  0.00000000E+00  0.00000000E+00
  0.00000000E+00  0.00000000E+00  0.00000000E+00
  0.00000000E+00  0.00000000E+00  0.00000000E+00
  0.00000000E+00  0.00000000E+00  0.00000000E+00
  0.00000000E+00  0.00000000E+00  0.00000000E+00
  0.00000000E+00  0.00000000E+00  0.00000000E+00
  0.00000000E+00  0.00000000E+00  0.00000000E+00
  0.00000000E+00  0.00000000E+00  0.00000000E+00
