W48 Se100                               
   1.00000000000000     
    33.0000000000000000    0.0000000000000000    0.0000000000000000
     0.0000000000000000   26.2560005188000005    0.0000000000000000
     0.0000000000000000    0.0000000000000000   18.1299999999999990
   W    Se
    48   100
Direct
  0.2807357115891733  0.0419893161809810  0.5000084093382995
  0.2860736448731132  0.2774447809374152  0.4999798106369653
  0.2807383923943547  0.5419863786102894  0.4999883563368144
  0.2860754187960808  0.7774425324447947  0.5000166836577833
  0.4539882273781117  0.0356234961589124  0.5000047223471711
  0.4549062905228993  0.2857664702666369  0.4999989277403429
  0.4539891505069278  0.5356234942443407  0.4999985383406980
  0.4549070373792503  0.7857651340002576  0.4999991913328827
  0.6274619727565494  0.0354904219816277  0.5000065324177925
  0.6271075918038420  0.2855220266541920  0.4999957518919160
  0.6274610757302383  0.5354875381643822  0.5000011915998712
  0.6271103685874166  0.7855236308517135  0.5000046084474192
  0.2860139108713113  0.1685561090724690  0.4999803448636584
  0.2807589162804476  0.4038637866297350  0.5000053963198070
  0.2860187711104132  0.6685507663489432  0.5000146952951852
  0.2807560541745886  0.9038667593218861  0.4999879605526019
  0.4547505369603329  0.1602680817966018  0.5000035731335686
  0.4541961077701799  0.4102153803565187  0.5000003450775097
  0.4547504661374902  0.6602692665571936  0.4999975266770349
  0.4541933609758715  0.9102125672992329  0.5000023817497805
  0.6275792595716041  0.1600275234811619  0.5000017202604852
  0.6275293077127770  0.4109656056627671  0.4999981515730596
  0.6275792788842907  0.6600291820306055  0.5000021553889624
  0.6275297459262603  0.9109644389860634  0.5000032621714467
  0.3687806979739250  0.2230166500554063  0.4999988232343568
  0.3664644573500766  0.4729513096451186  0.4999985029779950
  0.3687814253698747  0.7230163237518923  0.4999975613587537
  0.3664608131495868  0.9729520651779637  0.4999989368111812
  0.5417374392401655  0.2227083948995343  0.5000014972231384
  0.5404379666997983  0.4731516966176699  0.5000005836112038
  0.5417400308891160  0.7227083883208039  0.5000026925175405
  0.5404380974164624  0.9731509217023984  0.5000067443007907
  0.7151183283080513  0.2140422139994911  0.4999971243407231
  0.7141898175182533  0.4765242042536997  0.4999972373094224
  0.7151243730092318  0.7140513011498300  0.5000122102260534
  0.7141903080653407  0.9765328484240925  0.5000017031007502
  0.3684598390942995  0.0986713566044628  0.5000004784560375
  0.3685768887760474  0.3473124830621543  0.4999961175607339
  0.3684613808948569  0.5986707971838712  0.4999956889618389
  0.3685754222970345  0.8473110812480726  0.5000005247547037
  0.5405691768588170  0.0977057218519093  0.5000046492203509
  0.5415892877591020  0.3483624453094123  0.4999990143903048
  0.5405699643848720  0.5977061087869799  0.5000011696290656
  0.5415916919497121  0.8483627815379080  0.5000039184720038
  0.7141981936926030  0.0943414462101941  0.5000004606336574
  0.7151026694022988  0.3568811548037090  0.4999950374204687
  0.7142013201803081  0.5943323323998015  0.5000014397907080
  0.7151063572308303  0.8568707845955714  0.5000074799920782
  0.2526047405914085  0.1036253909582214  0.5890192566512411
  0.2526557861113758  0.3422837802417433  0.5891069509901001
  0.2526281533989589  0.6036401430272917  0.5890578158667310
  0.2526740860944159  0.8422634394492761  0.5891362263781801
  0.4255756661901842  0.0980135809983267  0.5936294694413675
  0.4257442850744013  0.3479517734745485  0.5936355770378015
  0.4255768669110864  0.5980136048581102  0.5936245719516933
  0.4257439846500333  0.8479499646526705  0.5936398974343291
  0.5981493719102602  0.0978129662249856  0.5928613029193954
  0.5991795905980197  0.3481977836357686  0.5934410950746596
  0.5981491799132712  0.5978102411615396  0.5928591851008065
  0.5991824277108790  0.8481981669607137  0.5934526024043478
  0.4264119271236240  0.2230614626639067  0.5932906826624915
  0.4245184590039202  0.4728359421215416  0.5925389382696054
  0.4264160995911581  0.7230550651559895  0.5932858865256776
  0.4245141671144523  0.9728352428503300  0.5925406295592737
  0.5992903805816638  0.2228454955312955  0.5934988736071674
  0.5980746476281738  0.4731778791750898  0.5928144152667016
  0.5992919862750199  0.7228461392708354  0.5935025263524309
  0.5980749744516842  0.9731769526318672  0.5928173298549169
  0.3372293084784346  0.0358298035798725  0.5926665320284883
  0.3397744503543692  0.2846290899348105  0.5954904710887234
  0.3372268402197278  0.5358298409884270  0.5926590347496798
  0.3397937361473069  0.7846210156656142  0.5955074929416497
  0.5114835734233836  0.0353901404018160  0.5933579876049180
  0.5127148067683720  0.2855415990944152  0.5927878721025408
  0.5114834001360222  0.5353906491038956  0.5933511035935837
  0.5127168518472303  0.7855412540303774  0.5927883747776121
  0.6856536106765247  0.0354502407965143  0.5966183122750550
  0.6874672615226345  0.2854863412822013  0.5884459786525511
  0.6856531673057589  0.5354434662783305  0.5966093052777097
  0.6874673805351676  0.7854953183035320  0.5884686953872844
  0.3396935782809152  0.1614025813692876  0.5954884687649766
  0.3372447077249205  0.4101163972685242  0.5926736885711890
  0.3397156828845951  0.6614032420737317  0.5954959543824074
  0.3372376675031319  0.9101156951367244  0.5926768769349522
  0.5122843407295505  0.1605320811123789  0.5931744860925008
  0.5118940429273167  0.4104507410723244  0.5930973315604362
  0.5122830229535822  0.6605302586007511  0.5931692784048010
  0.5118932134606524  0.9104504614898943  0.5930974735956482
  0.6855200725132065  0.1579833830831419  0.5962866834831928
  0.6854832695567481  0.4129519299822419  0.5962711420080353
  0.6855214322241210  0.6579837721502741  0.5962804187268844
  0.6854842101292888  0.9129549573269102  0.5962681876912654
  0.2526260796017823  0.1036419444446679  0.4109409718507351
  0.2526735189162608  0.3422662342853968  0.4108595336605845
  0.2526061422515014  0.6036236154591492  0.4109771237783235
  0.2526514197425698  0.8422795085020738  0.4108919014557273
  0.4255754723906833  0.0980145652156281  0.4063717357001977
  0.4257458922522019  0.3479524729060870  0.4063559282789768
  0.4255764859480706  0.5980147406466401  0.4063685430705704
  0.4257442759827299  0.8479495534054777  0.4063588887329885
  0.5981471797555571  0.0978113749289946  0.4071460943433109
  0.5991810371547714  0.3481956687394785  0.4065470103667721
  0.5981503826985204  0.5978127499343699  0.4071380633648118
  0.5991828911410693  0.8481958519041228  0.4065498758283113
  0.2261896317153500  0.2230485296668405  0.5000481286324998
  0.2307979950284604  0.4728964556631681  0.4999963897256876
  0.2261944902571926  0.7230441724729246  0.4999608558212003
  0.2307944592721825  0.9728969569566104  0.4999998935507222
  0.4264147342551610  0.2230556304420688  0.4067128427653799
  0.4245164260082532  0.4728343426777997  0.4074542904275802
  0.4264130336797578  0.7230605639519183  0.4067053872742008
  0.4245156037313293  0.9728351117466261  0.4074617872524442
  0.5992872421928723  0.2228427405754161  0.4065016328441402
  0.5980746033156521  0.4731772626218600  0.4071748510439619
  0.5992942940394954  0.7228488816420082  0.4065015620242463
  0.5980757176546021  0.9731776085509409  0.4071842257966125
  0.3372245598690000  0.0358333444703476  0.4073380020090269
  0.3397942997227617  0.2846218590670162  0.4044881445735129
  0.3372322334528945  0.5358250414483194  0.4073292437065419
  0.3397783114136672  0.7846252587341098  0.4045047102946100
  0.5114846947188880  0.0353905045211249  0.4066439949846767
  0.5127154677884391  0.2855401997783318  0.4072068704851048
  0.5114847787352161  0.5353922635870632  0.4066406486450731
  0.5127176990092579  0.7855398556491338  0.4072094038142140
  0.6856506678364838  0.0354509792861180  0.4033925242499805
  0.6874689701293804  0.2854858604231794  0.4115439513289516
  0.6856531536322237  0.5354449330760929  0.4033878957058832
  0.6874740498371708  0.7854886448050635  0.4115477992547412
  0.3397131502970012  0.1614066600997006  0.4045035977456664
  0.3372402795005698  0.4101152830603496  0.4073179586839046
  0.3396986710223686  0.6614009118482613  0.4045073187635779
  0.3372437043069993  0.9101164127849870  0.4073201616441082
  0.5122820461976261  0.1605304364171047  0.4068299845659382
  0.5118937874859313  0.4104513967218182  0.4068943065102957
  0.5122833172801364  0.6605322550680555  0.4068291760003433
  0.5118942579686774  0.9104509375106531  0.4068996174808746
  0.6855188302044795  0.1579824986032250  0.4037116578000521
  0.6854851622950591  0.4129507866198381  0.4037202590265565
  0.6855232508066536  0.6579871249410232  0.4037254061209268
  0.6854856027379270  0.9129519607488561  0.4037352586469112
  0.7738527946565199  0.9129683380731919  0.4999964596051498
  0.7679989609901057  0.7854165566834297  0.5000700768032544
  0.7738434493651667  0.6577932045240900  0.4999999408093103
  0.7736008797994458  0.5353704227082403  0.5000008418212829
  0.7738560428046526  0.4129739949184170  0.4999977388467940
  0.7679833613993452  0.2854149606779828  0.4999987837601481
  0.7738401762225990  0.1577912191137258  0.4999951850783120
  0.7736014240963982  0.0353705818902910  0.5000013461543560
 
  0.00000000E+00  0.00000000E+00  0.00000000E+00
  0.00000000E+00  0.00000000E+00  0.00000000E+00
  0.00000000E+00  0.00000000E+00  0.00000000E+00
  0.00000000E+00  0.00000000E+00  0.00000000E+00
  0.00000000E+00  0.00000000E+00  0.00000000E+00
  0.00000000E+00  0.00000000E+00  0.00000000E+00
  0.00000000E+00  0.00000000E+00  0.00000000E+00
  0.00000000E+00  0.00000000E+00  0.00000000E+00
  0.00000000E+00  0.00000000E+00  0.00000000E+00
  0.00000000E+00  0.00000000E+00  0.00000000E+00
  0.00000000E+00  0.00000000E+00  0.00000000E+00
  0.00000000E+00  0.00000000E+00  0.00000000E+00
  0.00000000E+00  0.00000000E+00  0.00000000E+00
  0.00000000E+00  0.00000000E+00  0.00000000E+00
  0.00000000E+00  0.00000000E+00  0.00000000E+00
  0.00000000E+00  0.00000000E+00  0.00000000E+00
  0.00000000E+00  0.00000000E+00  0.00000000E+00
  0.00000000E+00  0.00000000E+00  0.00000000E+00
  0.00000000E+00  0.00000000E+00  0.00000000E+00
  0.00000000E+00  0.00000000E+00  0.00000000E+00
  0.00000000E+00  0.00000000E+00  0.00000000E+00
  0.00000000E+00  0.00000000E+00  0.00000000E+00
  0.00000000E+00  0.00000000E+00  0.00000000E+00
  0.00000000E+00  0.00000000E+00  0.00000000E+00
  0.00000000E+00  0.00000000E+00  0.00000000E+00
  0.00000000E+00  0.00000000E+00  0.00000000E+00
  0.00000000E+00  0.00000000E+00  0.00000000E+00
  0.00000000E+00  0.00000000E+00  0.00000000E+00
  0.00000000E+00  0.00000000E+00  0.00000000E+00
  0.00000000E+00  0.00000000E+00  0.00000000E+00
  0.00000000E+00  0.00000000E+00  0.00000000E+00
  0.00000000E+00  0.00000000E+00  0.00000000E+00
  0.00000000E+00  0.00000000E+00  0.00000000E+00
  0.00000000E+00  0.00000000E+00  0.00000000E+00
  0.00000000E+00  0.00000000E+00  0.00000000E+00
  0.00000000E+00  0.00000000E+00  0.00000000E+00
  0.00000000E+00  0.00000000E+00  0.00000000E+00
  0.00000000E+00  0.00000000E+00  0.00000000E+00
  0.00000000E+00  0.00000000E+00  0.00000000E+00
  0.00000000E+00  0.00000000E+00  0.00000000E+00
  0.00000000E+00  0.00000000E+00  0.00000000E+00
  0.00000000E+00  0.00000000E+00  0.00000000E+00
  0.00000000E+00  0.00000000E+00  0.00000000E+00
  0.00000000E+00  0.00000000E+00  0.00000000E+00
  0.00000000E+00  0.00000000E+00  0.00000000E+00
  0.00000000E+00  0.00000000E+00  0.00000000E+00
  0.00000000E+00  0.00000000E+00  0.00000000E+00
  0.00000000E+00  0.00000000E+00  0.00000000E+00
  0.00000000E+00  0.00000000E+00  0.00000000E+00
  0.00000000E+00  0.00000000E+00  0.00000000E+00
  0.00000000E+00  0.00000000E+00  0.00000000E+00
  0.00000000E+00  0.00000000E+00  0.00000000E+00
  0.00000000E+00  0.00000000E+00  0.00000000E+00
  0.00000000E+00  0.00000000E+00  0.00000000E+00
  0.00000000E+00  0.00000000E+00  0.00000000E+00
  0.00000000E+00  0.00000000E+00  0.00000000E+00
  0.00000000E+00  0.00000000E+00  0.00000000E+00
  0.00000000E+00  0.00000000E+00  0.00000000E+00
  0.00000000E+00  0.00000000E+00  0.00000000E+00
  0.00000000E+00  0.00000000E+00  0.00000000E+00
  0.00000000E+00  0.00000000E+00  0.00000000E+00
  0.00000000E+00  0.00000000E+00  0.00000000E+00
  0.00000000E+00  0.00000000E+00  0.00000000E+00
  0.00000000E+00  0.00000000E+00  0.00000000E+00
  0.00000000E+00  0.00000000E+00  0.00000000E+00
  0.00000000E+00  0.00000000E+00  0.00000000E+00
  0.00000000E+00  0.00000000E+00  0.00000000E+00
  0.00000000E+00  0.00000000E+00  0.00000000E+00
  0.00000000E+00  0.00000000E+00  0.00000000E+00
  0.00000000E+00  0.00000000E+00  0.00000000E+00
  0.00000000E+00  0.00000000E+00  0.00000000E+00
  0.00000000E+00  0.00000000E+00  0.00000000E+00
  0.00000000E+00  0.00000000E+00  0.00000000E+00
  0.00000000E+00  0.00000000E+00  0.00000000E+00
  0.00000000E+00  0.00000000E+00  0.00000000E+00
  0.00000000E+00  0.00000000E+00  0.00000000E+00
  0.00000000E+00  0.00000000E+00  0.00000000E+00
  0.00000000E+00  0.00000000E+00  0.00000000E+00
  0.00000000E+00  0.00000000E+00  0.00000000E+00
  0.00000000E+00  0.00000000E+00  0.00000000E+00
  0.00000000E+00  0.00000000E+00  0.00000000E+00
  0.00000000E+00  0.00000000E+00  0.00000000E+00
  0.00000000E+00  0.00000000E+00  0.00000000E+00
  0.00000000E+00  0.00000000E+00  0.00000000E+00
  0.00000000E+00  0.00000000E+00  0.00000000E+00
  0.00000000E+00  0.00000000E+00  0.00000000E+00
  0.00000000E+00  0.00000000E+00  0.00000000E+00
  0.00000000E+00  0.00000000E+00  0.00000000E+00
  0.00000000E+00  0.00000000E+00  0.00000000E+00
  0.00000000E+00  0.00000000E+00  0.00000000E+00
  0.00000000E+00  0.00000000E+00  0.00000000E+00
  0.00000000E+00  0.00000000E+00  0.00000000E+00
  0.00000000E+00  0.00000000E+00  0.00000000E+00
  0.00000000E+00  0.00000000E+00  0.00000000E+00
  0.00000000E+00  0.00000000E+00  0.00000000E+00
  0.00000000E+00  0.00000000E+00  0.00000000E+00
  0.00000000E+00  0.00000000E+00  0.00000000E+00
  0.00000000E+00  0.00000000E+00  0.00000000E+00
  0.00000000E+00  0.00000000E+00  0.00000000E+00
  0.00000000E+00  0.00000000E+00  0.00000000E+00
  0.00000000E+00  0.00000000E+00  0.00000000E+00
  0.00000000E+00  0.00000000E+00  0.00000000E+00
  0.00000000E+00  0.00000000E+00  0.00000000E+00
  0.00000000E+00  0.00000000E+00  0.00000000E+00
  0.00000000E+00  0.00000000E+00  0.00000000E+00
  0.00000000E+00  0.00000000E+00  0.00000000E+00
  0.00000000E+00  0.00000000E+00  0.00000000E+00
  0.00000000E+00  0.00000000E+00  0.00000000E+00
  0.00000000E+00  0.00000000E+00  0.00000000E+00
  0.00000000E+00  0.00000000E+00  0.00000000E+00
  0.00000000E+00  0.00000000E+00  0.00000000E+00
  0.00000000E+00  0.00000000E+00  0.00000000E+00
  0.00000000E+00  0.00000000E+00  0.00000000E+00
  0.00000000E+00  0.00000000E+00  0.00000000E+00
  0.00000000E+00  0.00000000E+00  0.00000000E+00
  0.00000000E+00  0.00000000E+00  0.00000000E+00
  0.00000000E+00  0.00000000E+00  0.00000000E+00
  0.00000000E+00  0.00000000E+00  0.00000000E+00
  0.00000000E+00  0.00000000E+00  0.00000000E+00
  0.00000000E+00  0.00000000E+00  0.00000000E+00
  0.00000000E+00  0.00000000E+00  0.00000000E+00
  0.00000000E+00  0.00000000E+00  0.00000000E+00
  0.00000000E+00  0.00000000E+00  0.00000000E+00
  0.00000000E+00  0.00000000E+00  0.00000000E+00
  0.00000000E+00  0.00000000E+00  0.00000000E+00
  0.00000000E+00  0.00000000E+00  0.00000000E+00
  0.00000000E+00  0.00000000E+00  0.00000000E+00
  0.00000000E+00  0.00000000E+00  0.00000000E+00
  0.00000000E+00  0.00000000E+00  0.00000000E+00
  0.00000000E+00  0.00000000E+00  0.00000000E+00
  0.00000000E+00  0.00000000E+00  0.00000000E+00
  0.00000000E+00  0.00000000E+00  0.00000000E+00
  0.00000000E+00  0.00000000E+00  0.00000000E+00
  0.00000000E+00  0.00000000E+00  0.00000000E+00
  0.00000000E+00  0.00000000E+00  0.00000000E+00
  0.00000000E+00  0.00000000E+00  0.00000000E+00
  0.00000000E+00  0.00000000E+00  0.00000000E+00
  0.00000000E+00  0.00000000E+00  0.00000000E+00
  0.00000000E+00  0.00000000E+00  0.00000000E+00
  0.00000000E+00  0.00000000E+00  0.00000000E+00
  0.00000000E+00  0.00000000E+00  0.00000000E+00
  0.00000000E+00  0.00000000E+00  0.00000000E+00
  0.00000000E+00  0.00000000E+00  0.00000000E+00
  0.00000000E+00  0.00000000E+00  0.00000000E+00
  0.00000000E+00  0.00000000E+00  0.00000000E+00
  0.00000000E+00  0.00000000E+00  0.00000000E+00
  0.00000000E+00  0.00000000E+00  0.00000000E+00
  0.00000000E+00  0.00000000E+00  0.00000000E+00
