W48 Se100                               
   1.00000000000000     
    33.0000000000000000    0.0000000000000000    0.0000000000000000
     0.0000000000000000   26.2560005188000005    0.0000000000000000
     0.0000000000000000    0.0000000000000000   18.1299999999999990
   W    Se
    48   100
Direct
  0.2810093781140686  0.0416310741965481  0.5000083774150180
  0.2855182158062333  0.2784595901617586  0.4999837352003985
  0.2810098332989383  0.5416350855431985  0.4999844997566154
  0.2855097948980230  0.7784652185054648  0.5000079503780631
  0.4539893917136364  0.0356185545696251  0.4999736209017160
  0.4549478471184187  0.2859021952351621  0.4999613372299342
  0.4540078581415553  0.5355994997739183  0.4999662954128828
  0.4549560359317328  0.7859092373499178  0.4999677998873698
  0.6272690470957353  0.0354947137843275  0.4999898431326387
  0.6270690230793495  0.2854161745006539  0.4999792263979718
  0.6272610288534141  0.5354861303600038  0.4999780076158167
  0.6270746739693027  0.7854260824241207  0.4999828454969258
  0.2854778710045234  0.1675295500670914  0.4999902181673649
  0.2809072057051217  0.4042122973622397  0.5000091775687833
  0.2854789433011855  0.6675316530189540  0.5000066233728588
  0.2809044197443635  0.9042049652631237  0.4999874131235645
  0.4546560402109958  0.1602643030444506  0.4999670403100324
  0.4543449345888687  0.4102447804387714  0.4999643217244295
  0.4546500330364936  0.6602692577150031  0.4999671178254961
  0.4543354478704563  0.9102347384236386  0.4999751052689475
  0.6273194005980073  0.1600711321043466  0.4999799043016840
  0.6275641833625809  0.4108842582696154  0.4999759294381154
  0.6273173164578019  0.6600737597273115  0.4999795351440041
  0.6275295764245831  0.9108718188435325  0.4999895861902643
  0.3684052024415201  0.2230024551027863  0.4999835960872306
  0.3668745502141148  0.4728288538321673  0.4999871495136431
  0.3683986873833630  0.7230008614061486  0.4999919913085556
  0.3668712511026898  0.9728331328611068  0.4999827560568202
  0.5415579890129855  0.2227841496356700  0.4999682205124542
  0.5404670296361695  0.4731958481531043  0.4999712904914840
  0.5415814832538867  0.7227906855751698  0.4999651925240121
  0.5404552297295305  0.9732013112695576  0.4999789283369543
  0.7150481239279841  0.2142690934505606  0.4999968647364451
  0.7144284761912658  0.4762803782566020  0.4999915742914131
  0.7150780448647899  0.7143491380971417  0.4999950839138464
  0.7143930953213081  0.9763829431354897  0.4999976619643755
  0.3686121284522116  0.0985142609453646  0.4999900451540306
  0.3687540861324320  0.3473243846165783  0.4999845856916421
  0.3686136157619227  0.5985044223685440  0.4999869057556867
  0.3687467812485201  0.8473283801276450  0.4999878599118041
  0.5404330524272080  0.0977591958888878  0.4999787266027466
  0.5416037497579147  0.3483543315238220  0.4999660328672642
  0.5404428986438563  0.5977560053960193  0.4999627082186526
  0.5416186982120481  0.8483633188231677  0.4999773059624804
  0.7142510685537431  0.0945131838962781  0.4999955561142053
  0.7152823609675912  0.3569406715332749  0.4999940576822885
  0.7142833185994466  0.5944930365531129  0.4999974033975237
  0.7152943671555841  0.8568058057406678  0.4999965650051251
  0.2528018819460472  0.1030337199354173  0.5896718692348688
  0.2527440872233981  0.3427857201328968  0.5897080193301381
  0.2527987842338382  0.6030371047442790  0.5896845882532713
  0.2527420955222540  0.8427833186933180  0.5897214979111565
  0.4256165039983353  0.0980116388028958  0.5937080205578482
  0.4258584874231836  0.3479958913556883  0.5936903665264038
  0.4256279151926764  0.5979948651010640  0.5936958779373962
  0.4258457094944765  0.8479883708068906  0.5937006612451106
  0.5979165031418187  0.0978144328882325  0.5930346551902429
  0.5991419497628435  0.3480122621740601  0.5935305440047411
  0.5979193585454223  0.5978035914949864  0.5930533319269091
  0.5991597462909136  0.8480150735646590  0.5935253534596147
  0.4261737687220494  0.2231873533857068  0.5930133419739001
  0.4248204061461935  0.4728092007436793  0.5927437194783857
  0.4261712367770030  0.7231946275285471  0.5930109277662957
  0.4248142162648424  0.9728168754479355  0.5927362914678183
  0.5989825245517910  0.2228398585154477  0.5936829236956325
  0.5979919151106348  0.4731367336592693  0.5930139604979963
  0.5990057720198358  0.7228674493836078  0.5936944867996726
  0.5979940817833412  0.9731356637247311  0.5930044935315451
  0.3375544739241365  0.0356367693313064  0.5927160136275548
  0.3395679020023517  0.2847175006917619  0.5951615369572787
  0.3375441955849393  0.5356321648368779  0.5927174364264043
  0.3395667103731592  0.7847135262612116  0.5951635523013636
  0.5114121504299191  0.0354413008419442  0.5933225938322664
  0.5127012744547629  0.2856369790884478  0.5928340038882989
  0.5114328558642318  0.5354297709923718  0.5933245080611282
  0.5127243707631375  0.7856454830018611  0.5928334443672791
  0.6855247883838071  0.0353669225063524  0.5963894403237260
  0.6876199087172710  0.2857367860806971  0.5882996623358320
  0.6855429631614386  0.5352846144198611  0.5963793567995964
  0.6875936969816906  0.7857606448335340  0.5883659190159118
  0.3395591876341576  0.1611801325587066  0.5951043182977561
  0.3375344677130146  0.4100444700796288  0.5927088208558512
  0.3395575571195373  0.6611734051701635  0.5951084957182936
  0.3375319247329014  0.9100399229445193  0.5927082464356328
  0.5121253109980312  0.1606251278938947  0.5932047463935605
  0.5120130912322469  0.4104573528885685  0.5931288489763799
  0.5121313563555382  0.6606315453435265  0.5931707602739515
  0.5120055953406331  0.9104606020912608  0.5931311862524875
  0.6854130343713625  0.1580040594499533  0.5960572006437260
  0.6856472036381719  0.4130331210312302  0.5962481757480305
  0.6854064390263819  0.6580550108195387  0.5960397151141484
  0.6856806598279743  0.9129759628695379  0.5961321231242019
  0.2528054949427752  0.1030532384605121  0.4103241513144378
  0.2527495710116473  0.3427752512588850  0.4102880186064052
  0.2527933280958113  0.6030256095655834  0.4103208912702506
  0.2527346028698958  0.8427926549314437  0.4102859710197808
  0.4256141668730328  0.0980171267691753  0.4063120704924462
  0.4258541299257191  0.3479948920174193  0.4063233963059588
  0.4256257514811090  0.5980018924045731  0.4063294220457289
  0.4258496765078327  0.8479855966484513  0.4063155382225185
  0.5979128188439945  0.0978160111799374  0.4069992797245617
  0.5991450667252898  0.3480134750517118  0.4064787965139699
  0.5979141020949417  0.5978054576054503  0.4069671736868128
  0.5991553659678274  0.8480111654530530  0.4065080890595173
  0.2262808571681229  0.2230664703827567  0.5000034156176191
  0.2306378903092426  0.4730503123635387  0.5000001831673732
  0.2262803853167070  0.7230572224808256  0.4999990224956171
  0.2306317277817941  0.9730445274168158  0.4999992450388754
  0.4261744512339327  0.2231892662358627  0.4069980763860647
  0.4248216431705686  0.4728106023304790  0.4072815323400530
  0.4261652092656461  0.7231945339308411  0.4070090230177563
  0.4248215800271525  0.9728147820357324  0.4072841862145441
  0.5989768303300499  0.2228410146671540  0.4063334340240654
  0.5979847005549417  0.4731353015310920  0.4070064233838812
  0.5990018557268670  0.7228638674613876  0.4063347992021330
  0.5979907095662212  0.9731348663738278  0.4070336336232351
  0.3375497527869229  0.0356403339224881  0.4072945951015559
  0.3395699357568158  0.2847081934131362  0.4048398270606031
  0.3375526328958490  0.5356322049034337  0.4072926338508560
  0.3395576998373135  0.7847112832292458  0.4048496478144034
  0.5114229005133086  0.0354345376946439  0.4067222111351925
  0.5127024216493710  0.2856345638177168  0.4071760832865913
  0.5114309654130488  0.5354273792744477  0.4067174422306423
  0.5127235822800802  0.7856465481929354  0.4071749419754468
  0.6855145480811351  0.0353644053178664  0.4036344913034315
  0.6876199937602482  0.2857383640516926  0.4117119877619486
  0.6855429657889084  0.5352886935570889  0.4036374173522861
  0.6875958109107760  0.7857614331763098  0.4116355992523117
  0.3395642128622846  0.1611855926868981  0.4049048080825003
  0.3375321230541393  0.4100442216923349  0.4073074888037667
  0.3395475388826678  0.6611765068677840  0.4049043510871181
  0.3375393103621318  0.9100395508617811  0.4072986447067261
  0.5121281224798794  0.1606168672005419  0.4068336796064123
  0.5120137928479676  0.4104632179433048  0.4069104264552886
  0.5121290729699144  0.6606333573299692  0.4068508605730051
  0.5120083882793890  0.9104612520961932  0.4069091376644364
  0.6854156073769636  0.1580026867232140  0.4039528045029516
  0.6856532820942912  0.4130328694513620  0.4037428726172934
  0.6854040673618174  0.6580570032164885  0.4039722396163690
  0.6856767829517565  0.9129767395564813  0.4038807764830690
  0.7741281669086610  0.9127515271070112  0.4999994364299603
  0.7682193330469586  0.7855302082586939  0.5000298403723420
  0.7738484667200164  0.6578769258252997  0.5000004921450248
  0.7736188170497256  0.5351599391273382  0.5000010473719880
  0.7741789085058509  0.4129712529423846  0.5000010344644524
  0.7681307340506660  0.2855348427200511  0.4999993681124615
  0.7738073450840038  0.1578219697547291  0.5000001820018277
  0.7736299495470655  0.0352215425489684  0.4999992480829423
 
  0.00000000E+00  0.00000000E+00  0.00000000E+00
  0.00000000E+00  0.00000000E+00  0.00000000E+00
  0.00000000E+00  0.00000000E+00  0.00000000E+00
  0.00000000E+00  0.00000000E+00  0.00000000E+00
  0.00000000E+00  0.00000000E+00  0.00000000E+00
  0.00000000E+00  0.00000000E+00  0.00000000E+00
  0.00000000E+00  0.00000000E+00  0.00000000E+00
  0.00000000E+00  0.00000000E+00  0.00000000E+00
  0.00000000E+00  0.00000000E+00  0.00000000E+00
  0.00000000E+00  0.00000000E+00  0.00000000E+00
  0.00000000E+00  0.00000000E+00  0.00000000E+00
  0.00000000E+00  0.00000000E+00  0.00000000E+00
  0.00000000E+00  0.00000000E+00  0.00000000E+00
  0.00000000E+00  0.00000000E+00  0.00000000E+00
  0.00000000E+00  0.00000000E+00  0.00000000E+00
  0.00000000E+00  0.00000000E+00  0.00000000E+00
  0.00000000E+00  0.00000000E+00  0.00000000E+00
  0.00000000E+00  0.00000000E+00  0.00000000E+00
  0.00000000E+00  0.00000000E+00  0.00000000E+00
  0.00000000E+00  0.00000000E+00  0.00000000E+00
  0.00000000E+00  0.00000000E+00  0.00000000E+00
  0.00000000E+00  0.00000000E+00  0.00000000E+00
  0.00000000E+00  0.00000000E+00  0.00000000E+00
  0.00000000E+00  0.00000000E+00  0.00000000E+00
  0.00000000E+00  0.00000000E+00  0.00000000E+00
  0.00000000E+00  0.00000000E+00  0.00000000E+00
  0.00000000E+00  0.00000000E+00  0.00000000E+00
  0.00000000E+00  0.00000000E+00  0.00000000E+00
  0.00000000E+00  0.00000000E+00  0.00000000E+00
  0.00000000E+00  0.00000000E+00  0.00000000E+00
  0.00000000E+00  0.00000000E+00  0.00000000E+00
  0.00000000E+00  0.00000000E+00  0.00000000E+00
  0.00000000E+00  0.00000000E+00  0.00000000E+00
  0.00000000E+00  0.00000000E+00  0.00000000E+00
  0.00000000E+00  0.00000000E+00  0.00000000E+00
  0.00000000E+00  0.00000000E+00  0.00000000E+00
  0.00000000E+00  0.00000000E+00  0.00000000E+00
  0.00000000E+00  0.00000000E+00  0.00000000E+00
  0.00000000E+00  0.00000000E+00  0.00000000E+00
  0.00000000E+00  0.00000000E+00  0.00000000E+00
  0.00000000E+00  0.00000000E+00  0.00000000E+00
  0.00000000E+00  0.00000000E+00  0.00000000E+00
  0.00000000E+00  0.00000000E+00  0.00000000E+00
  0.00000000E+00  0.00000000E+00  0.00000000E+00
  0.00000000E+00  0.00000000E+00  0.00000000E+00
  0.00000000E+00  0.00000000E+00  0.00000000E+00
  0.00000000E+00  0.00000000E+00  0.00000000E+00
  0.00000000E+00  0.00000000E+00  0.00000000E+00
  0.00000000E+00  0.00000000E+00  0.00000000E+00
  0.00000000E+00  0.00000000E+00  0.00000000E+00
  0.00000000E+00  0.00000000E+00  0.00000000E+00
  0.00000000E+00  0.00000000E+00  0.00000000E+00
  0.00000000E+00  0.00000000E+00  0.00000000E+00
  0.00000000E+00  0.00000000E+00  0.00000000E+00
  0.00000000E+00  0.00000000E+00  0.00000000E+00
  0.00000000E+00  0.00000000E+00  0.00000000E+00
  0.00000000E+00  0.00000000E+00  0.00000000E+00
  0.00000000E+00  0.00000000E+00  0.00000000E+00
  0.00000000E+00  0.00000000E+00  0.00000000E+00
  0.00000000E+00  0.00000000E+00  0.00000000E+00
  0.00000000E+00  0.00000000E+00  0.00000000E+00
  0.00000000E+00  0.00000000E+00  0.00000000E+00
  0.00000000E+00  0.00000000E+00  0.00000000E+00
  0.00000000E+00  0.00000000E+00  0.00000000E+00
  0.00000000E+00  0.00000000E+00  0.00000000E+00
  0.00000000E+00  0.00000000E+00  0.00000000E+00
  0.00000000E+00  0.00000000E+00  0.00000000E+00
  0.00000000E+00  0.00000000E+00  0.00000000E+00
  0.00000000E+00  0.00000000E+00  0.00000000E+00
  0.00000000E+00  0.00000000E+00  0.00000000E+00
  0.00000000E+00  0.00000000E+00  0.00000000E+00
  0.00000000E+00  0.00000000E+00  0.00000000E+00
  0.00000000E+00  0.00000000E+00  0.00000000E+00
  0.00000000E+00  0.00000000E+00  0.00000000E+00
  0.00000000E+00  0.00000000E+00  0.00000000E+00
  0.00000000E+00  0.00000000E+00  0.00000000E+00
  0.00000000E+00  0.00000000E+00  0.00000000E+00
  0.00000000E+00  0.00000000E+00  0.00000000E+00
  0.00000000E+00  0.00000000E+00  0.00000000E+00
  0.00000000E+00  0.00000000E+00  0.00000000E+00
  0.00000000E+00  0.00000000E+00  0.00000000E+00
  0.00000000E+00  0.00000000E+00  0.00000000E+00
  0.00000000E+00  0.00000000E+00  0.00000000E+00
  0.00000000E+00  0.00000000E+00  0.00000000E+00
  0.00000000E+00  0.00000000E+00  0.00000000E+00
  0.00000000E+00  0.00000000E+00  0.00000000E+00
  0.00000000E+00  0.00000000E+00  0.00000000E+00
  0.00000000E+00  0.00000000E+00  0.00000000E+00
  0.00000000E+00  0.00000000E+00  0.00000000E+00
  0.00000000E+00  0.00000000E+00  0.00000000E+00
  0.00000000E+00  0.00000000E+00  0.00000000E+00
  0.00000000E+00  0.00000000E+00  0.00000000E+00
  0.00000000E+00  0.00000000E+00  0.00000000E+00
  0.00000000E+00  0.00000000E+00  0.00000000E+00
  0.00000000E+00  0.00000000E+00  0.00000000E+00
  0.00000000E+00  0.00000000E+00  0.00000000E+00
  0.00000000E+00  0.00000000E+00  0.00000000E+00
  0.00000000E+00  0.00000000E+00  0.00000000E+00
  0.00000000E+00  0.00000000E+00  0.00000000E+00
  0.00000000E+00  0.00000000E+00  0.00000000E+00
  0.00000000E+00  0.00000000E+00  0.00000000E+00
  0.00000000E+00  0.00000000E+00  0.00000000E+00
  0.00000000E+00  0.00000000E+00  0.00000000E+00
  0.00000000E+00  0.00000000E+00  0.00000000E+00
  0.00000000E+00  0.00000000E+00  0.00000000E+00
  0.00000000E+00  0.00000000E+00  0.00000000E+00
  0.00000000E+00  0.00000000E+00  0.00000000E+00
  0.00000000E+00  0.00000000E+00  0.00000000E+00
  0.00000000E+00  0.00000000E+00  0.00000000E+00
  0.00000000E+00  0.00000000E+00  0.00000000E+00
  0.00000000E+00  0.00000000E+00  0.00000000E+00
  0.00000000E+00  0.00000000E+00  0.00000000E+00
  0.00000000E+00  0.00000000E+00  0.00000000E+00
  0.00000000E+00  0.00000000E+00  0.00000000E+00
  0.00000000E+00  0.00000000E+00  0.00000000E+00
  0.00000000E+00  0.00000000E+00  0.00000000E+00
  0.00000000E+00  0.00000000E+00  0.00000000E+00
  0.00000000E+00  0.00000000E+00  0.00000000E+00
  0.00000000E+00  0.00000000E+00  0.00000000E+00
  0.00000000E+00  0.00000000E+00  0.00000000E+00
  0.00000000E+00  0.00000000E+00  0.00000000E+00
  0.00000000E+00  0.00000000E+00  0.00000000E+00
  0.00000000E+00  0.00000000E+00  0.00000000E+00
  0.00000000E+00  0.00000000E+00  0.00000000E+00
  0.00000000E+00  0.00000000E+00  0.00000000E+00
  0.00000000E+00  0.00000000E+00  0.00000000E+00
  0.00000000E+00  0.00000000E+00  0.00000000E+00
  0.00000000E+00  0.00000000E+00  0.00000000E+00
  0.00000000E+00  0.00000000E+00  0.00000000E+00
  0.00000000E+00  0.00000000E+00  0.00000000E+00
  0.00000000E+00  0.00000000E+00  0.00000000E+00
  0.00000000E+00  0.00000000E+00  0.00000000E+00
  0.00000000E+00  0.00000000E+00  0.00000000E+00
  0.00000000E+00  0.00000000E+00  0.00000000E+00
  0.00000000E+00  0.00000000E+00  0.00000000E+00
  0.00000000E+00  0.00000000E+00  0.00000000E+00
  0.00000000E+00  0.00000000E+00  0.00000000E+00
  0.00000000E+00  0.00000000E+00  0.00000000E+00
  0.00000000E+00  0.00000000E+00  0.00000000E+00
  0.00000000E+00  0.00000000E+00  0.00000000E+00
  0.00000000E+00  0.00000000E+00  0.00000000E+00
  0.00000000E+00  0.00000000E+00  0.00000000E+00
  0.00000000E+00  0.00000000E+00  0.00000000E+00
  0.00000000E+00  0.00000000E+00  0.00000000E+00
  0.00000000E+00  0.00000000E+00  0.00000000E+00
  0.00000000E+00  0.00000000E+00  0.00000000E+00
  0.00000000E+00  0.00000000E+00  0.00000000E+00
  0.00000000E+00  0.00000000E+00  0.00000000E+00
