Mo1 S2                                  
   1.00000000000000     
    19.1418952942000011    0.0000000000000000    0.0000000000000000
    -9.5709489007999995   16.5773646751000001    0.0000000000000000
     0.0000000000000000    0.0000000000000000   23.1298294067000008
   Mo   S 
    36    71
Direct
  0.1111457615352494  0.0555087209272393  0.4988393491144333
  0.1111472952865603  0.2223034637632914  0.4988388023578392
  0.1108011921523017  0.3889381304525009  0.4991706896489017
  0.1103956121108590  0.5552304156662958  0.4998971628239471
  0.1103938743201411  0.7218336461857741  0.4998971309104388
  0.1107987921641038  0.8885290454691923  0.4991711603033310
  0.2781279783898194  0.0558557163025264  0.4991719668791440
  0.2781082804996159  0.2223873631050744  0.4991034565230211
  0.2781297290397799  0.3889395507097475  0.4991712797859476
  0.2777201033506612  0.5554494423662186  0.4994546627685481
  0.2775427969606194  0.7221056199396269  0.4996489785296367
  0.2777178489316839  0.8889363926113825  0.4994552951550149
  0.4448280556309080  0.0562570516288971  0.4998996131250301
  0.4455185511702473  0.2232756031106599  0.5000438635923060
  0.4455202078939990  0.3889114820719787  0.5000434336842257
  0.4448312705001790  0.5552384437371213  0.4998990780391843
  0.4445596850985334  0.7221085632718834  0.4996506792148012
  0.4445586834764393  0.8891158246181212  0.4996509445604496
  0.6114380317736670  0.0562603423053766  0.4998996007527523
  0.6122888658675441  0.2245622254968349  0.5017681791051464
  0.6143262739226681  0.3904976917808448  0.5035630492705045
  0.6122912165051905  0.5543953179738673  0.5017673031558374
  0.6114419048107651  0.7218427144434721  0.4998993309128534
  0.6112213956645958  0.8889424536506215  0.4994566673122716
  0.7777315913653415  0.0558611649968903  0.4991725508153754
  0.7777646763124082  0.2232789816470247  0.5000434672723352
  0.7761844588722450  0.3904962646652714  0.5035618173774159
  0.7761849609125652  0.5523589289959956  0.5035606369939103
  0.7777655347704348  0.7211531966713010  0.5000428077587648
  0.7777322768389466  0.8885341810586117  0.4991720784635137
  0.9443606975759594  0.0555124899502572  0.4988384957140758
  0.9442762141176569  0.2223915194434898  0.4991026075417878
  0.9433886136463241  0.3889099942066033  0.5000419340007108
  0.9421031519892783  0.5543877735727835  0.5017632866176076
  0.9433878377296974  0.7211474917782184  0.5000408488335241
  0.9442752657969817  0.8885502455465040  0.4991019822282342
  0.0555514309276369  0.1111083608502858  0.4315554087468609
  0.0553799789091612  0.2780507753113061  0.4317292719487746
  0.0543107350324479  0.4445721223282951  0.4323752669765613
  0.0530283476188327  0.6098489256111538  0.4334867448453965
  0.0543090246606742  0.7764061554647479  0.4323748930381453
  0.0553788894889128  0.9439948752867208  0.4317295408250337
  0.2226612582288409  0.1112777619668505  0.4317317180950231
  0.2226631259548141  0.2780502661659879  0.4317309011800056
  0.2222887719741206  0.4445866015763590  0.4319958807692690
  0.2215918153939747  0.6109073720420486  0.4324603928050237
  0.2215903994521091  0.7773516645937325  0.4324603417149417
  0.2222862843792695  0.9443675681835334  0.4319965822707413
  0.3902554004251921  0.1123443542827078  0.4323791703288224
  0.3901882588530604  0.2784280162316079  0.4323328086496675
  0.3902572912831638  0.4445785298018275  0.4323782240771966
  0.3893104835994878  0.6109120350579752  0.4324610474417428
  0.3888876625539716  0.7777765961608172  0.4324769999026278
  0.3893084334096408  0.9450628258789979  0.4324608662446312
  0.5568176204603186  0.1136263025281281  0.4334909208587023
  0.5605754138057918  0.2826231105432930  0.4344731616271635
  0.5605778353575479  0.4446219202020467  0.4344716000611445
  0.5568202623000487  0.6098578833786931  0.4334901451638178
  0.5557590814938149  0.7773567602638628  0.4324615575578534
  0.5557569002913288  0.9450643933071659  0.4324610237956886
  0.7220962824689997  0.1123504483813897  0.4323786651770313
  0.7220606216648080  0.2826261894909089  0.4344720817052066
  0.7220613659840343  0.6061028918017031  0.4344699579770625
  0.7220983396939746  0.7764110498931368  0.4323776681648774
  0.7220842393359873  0.9443738140018537  0.4319980758905615
  0.8886156141603849  0.1112825531256649  0.4317312937978844
  0.8882399983904831  0.2784311138754883  0.4323287799258180
  0.8840436404007386  0.4446170589347882  0.4344664595209402
  0.8840426425502085  0.6060963707904575  0.4344650273670110
  0.8882383872825068  0.7764751008661068  0.4323274074446595
  0.8886160988961814  0.9439981927696122  0.4317301662064216
  0.0555514512638758  0.1111089370591521  0.5660293313661151
  0.0555433642419774  0.2776986280891526  0.5662476747437345
  0.0551741593434281  0.4439817742686795  0.5668845860006556
  0.0554109661785669  0.6110401087514977  0.5675877428958666
  0.0551706827843713  0.7778583036245742  0.5668845795190041
  0.0555407746629838  0.9445094816204136  0.5662486235004541
  0.2221438755313850  0.1111143117812304  0.5662476325338605
  0.2221455880097639  0.2776973215821384  0.5662472768848743
  0.2220651935374436  0.4441387439302044  0.5664398586335404
  0.2220726374179741  0.6108675882989389  0.5668520056959725
  0.2220708998864095  0.7778719572382649  0.5668526578630878
  0.2220629573495792  0.9445922837773210  0.5664406771476289
  0.3888018508355640  0.1114827417123382  0.5668866410804102
  0.3886466256096717  0.2776579471879691  0.5668283967946648
  0.3888036855116684  0.4439868152408091  0.5668861472787502
  0.3887868949263730  0.6108706733309991  0.5668545043434458
  0.3888872374729958  0.7777768956883592  0.5668338796329881
  0.3887840667431201  0.9445796929798022  0.5668556409479764
  0.5556261752034928  0.1112426630927287  0.5675893758658813
  0.5552520070330711  0.2788824217895197  0.5692052735476613
  0.5552545578478330  0.4430400348181842  0.5692056081023200
  0.5556297728004854  0.6110498618914064  0.5675896330934743
  0.5558001887459607  0.7778788668964336  0.5668554393121060
  0.5557986176693360  0.9445828299713726  0.5668563390694116
  0.7226892036429005  0.1114875564268510  0.5668862499491805
  0.7236470025552485  0.2788869536008008  0.5692053160064018
  0.7222349747955916  0.4444536993636018  0.5711750044362105
  0.7236495640402268  0.6114306199690021  0.5692040925062339
  0.7226922742455564  0.7778663489333427  0.5668867950642326
  0.7225324729819453  0.9445978594196462  0.5664419858272433
  0.8889722951435614  0.1111203604758308  0.5662475219701123
  0.8890148557614280  0.2776636817357952  0.5668288789600801
  0.8877882100661394  0.4430370375631901  0.5692045143169393
  0.8877864104378003  0.6114234191316583  0.5692041974226698
  0.8890123735228251  0.7780167020217494  0.5668287408879029
  0.8889712293104670  0.9445148527919666  0.5662475710478043
 
  0.00000000E+00  0.00000000E+00  0.00000000E+00
  0.00000000E+00  0.00000000E+00  0.00000000E+00
  0.00000000E+00  0.00000000E+00  0.00000000E+00
  0.00000000E+00  0.00000000E+00  0.00000000E+00
  0.00000000E+00  0.00000000E+00  0.00000000E+00
  0.00000000E+00  0.00000000E+00  0.00000000E+00
  0.00000000E+00  0.00000000E+00  0.00000000E+00
  0.00000000E+00  0.00000000E+00  0.00000000E+00
  0.00000000E+00  0.00000000E+00  0.00000000E+00
  0.00000000E+00  0.00000000E+00  0.00000000E+00
  0.00000000E+00  0.00000000E+00  0.00000000E+00
  0.00000000E+00  0.00000000E+00  0.00000000E+00
  0.00000000E+00  0.00000000E+00  0.00000000E+00
  0.00000000E+00  0.00000000E+00  0.00000000E+00
  0.00000000E+00  0.00000000E+00  0.00000000E+00
  0.00000000E+00  0.00000000E+00  0.00000000E+00
  0.00000000E+00  0.00000000E+00  0.00000000E+00
  0.00000000E+00  0.00000000E+00  0.00000000E+00
  0.00000000E+00  0.00000000E+00  0.00000000E+00
  0.00000000E+00  0.00000000E+00  0.00000000E+00
  0.00000000E+00  0.00000000E+00  0.00000000E+00
  0.00000000E+00  0.00000000E+00  0.00000000E+00
  0.00000000E+00  0.00000000E+00  0.00000000E+00
  0.00000000E+00  0.00000000E+00  0.00000000E+00
  0.00000000E+00  0.00000000E+00  0.00000000E+00
  0.00000000E+00  0.00000000E+00  0.00000000E+00
  0.00000000E+00  0.00000000E+00  0.00000000E+00
  0.00000000E+00  0.00000000E+00  0.00000000E+00
  0.00000000E+00  0.00000000E+00  0.00000000E+00
  0.00000000E+00  0.00000000E+00  0.00000000E+00
  0.00000000E+00  0.00000000E+00  0.00000000E+00
  0.00000000E+00  0.00000000E+00  0.00000000E+00
  0.00000000E+00  0.00000000E+00  0.00000000E+00
  0.00000000E+00  0.00000000E+00  0.00000000E+00
  0.00000000E+00  0.00000000E+00  0.00000000E+00
  0.00000000E+00  0.00000000E+00  0.00000000E+00
  0.00000000E+00  0.00000000E+00  0.00000000E+00
  0.00000000E+00  0.00000000E+00  0.00000000E+00
  0.00000000E+00  0.00000000E+00  0.00000000E+00
  0.00000000E+00  0.00000000E+00  0.00000000E+00
  0.00000000E+00  0.00000000E+00  0.00000000E+00
  0.00000000E+00  0.00000000E+00  0.00000000E+00
  0.00000000E+00  0.00000000E+00  0.00000000E+00
  0.00000000E+00  0.00000000E+00  0.00000000E+00
  0.00000000E+00  0.00000000E+00  0.00000000E+00
  0.00000000E+00  0.00000000E+00  0.00000000E+00
  0.00000000E+00  0.00000000E+00  0.00000000E+00
  0.00000000E+00  0.00000000E+00  0.00000000E+00
  0.00000000E+00  0.00000000E+00  0.00000000E+00
  0.00000000E+00  0.00000000E+00  0.00000000E+00
  0.00000000E+00  0.00000000E+00  0.00000000E+00
  0.00000000E+00  0.00000000E+00  0.00000000E+00
  0.00000000E+00  0.00000000E+00  0.00000000E+00
  0.00000000E+00  0.00000000E+00  0.00000000E+00
  0.00000000E+00  0.00000000E+00  0.00000000E+00
  0.00000000E+00  0.00000000E+00  0.00000000E+00
  0.00000000E+00  0.00000000E+00  0.00000000E+00
  0.00000000E+00  0.00000000E+00  0.00000000E+00
  0.00000000E+00  0.00000000E+00  0.00000000E+00
  0.00000000E+00  0.00000000E+00  0.00000000E+00
  0.00000000E+00  0.00000000E+00  0.00000000E+00
  0.00000000E+00  0.00000000E+00  0.00000000E+00
  0.00000000E+00  0.00000000E+00  0.00000000E+00
  0.00000000E+00  0.00000000E+00  0.00000000E+00
  0.00000000E+00  0.00000000E+00  0.00000000E+00
  0.00000000E+00  0.00000000E+00  0.00000000E+00
  0.00000000E+00  0.00000000E+00  0.00000000E+00
  0.00000000E+00  0.00000000E+00  0.00000000E+00
  0.00000000E+00  0.00000000E+00  0.00000000E+00
  0.00000000E+00  0.00000000E+00  0.00000000E+00
  0.00000000E+00  0.00000000E+00  0.00000000E+00
  0.00000000E+00  0.00000000E+00  0.00000000E+00
  0.00000000E+00  0.00000000E+00  0.00000000E+00
  0.00000000E+00  0.00000000E+00  0.00000000E+00
  0.00000000E+00  0.00000000E+00  0.00000000E+00
  0.00000000E+00  0.00000000E+00  0.00000000E+00
  0.00000000E+00  0.00000000E+00  0.00000000E+00
  0.00000000E+00  0.00000000E+00  0.00000000E+00
  0.00000000E+00  0.00000000E+00  0.00000000E+00
  0.00000000E+00  0.00000000E+00  0.00000000E+00
  0.00000000E+00  0.00000000E+00  0.00000000E+00
  0.00000000E+00  0.00000000E+00  0.00000000E+00
  0.00000000E+00  0.00000000E+00  0.00000000E+00
  0.00000000E+00  0.00000000E+00  0.00000000E+00
  0.00000000E+00  0.00000000E+00  0.00000000E+00
  0.00000000E+00  0.00000000E+00  0.00000000E+00
  0.00000000E+00  0.00000000E+00  0.00000000E+00
  0.00000000E+00  0.00000000E+00  0.00000000E+00
  0.00000000E+00  0.00000000E+00  0.00000000E+00
  0.00000000E+00  0.00000000E+00  0.00000000E+00
  0.00000000E+00  0.00000000E+00  0.00000000E+00
  0.00000000E+00  0.00000000E+00  0.00000000E+00
  0.00000000E+00  0.00000000E+00  0.00000000E+00
  0.00000000E+00  0.00000000E+00  0.00000000E+00
  0.00000000E+00  0.00000000E+00  0.00000000E+00
  0.00000000E+00  0.00000000E+00  0.00000000E+00
  0.00000000E+00  0.00000000E+00  0.00000000E+00
  0.00000000E+00  0.00000000E+00  0.00000000E+00
  0.00000000E+00  0.00000000E+00  0.00000000E+00
  0.00000000E+00  0.00000000E+00  0.00000000E+00
  0.00000000E+00  0.00000000E+00  0.00000000E+00
  0.00000000E+00  0.00000000E+00  0.00000000E+00
  0.00000000E+00  0.00000000E+00  0.00000000E+00
  0.00000000E+00  0.00000000E+00  0.00000000E+00
  0.00000000E+00  0.00000000E+00  0.00000000E+00
  0.00000000E+00  0.00000000E+00  0.00000000E+00
  0.00000000E+00  0.00000000E+00  0.00000000E+00
