W48 S98                                 
   1.00000000000000     
    33.0000000000000000    0.0000000000000000    0.0000000000000000
     0.0000000000000000   25.2255992888999998    0.0000000000000000
     0.0000000000000000    0.0000000000000000   17.4930000304999993
   W    S    O    C 
    48    98     2     1
Direct
  0.2900197751030859  0.0372391809058765  0.5020228755968362
  0.2894390952670100  0.2894376596729702  0.4966144358792440
  0.2950382197749413  0.5350771461269060  0.5068916979466124
  0.2936976236311968  0.7813173556403310  0.4998232418139696
  0.4564426674833162  0.0354121776277105  0.5017235748312645
  0.4561467921538984  0.2858378098507218  0.5009833208943512
  0.4570620179496143  0.5356792301214341  0.5022028776251927
  0.4576537207000169  0.7853129469185306  0.5012947281549838
  0.6230611029273899  0.0359728227029395  0.5003591664601378
  0.6229359217914231  0.2854146031109503  0.5003863322551111
  0.6234965984205603  0.5348776947199982  0.5005546068014317
  0.6239158881732565  0.7854838403749337  0.5003377664696074
  0.2897515159640424  0.1577989037367639  0.5049495709919288
  0.2926789387441511  0.4211029791632330  0.4985277536693196
  0.2951840254357859  0.6625602184790838  0.5057431963872528
  0.2899570134519751  0.9037294591569003  0.4999204117087520
  0.4562473324969632  0.1602986143973757  0.5015934422493439
  0.4564441605145195  0.4107215242858223  0.5011290071960907
  0.4575889942448392  0.6601701793383749  0.5019193561246552
  0.4570237966581059  0.9100576078522642  0.5016205638298387
  0.6228013080264030  0.1603604508182047  0.5004076947530205
  0.6230989501404085  0.4104535234078693  0.5004349581905552
  0.6239036073883153  0.6601101981161847  0.5004919122148022
  0.6235870757233786  0.9108124148677048  0.5003113891316666
  0.3723650102560075  0.2229862210919330  0.5010953788166844
  0.3735932992961585  0.4743645669275299  0.5016971303282702
  0.3745138309831561  0.7222548614896078  0.5010579478462286
  0.3726144605882548  0.9721196869196311  0.5020966220676574
  0.5398162445270301  0.2229858306235098  0.5010012812101523
  0.5398946898105019  0.4728190051770720  0.5011972923662305
  0.5409508425140054  0.7228439557711775  0.5010953696859646
  0.5403465526629014  0.9731114984296851  0.5011057172078921
  0.7079627718213551  0.2161517750575838  0.4996408177805607
  0.7078200457896651  0.4722803695283661  0.4996605386304938
  0.7085114471104287  0.7286662577810775  0.4995367339004382
  0.7085208401292287  0.9798853171985648  0.4994186451387245
  0.3738059616772403  0.0975498278209426  0.5019519574025291
  0.3727346585892546  0.3489948290783167  0.4992438782514386
  0.3742020151321018  0.5983723936202112  0.5044715061784713
  0.3746075832727207  0.8470528974445483  0.5018459560538395
  0.5394470871184908  0.0980289720880090  0.5011453163126603
  0.5399740971490993  0.3480045929926884  0.5008960970964063
  0.5408897736193021  0.5976971978227732  0.5013834496612745
  0.5407151101724428  0.8479791804739243  0.5010070864839583
  0.7074688082510150  0.0985245989893329  0.4995330318860898
  0.7081319474504160  0.3545748807337208  0.4996565706668047
  0.7088834872497469  0.5910371305412442  0.4996579104891989
  0.7083899870182692  0.8423764839036326  0.4994289589078939
  0.2641136639230310  0.0966450084831329  0.5944689667547988
  0.2582649906208631  0.3530343371263289  0.5696603115804868
  0.2554955132345927  0.6006358976167825  0.5660864889652404
  0.2645020296260386  0.8418619673039287  0.5890247017608208
  0.4288392669249995  0.0977873676158569  0.5925571570700082
  0.4278007759625083  0.3482232296170955  0.5906423933618060
  0.4300817654454010  0.5981513151259696  0.5934442152054410
  0.4297204126560500  0.8475274553079040  0.5922474766302831
  0.5950806706218810  0.0980686008331550  0.5907515495275778
  0.5957468865852589  0.3477922590211444  0.5908905105559159
  0.5966976799576349  0.5977784022157766  0.5911556609800044
  0.5964611337910061  0.8482549114029881  0.5907100748535457
  0.4281051375877707  0.2233662218096335  0.5911546739808554
  0.4291322701392652  0.4729097590400589  0.5922320930777119
  0.4300273426328304  0.7229387171619406  0.5917209900758044
  0.4286351538964872  0.9724457837066183  0.5915977860934789
  0.5956136444085980  0.2230921408461085  0.5909054744352423
  0.5954893224438270  0.4727121973925154  0.5908593201441885
  0.5966718467534843  0.7226977871896115  0.5908060075139119
  0.5961963816470051  0.9730827888835698  0.5908859149928598
  0.3447201963174839  0.0344476143349881  0.5919154711669137
  0.3426755320852398  0.2861249257690099  0.5889941364423242
  0.3455677478346742  0.5348972615772377  0.5977146313373586
  0.3469660006729471  0.7834530031354272  0.5924069362594265
  0.5121468643904377  0.0352710929120726  0.5915635889633962
  0.5118259024700903  0.2856045390431929  0.5909892909293945
  0.5128334578317534  0.5354334541022429  0.5918532169810806
  0.5132328638705154  0.7853917752483409  0.5914027487922418
  0.6793521133050207  0.0369667736899092  0.5922380888988725
  0.6807625223545836  0.2853836240232972  0.5867051427300727
  0.6797748858145135  0.5338715092072100  0.5924408984781043
  0.6793738190111418  0.7855240856061777  0.5934515865481726
  0.3451883138310081  0.1605520113486632  0.5924070961250281
  0.3446195413030449  0.4114718187575438  0.5915863425199304
  0.3463339066286186  0.6622077292532436  0.5967088965642736
  0.3441901389647272  0.9090576082919702  0.5913674542757323
  0.5118820350323255  0.1607057753753303  0.5915019904769476
  0.5120221508690073  0.4102315813132313  0.5912806389712447
  0.5133339881011316  0.6603638634002134  0.5915996813841847
  0.5127784140967844  0.9104386451747671  0.5913512889235918
  0.6789875288399049  0.1594297266595454  0.5925958136325953
  0.6792716397830979  0.4113394455269160  0.5926448505143848
  0.6816540006589614  0.6597958711736471  0.5869834148927907
  0.6813636704688771  0.9111823459499016  0.5868012604596442
  0.2625816562369599  0.0979396078605483  0.4138332683064657
  0.2643039436614481  0.8453341760311902  0.4107311002980122
  0.4285958233327308  0.0977466585812841  0.4110326531855352
  0.4286449316559994  0.3484354170264881  0.4102420020490511
  0.4289613935644891  0.5979958729031192  0.4123748435947716
  0.4296385733760628  0.8476685827793439  0.4109552972084032
  0.5946307283544522  0.0980917493376919  0.4105581996036867
  0.5954360893282179  0.3478361876079841  0.4102683571587644
  0.5961897212442645  0.5977422573166897  0.4104987835106894
  0.5960381617433901  0.8482447985818911  0.4104167508808938
  0.2424858037160762  0.2226129566650541  0.5262693003433984
  0.2391656283675349  0.4805521907274372  0.4970948318510351
  0.2448091050200192  0.7198923881980489  0.4657213013716974
  0.2418630578365213  0.9710418034979574  0.5018342752437377
  0.4283094308627224  0.2227990528432020  0.4115208228554481
  0.4289472619004385  0.4738684728247223  0.4112169899144306
  0.4300152292536968  0.7224182103932502  0.4109569620454941
  0.4284484752270458  0.9725436058726492  0.4120979276113522
  0.5952577869894604  0.2230655228884324  0.4103150106358668
  0.5950713562532195  0.4728160290947302  0.4106354887279534
  0.5962445393270474  0.7225853204791444  0.4104959059747108
  0.5957279698164887  0.9731135005103834  0.4103123684339199
  0.3446529949260895  0.0346876574737556  0.4123303230993703
  0.3455909484614394  0.2849944953656255  0.4098105589557960
  0.3436999948236069  0.5380436515477985  0.4112597789606125
  0.3468353719379524  0.7845132156445231  0.4098742479926288
  0.5117852530557858  0.0352899494956639  0.4111454286225146
  0.5117837442695260  0.2855321654528188  0.4109691109050890
  0.5123105284804920  0.5356137053398140  0.4114110638304010
  0.5130338064463396  0.7853172826409869  0.4108727971829941
  0.6788109436213131  0.0370265184895736  0.4073102385172701
  0.6803519288758044  0.2853992484249285  0.4130864350176997
  0.6792274626206368  0.5338735337471106  0.4075046124669416
  0.6788395377138381  0.7854535323164690  0.4061131506262901
  0.3440103030805240  0.1601849093946461  0.4128062139125462
  0.3454355557029657  0.4134208119321343  0.4087178951081415
  0.3446567941464058  0.6588540220207126  0.4113559329437256
  0.3451152941373208  0.9097935435602104  0.4117455449609696
  0.5116014757996831  0.1605797757294484  0.4110582163414174
  0.5119453209580829  0.4104883156379717  0.4108811065013493
  0.5129070121686594  0.6601670623481436  0.4113812368985045
  0.5124426681666945  0.9105072308671712  0.4111879126375149
  0.6785017199693176  0.1594863304383267  0.4071476414071662
  0.6787997199381082  0.4113596011031745  0.4072079329565382
  0.6811550325434941  0.6597285369728649  0.4128170669434782
  0.6808476587207078  0.9111822486904064  0.4126135219084431
  0.7593700646958702  0.9117712495494872  0.4988065428403364
  0.7649317560422153  0.7855984243036941  0.4987692552253234
  0.7596045092684927  0.6593120010013330  0.4990956207997748
  0.7639492335931168  0.5332024805681301  0.4990447136965196
  0.7637772853101678  0.4109203169243048  0.4990057968223127
  0.7585813927487935  0.2852716098472953  0.4992721623741876
  0.7635283841125245  0.1597266563335381  0.4990852718441371
  0.7635989294928913  0.0376548056556732  0.4987597444830304
  0.2483001396424730  0.4004121212383910  0.3478206664127281
  0.2667234245178281  0.3242384736370276  0.4065950493711090
  0.2632705079219447  0.3785267818467956  0.4025968333043395
 
  0.00000000E+00  0.00000000E+00  0.00000000E+00
  0.00000000E+00  0.00000000E+00  0.00000000E+00
  0.00000000E+00  0.00000000E+00  0.00000000E+00
  0.00000000E+00  0.00000000E+00  0.00000000E+00
  0.00000000E+00  0.00000000E+00  0.00000000E+00
  0.00000000E+00  0.00000000E+00  0.00000000E+00
  0.00000000E+00  0.00000000E+00  0.00000000E+00
  0.00000000E+00  0.00000000E+00  0.00000000E+00
  0.00000000E+00  0.00000000E+00  0.00000000E+00
  0.00000000E+00  0.00000000E+00  0.00000000E+00
  0.00000000E+00  0.00000000E+00  0.00000000E+00
  0.00000000E+00  0.00000000E+00  0.00000000E+00
  0.00000000E+00  0.00000000E+00  0.00000000E+00
  0.00000000E+00  0.00000000E+00  0.00000000E+00
  0.00000000E+00  0.00000000E+00  0.00000000E+00
  0.00000000E+00  0.00000000E+00  0.00000000E+00
  0.00000000E+00  0.00000000E+00  0.00000000E+00
  0.00000000E+00  0.00000000E+00  0.00000000E+00
  0.00000000E+00  0.00000000E+00  0.00000000E+00
  0.00000000E+00  0.00000000E+00  0.00000000E+00
  0.00000000E+00  0.00000000E+00  0.00000000E+00
  0.00000000E+00  0.00000000E+00  0.00000000E+00
  0.00000000E+00  0.00000000E+00  0.00000000E+00
  0.00000000E+00  0.00000000E+00  0.00000000E+00
  0.00000000E+00  0.00000000E+00  0.00000000E+00
  0.00000000E+00  0.00000000E+00  0.00000000E+00
  0.00000000E+00  0.00000000E+00  0.00000000E+00
  0.00000000E+00  0.00000000E+00  0.00000000E+00
  0.00000000E+00  0.00000000E+00  0.00000000E+00
  0.00000000E+00  0.00000000E+00  0.00000000E+00
  0.00000000E+00  0.00000000E+00  0.00000000E+00
  0.00000000E+00  0.00000000E+00  0.00000000E+00
  0.00000000E+00  0.00000000E+00  0.00000000E+00
  0.00000000E+00  0.00000000E+00  0.00000000E+00
  0.00000000E+00  0.00000000E+00  0.00000000E+00
  0.00000000E+00  0.00000000E+00  0.00000000E+00
  0.00000000E+00  0.00000000E+00  0.00000000E+00
  0.00000000E+00  0.00000000E+00  0.00000000E+00
  0.00000000E+00  0.00000000E+00  0.00000000E+00
  0.00000000E+00  0.00000000E+00  0.00000000E+00
  0.00000000E+00  0.00000000E+00  0.00000000E+00
  0.00000000E+00  0.00000000E+00  0.00000000E+00
  0.00000000E+00  0.00000000E+00  0.00000000E+00
  0.00000000E+00  0.00000000E+00  0.00000000E+00
  0.00000000E+00  0.00000000E+00  0.00000000E+00
  0.00000000E+00  0.00000000E+00  0.00000000E+00
  0.00000000E+00  0.00000000E+00  0.00000000E+00
  0.00000000E+00  0.00000000E+00  0.00000000E+00
  0.00000000E+00  0.00000000E+00  0.00000000E+00
  0.00000000E+00  0.00000000E+00  0.00000000E+00
  0.00000000E+00  0.00000000E+00  0.00000000E+00
  0.00000000E+00  0.00000000E+00  0.00000000E+00
  0.00000000E+00  0.00000000E+00  0.00000000E+00
  0.00000000E+00  0.00000000E+00  0.00000000E+00
  0.00000000E+00  0.00000000E+00  0.00000000E+00
  0.00000000E+00  0.00000000E+00  0.00000000E+00
  0.00000000E+00  0.00000000E+00  0.00000000E+00
  0.00000000E+00  0.00000000E+00  0.00000000E+00
  0.00000000E+00  0.00000000E+00  0.00000000E+00
  0.00000000E+00  0.00000000E+00  0.00000000E+00
  0.00000000E+00  0.00000000E+00  0.00000000E+00
  0.00000000E+00  0.00000000E+00  0.00000000E+00
  0.00000000E+00  0.00000000E+00  0.00000000E+00
  0.00000000E+00  0.00000000E+00  0.00000000E+00
  0.00000000E+00  0.00000000E+00  0.00000000E+00
  0.00000000E+00  0.00000000E+00  0.00000000E+00
  0.00000000E+00  0.00000000E+00  0.00000000E+00
  0.00000000E+00  0.00000000E+00  0.00000000E+00
  0.00000000E+00  0.00000000E+00  0.00000000E+00
  0.00000000E+00  0.00000000E+00  0.00000000E+00
  0.00000000E+00  0.00000000E+00  0.00000000E+00
  0.00000000E+00  0.00000000E+00  0.00000000E+00
  0.00000000E+00  0.00000000E+00  0.00000000E+00
  0.00000000E+00  0.00000000E+00  0.00000000E+00
  0.00000000E+00  0.00000000E+00  0.00000000E+00
  0.00000000E+00  0.00000000E+00  0.00000000E+00
  0.00000000E+00  0.00000000E+00  0.00000000E+00
  0.00000000E+00  0.00000000E+00  0.00000000E+00
  0.00000000E+00  0.00000000E+00  0.00000000E+00
  0.00000000E+00  0.00000000E+00  0.00000000E+00
  0.00000000E+00  0.00000000E+00  0.00000000E+00
  0.00000000E+00  0.00000000E+00  0.00000000E+00
  0.00000000E+00  0.00000000E+00  0.00000000E+00
  0.00000000E+00  0.00000000E+00  0.00000000E+00
  0.00000000E+00  0.00000000E+00  0.00000000E+00
  0.00000000E+00  0.00000000E+00  0.00000000E+00
  0.00000000E+00  0.00000000E+00  0.00000000E+00
  0.00000000E+00  0.00000000E+00  0.00000000E+00
  0.00000000E+00  0.00000000E+00  0.00000000E+00
  0.00000000E+00  0.00000000E+00  0.00000000E+00
  0.00000000E+00  0.00000000E+00  0.00000000E+00
  0.00000000E+00  0.00000000E+00  0.00000000E+00
  0.00000000E+00  0.00000000E+00  0.00000000E+00
  0.00000000E+00  0.00000000E+00  0.00000000E+00
  0.00000000E+00  0.00000000E+00  0.00000000E+00
  0.00000000E+00  0.00000000E+00  0.00000000E+00
  0.00000000E+00  0.00000000E+00  0.00000000E+00
  0.00000000E+00  0.00000000E+00  0.00000000E+00
  0.00000000E+00  0.00000000E+00  0.00000000E+00
  0.00000000E+00  0.00000000E+00  0.00000000E+00
  0.00000000E+00  0.00000000E+00  0.00000000E+00
  0.00000000E+00  0.00000000E+00  0.00000000E+00
  0.00000000E+00  0.00000000E+00  0.00000000E+00
  0.00000000E+00  0.00000000E+00  0.00000000E+00
  0.00000000E+00  0.00000000E+00  0.00000000E+00
  0.00000000E+00  0.00000000E+00  0.00000000E+00
  0.00000000E+00  0.00000000E+00  0.00000000E+00
  0.00000000E+00  0.00000000E+00  0.00000000E+00
  0.00000000E+00  0.00000000E+00  0.00000000E+00
  0.00000000E+00  0.00000000E+00  0.00000000E+00
  0.00000000E+00  0.00000000E+00  0.00000000E+00
  0.00000000E+00  0.00000000E+00  0.00000000E+00
  0.00000000E+00  0.00000000E+00  0.00000000E+00
  0.00000000E+00  0.00000000E+00  0.00000000E+00
  0.00000000E+00  0.00000000E+00  0.00000000E+00
  0.00000000E+00  0.00000000E+00  0.00000000E+00
  0.00000000E+00  0.00000000E+00  0.00000000E+00
  0.00000000E+00  0.00000000E+00  0.00000000E+00
  0.00000000E+00  0.00000000E+00  0.00000000E+00
  0.00000000E+00  0.00000000E+00  0.00000000E+00
  0.00000000E+00  0.00000000E+00  0.00000000E+00
  0.00000000E+00  0.00000000E+00  0.00000000E+00
  0.00000000E+00  0.00000000E+00  0.00000000E+00
  0.00000000E+00  0.00000000E+00  0.00000000E+00
  0.00000000E+00  0.00000000E+00  0.00000000E+00
  0.00000000E+00  0.00000000E+00  0.00000000E+00
  0.00000000E+00  0.00000000E+00  0.00000000E+00
  0.00000000E+00  0.00000000E+00  0.00000000E+00
  0.00000000E+00  0.00000000E+00  0.00000000E+00
  0.00000000E+00  0.00000000E+00  0.00000000E+00
  0.00000000E+00  0.00000000E+00  0.00000000E+00
  0.00000000E+00  0.00000000E+00  0.00000000E+00
  0.00000000E+00  0.00000000E+00  0.00000000E+00
  0.00000000E+00  0.00000000E+00  0.00000000E+00
  0.00000000E+00  0.00000000E+00  0.00000000E+00
  0.00000000E+00  0.00000000E+00  0.00000000E+00
  0.00000000E+00  0.00000000E+00  0.00000000E+00
  0.00000000E+00  0.00000000E+00  0.00000000E+00
  0.00000000E+00  0.00000000E+00  0.00000000E+00
  0.00000000E+00  0.00000000E+00  0.00000000E+00
  0.00000000E+00  0.00000000E+00  0.00000000E+00
  0.00000000E+00  0.00000000E+00  0.00000000E+00
  0.00000000E+00  0.00000000E+00  0.00000000E+00
  0.00000000E+00  0.00000000E+00  0.00000000E+00
  0.00000000E+00  0.00000000E+00  0.00000000E+00
  0.00000000E+00  0.00000000E+00  0.00000000E+00
  0.00000000E+00  0.00000000E+00  0.00000000E+00
  0.00000000E+00  0.00000000E+00  0.00000000E+00
  0.00000000E+00  0.00000000E+00  0.00000000E+00
