W48 S98
1.0
  33.0000000000         0.0000000000         0.0000000000
   0.0000000000        25.2255992889         0.0000000000
   0.0000000000         0.0000000000        17.4930000305
W S O C
48 98 2 1
Cartesian
     9.512771730         1.039636750         8.760778677
     9.692612490         7.186417052         8.878232276
     9.724636020        13.437752166         8.885571989
     9.645216570        19.705525794         8.793547439
    15.023546010         0.899840262         8.777893128
    15.054588450         7.211095508         8.782206727
    15.060431760        13.505781066         8.791529096
    15.054208950        19.811212982         8.769911247
    20.526810480         0.903947242         8.734746469
    20.544832110         7.198420906         8.736503640
    20.550616020        13.496720031         8.738829860
    20.543065290        19.816555764         8.733984998
     9.636421740         4.157076599         8.794891251
     9.721162770        10.430434922         8.884974778
     9.701438010        16.677449396         8.878083411
     9.517380510        22.820624960         8.761643356
    15.042431910         4.053760364         8.769224822
    15.057950490        10.354026582         8.791343146
    15.061366980        16.649797598         8.782611690
    15.028720740        22.964025176         8.778499435
    20.532097740         4.041554958         8.733902431
    20.548703010        10.356346328         8.738879890
    20.551456530        16.655839381         8.735924447
    20.534422590        22.974942059         8.734738422
    12.305854440         5.661517971         8.785286894
    12.319629300        11.931235231         8.809084896
    12.314449620        18.202658247         8.785457451
    12.240230310        24.544359529         8.806857688
    17.803930980         5.623903576         8.752702508
    17.800299990        11.928040914         8.762859644
    17.807930910        18.235594555         8.752876214
    17.789522190        24.549014914         8.753538324
    23.344744830         5.446681128         8.719252743
    23.338825950        11.916340272         8.717315044
    23.337448200        18.400740247         8.718402934
    23.343883530        24.710270062         8.722589533
    12.301317930         2.494174067         8.799468994
    12.304154610         8.795120366         8.854653462
    12.309520740        15.067890176         8.855169505
    12.309202290        21.369160373         8.799958623
    17.774721690         2.472623585         8.751731472
    17.814086070         8.779445179         8.760820135
    17.819037060        15.077591437         8.760644330
    17.794763250        21.393263433         8.751935965
    23.319360570         2.481107458         8.721872495
    23.354119800         8.945585769         8.717459011
    23.364132330        14.919495544         8.717494697
    23.330883510        21.235503040         8.720269262
     8.679125730         2.622775937        10.331445411
     8.371372680         8.822397059         9.884280423
     8.375873550        15.045140974         9.884826205
     8.685098730        21.238054609        10.331349899
    14.130441270         2.480386511        10.366312109
    14.164270890         8.779272131        10.391557132
    14.169794430        15.082302823        10.392044312
    14.139119610        21.382676249        10.366943956
    19.613119350         2.472707838        10.315537977
    19.660238070         8.773121626        10.325961706
    19.665746100        15.082935733        10.325601700
    19.638367320        21.398402392        10.316570239
    14.146891110         5.630080316        10.355918468
    14.164545780        11.930372768        10.379031444
    14.156827410        18.233898638        10.355553389
    14.100387180        24.543857288        10.356715974
    19.647335070         5.624130101        10.320761212
    19.641050220        11.927655971        10.323311866
    19.650339390        18.232579339        10.317522033
    19.636337490        24.546107159        10.320080034
    11.297343420         0.917041599        10.362625284
    11.385972840         7.181729883        10.462263138
    11.406399840        13.459140951        10.479379164
    11.419409100        19.753154500        10.387671237
    16.870707480         0.893501826        10.338338703
    16.903517730         7.200147598        10.340276402
    16.909304940        13.508644929        10.350095573
    16.896581460        19.813303932        10.335878137
    22.382971380         0.929274501        10.343582055
    22.455302430         7.197594010        10.241962943
    22.411655970        13.472012818        10.341201957
    22.371125700        19.815395387        10.370463548
    11.411363700         4.110926870        10.387644298
    11.403016350        10.405404065        10.479055194
    11.394131430        16.682629725        10.462783905
    11.302342920        22.944903163        10.363345471
    16.882174980         4.052922874        10.336380186
    16.906430640        10.349453938        10.350234643
    16.909947780        16.658401041        10.340483519
    16.879389780        22.970380514        10.335557666
    22.385525580         4.019094337        10.347676816
    22.406744580        10.378899528        10.346806714
    22.460397300        16.650898948        10.244882700
    22.441458270        22.979068210        10.247773418
     8.664391560         2.535442390         7.226266124
     8.671476660        21.325356372         7.225164590
    14.106610980         2.476130448         7.197917144
    14.105495910         8.788390177         7.228248256
    14.110577250        15.073526584         7.228718643
    14.115543090        21.387033467         7.198777624
    19.593275460         2.471981089         7.163538500
    19.633913970         8.775701952         7.165120218
    19.639340160        15.080034537         7.164570238
    19.618396710        21.399316316         7.162931843
     8.075393700         5.743546070         8.106735347
     8.186286570        11.935565458         8.023655842
     8.083609710        18.119690494         8.106277556
     7.955340690        24.541516604         8.732249693
    14.125654620         5.646197960         7.195726145
    14.130657420        11.930668412         7.211380281
    14.135704110        18.218279704         7.196880683
    14.076152640        24.543322253         7.220352966
    19.626883320         5.627133714         7.160111972
    19.613829840        11.927627214         7.170351674
    19.629463260        18.230138006         7.163226075
    19.615273590        24.545911408         7.160760262
    11.330824560         0.899425554         7.229549561
    11.310057330         7.269058386         7.224381254
    11.339195010        13.526951146         7.231384576
    11.383588590        19.781944981         7.203542892
    16.843858680         0.892033444         7.183292471
    16.874384010         7.208432946         7.189529950
    16.874881980        13.506320894         7.193031174
    16.875300420        19.811588592         7.179043596
    22.368959580         0.928203169         7.109419532
    22.435433790         7.197252456         7.205731092
    22.386664740        13.472108423         7.108007322
    22.353354210        19.817532752         7.078154992
    11.373659880         4.082090983         7.203881207
    11.336250090        10.337878919         7.231402419
    11.318821470        16.595287348         7.224147547
    11.335283850        22.962042192         7.230077499
    16.861697160         4.054889714         7.177855296
    16.872327780        10.351874586         7.192849072
    16.879958700        16.650572529         7.189566160
    16.852160490        22.971920536         7.186752061
    22.369887540         4.017270274         7.101903839
    22.381140870        10.378879095         7.102138070
    22.440734250        16.651091671         7.201650675
    22.426789110        22.981069357         7.203169942
    25.015595220        22.997070207         8.713295502
    25.208160780        19.821411944         8.713661806
    25.028219700        16.640006786         8.709372347
    25.184054610        13.457311086         8.707053650
    25.188472980        10.369408900         8.703454115
    25.016657820         7.193089223         8.710376445
    25.174982250         4.021048312         8.714782407
    25.164970380         0.942445038         8.719616073
     9.721000000        10.430000000         7.231000000
     9.721000000         8.110000000         7.231000000
     9.721000000         9.270000000         7.231000000
