Mo1 S2                                  
    1.000000000000000     
    19.1418952942000011    0.0000000000000000    0.0000000000000000
    -9.5709489007999995   16.5773646751000001    0.0000000000000000
     0.0000000000000000    0.0000000000000000   23.1298294067000008
   Mo   S    O    C 
    36    69     2     1
Direct
  0.1121464690880671  0.0558149874923899  0.4978824257032741
  0.1126981872971697  0.2229458277276635  0.4970817282563402
  0.1111132632473399  0.3891179551433908  0.4991644137425979
  0.1110880064281972  0.5555170445950566  0.5013991629513015
  0.1109766065183564  0.7220625135053780  0.5014606231099634
  0.1113732835020187  0.8886400186746002  0.4995855511463390
  0.2796174624029248  0.0567670554000586  0.5002702682015538
  0.2805279497922655  0.2243569124807792  0.4988405686979789
  0.2791120200419570  0.3912753332023087  0.4971734224058721
  0.2783166104442287  0.5558444507299996  0.5004627869835048
  0.2783122941707177  0.7225955900842393  0.5011412162749238
  0.2787011339585703  0.8895543841380871  0.5008794400740513
  0.4464040602178088  0.0570252597469363  0.5017715753266359
  0.4480620547577914  0.2245404725768338  0.5041495403849154
  0.4553099212665259  0.3881775090505499  0.5033369746677749
  0.4434086857887465  0.5541012954600362  0.4996706637035047
  0.4452674576886935  0.7225905514319351  0.5003600616640824
  0.4455397670098549  0.8895275604680180  0.5008246122469089
  0.6125444869705774  0.0567072407227016  0.5006645915019874
  0.6142386475799952  0.2262407612073076  0.5040362258972664
  0.6156849397714907  0.3929003988423219  0.5100315491950269
  0.6098539862760717  0.5491861040507473  0.5063946448394177
  0.6113511469940605  0.7205500130892659  0.4999770051244710
  0.6118948053410307  0.8886404884807462  0.4994618579915482
  0.7785935874639236  0.0554382581060153  0.4986784183471897
  0.7788750302305303  0.2232426202368742  0.5009144057360047
  0.7778183867974562  0.3908249703946325  0.5064428233557763
  0.7746407401482074  0.5496988115219992  0.5078609475285560
  0.7758986209546990  0.7178225580902051  0.4999427401378611
  0.7779476555081857  0.8873133173568561  0.4982203784899824
  0.9451820524749550  0.0551805604315803  0.4974490169546257
  0.9451496020406722  0.2221284246137500  0.4985839614844068
  0.9443254936739933  0.3889024516527826  0.5013767030560814
  0.9427057158933536  0.5542527014109879  0.5042016203878248
  0.9429842574048806  0.7202419550538863  0.5012024111747166
  0.9441163264738037  0.8874314047064971  0.4982233905470892
  0.0567531721066032  0.1111007381689149  0.4301154012544259
  0.0559807082469419  0.2787336373082141  0.4309160756931121
  0.0544813233035981  0.4454316568877630  0.4333448183962361
  0.0530500237362759  0.6098568119749856  0.4353744530847479
  0.0543206224925612  0.7755385006905939  0.4335552048603404
  0.0561541205215477  0.9432815317589913  0.4312790497615140
  0.2252924573566020  0.1123355734823406  0.4318036547690625
  0.2259813415030720  0.2800310303373692  0.4304717315834523
  0.2212692509179277  0.4461591332334933  0.4317946515087812
  0.2221634274824780  0.6116546042936619  0.4338172030947121
  0.2222520421429834  0.7777835626486507  0.4340532418376384
  0.2238662541663743  0.9450954592656871  0.4330798154940751
  0.3932550390963456  0.1146589679177410  0.4349106627872814
  0.3964946322913576  0.2792660019948912  0.4352248887220753
  0.3899436880864044  0.6125337136809961  0.4332960341012182
  0.3892612734381231  0.7784074047156864  0.4336285383012424
  0.3905129113942181  0.9460922483935974  0.4340349402873471
  0.5581248813570809  0.1156250064001227  0.4351765800309053
  0.5637089539589226  0.2906111796526005  0.4389833378823624
  0.5567309285248783  0.6050600505588122  0.4358860592102545
  0.5558645205133530  0.7766624770497543  0.4326274259366869
  0.5562061057399674  0.9454570332335166  0.4331383319115290
  0.7226574888893467  0.1127125201171353  0.4327647288932326
  0.7231537255162692  0.2838454437650597  0.4364549857405180
  0.7145625754607536  0.5934900576095643  0.4369619068288557
  0.7213402748376225  0.7737770323875992  0.4319628950825916
  0.7221834851943285  0.9436773195064347  0.4315047497298536
  0.8891254958625581  0.1112088277041821  0.4308395532701113
  0.8888628365294338  0.2790996080761161  0.4328976877446422
  0.8847468496121564  0.4450136715515001  0.4366654166471662
  0.8818587687003685  0.6035975747528468  0.4374375233110825
  0.8869729057372169  0.7733423677531377  0.4324218465941456
  0.8887989104310492  0.9428292400356995  0.4305995025066593
  0.0566386107480383  0.1117128808689571  0.5644842267171768
  0.0566358368297131  0.2768633412239296  0.5653798585782042
  0.0563325893365274  0.4436488889745505  0.5679710339626638
  0.0566472449624627  0.6115433002684156  0.5694469437706289
  0.0553742850699024  0.7784505061008389  0.5678048383630454
  0.0554361817959546  0.9448561562439011  0.5655511877802653
  0.2225547320322221  0.1125737339202288  0.5658220897759136
  0.2235339714046276  0.2802696646889160  0.5643797913553783
  0.2228695128536060  0.4429469632037595  0.5662609524865161
  0.2229606550769461  0.6111310866719961  0.5682865201145688
  0.2228858642519640  0.7784959005026266  0.5683590815501844
  0.2223215348041805  0.9451768503862255  0.5673289326024147
  0.3893274206984927  0.1107917654849757  0.5692136971171777
  0.3883465775476083  0.2775188864618983  0.5698901774257692
  0.3904170893538819  0.4411260230769116  0.5637133194602768
  0.3901375761701900  0.6106157675666992  0.5674005748674915
  0.3900382233575428  0.7781440315913812  0.5680666897111024
  0.3899169102474360  0.9448150023770978  0.5683289891903769
  0.5576193740651618  0.1117798905732172  0.5690874075271708
  0.5586269198921130  0.2801611326401172  0.5736753285639509
  0.5577283137038762  0.4435504733164564  0.5757311777795522
  0.5538733213850335  0.6101091205986577  0.5686597095287880
  0.5570164370688246  0.7778270231549058  0.5671062370126165
  0.5573799721021260  0.9447282505020382  0.5674388291920707
  0.7241921182489506  0.1108470412727556  0.5671872791512698
  0.7253399399012466  0.2781705555064420  0.5710761988623076
  0.7238121273010094  0.4428925416370362  0.5762586901177471
  0.7218698272018642  0.6110422765319825  0.5718116384163707
  0.7228879593510271  0.7767526021173978  0.5661754838865178
  0.7237851044521122  0.9439901884847686  0.5658356248953496
  0.8901970776765609  0.1104372684095196  0.5653453805136479
  0.8903720378933997  0.2766794375742592  0.5673744918561354
  0.8896673626043068  0.4427354193962074  0.5715532568924431
  0.8888791273420864  0.6118760428066565  0.5717616250405300
  0.8877340213932783  0.7773282556413506  0.5664964713446778
  0.8895062946456136  0.9441196071759279  0.5649863516576730
  0.3744180473221732  0.4594115212006429  0.4356714040819654
  0.4583908898963358  0.4409816524425096  0.3777034561130961
  0.4306059048068036  0.4348071810603429  0.4258271382740446
 
  0.00000000E+00  0.00000000E+00  0.00000000E+00
  0.00000000E+00  0.00000000E+00  0.00000000E+00
  0.00000000E+00  0.00000000E+00  0.00000000E+00
  0.00000000E+00  0.00000000E+00  0.00000000E+00
  0.00000000E+00  0.00000000E+00  0.00000000E+00
  0.00000000E+00  0.00000000E+00  0.00000000E+00
  0.00000000E+00  0.00000000E+00  0.00000000E+00
  0.00000000E+00  0.00000000E+00  0.00000000E+00
  0.00000000E+00  0.00000000E+00  0.00000000E+00
  0.00000000E+00  0.00000000E+00  0.00000000E+00
  0.00000000E+00  0.00000000E+00  0.00000000E+00
  0.00000000E+00  0.00000000E+00  0.00000000E+00
  0.00000000E+00  0.00000000E+00  0.00000000E+00
  0.00000000E+00  0.00000000E+00  0.00000000E+00
  0.00000000E+00  0.00000000E+00  0.00000000E+00
  0.00000000E+00  0.00000000E+00  0.00000000E+00
  0.00000000E+00  0.00000000E+00  0.00000000E+00
  0.00000000E+00  0.00000000E+00  0.00000000E+00
  0.00000000E+00  0.00000000E+00  0.00000000E+00
  0.00000000E+00  0.00000000E+00  0.00000000E+00
  0.00000000E+00  0.00000000E+00  0.00000000E+00
  0.00000000E+00  0.00000000E+00  0.00000000E+00
  0.00000000E+00  0.00000000E+00  0.00000000E+00
  0.00000000E+00  0.00000000E+00  0.00000000E+00
  0.00000000E+00  0.00000000E+00  0.00000000E+00
  0.00000000E+00  0.00000000E+00  0.00000000E+00
  0.00000000E+00  0.00000000E+00  0.00000000E+00
  0.00000000E+00  0.00000000E+00  0.00000000E+00
  0.00000000E+00  0.00000000E+00  0.00000000E+00
  0.00000000E+00  0.00000000E+00  0.00000000E+00
  0.00000000E+00  0.00000000E+00  0.00000000E+00
  0.00000000E+00  0.00000000E+00  0.00000000E+00
  0.00000000E+00  0.00000000E+00  0.00000000E+00
  0.00000000E+00  0.00000000E+00  0.00000000E+00
  0.00000000E+00  0.00000000E+00  0.00000000E+00
  0.00000000E+00  0.00000000E+00  0.00000000E+00
  0.00000000E+00  0.00000000E+00  0.00000000E+00
  0.00000000E+00  0.00000000E+00  0.00000000E+00
  0.00000000E+00  0.00000000E+00  0.00000000E+00
  0.00000000E+00  0.00000000E+00  0.00000000E+00
  0.00000000E+00  0.00000000E+00  0.00000000E+00
  0.00000000E+00  0.00000000E+00  0.00000000E+00
  0.00000000E+00  0.00000000E+00  0.00000000E+00
  0.00000000E+00  0.00000000E+00  0.00000000E+00
  0.00000000E+00  0.00000000E+00  0.00000000E+00
  0.00000000E+00  0.00000000E+00  0.00000000E+00
  0.00000000E+00  0.00000000E+00  0.00000000E+00
  0.00000000E+00  0.00000000E+00  0.00000000E+00
  0.00000000E+00  0.00000000E+00  0.00000000E+00
  0.00000000E+00  0.00000000E+00  0.00000000E+00
  0.00000000E+00  0.00000000E+00  0.00000000E+00
  0.00000000E+00  0.00000000E+00  0.00000000E+00
  0.00000000E+00  0.00000000E+00  0.00000000E+00
  0.00000000E+00  0.00000000E+00  0.00000000E+00
  0.00000000E+00  0.00000000E+00  0.00000000E+00
  0.00000000E+00  0.00000000E+00  0.00000000E+00
  0.00000000E+00  0.00000000E+00  0.00000000E+00
  0.00000000E+00  0.00000000E+00  0.00000000E+00
  0.00000000E+00  0.00000000E+00  0.00000000E+00
  0.00000000E+00  0.00000000E+00  0.00000000E+00
  0.00000000E+00  0.00000000E+00  0.00000000E+00
  0.00000000E+00  0.00000000E+00  0.00000000E+00
  0.00000000E+00  0.00000000E+00  0.00000000E+00
  0.00000000E+00  0.00000000E+00  0.00000000E+00
  0.00000000E+00  0.00000000E+00  0.00000000E+00
  0.00000000E+00  0.00000000E+00  0.00000000E+00
  0.00000000E+00  0.00000000E+00  0.00000000E+00
  0.00000000E+00  0.00000000E+00  0.00000000E+00
  0.00000000E+00  0.00000000E+00  0.00000000E+00
  0.00000000E+00  0.00000000E+00  0.00000000E+00
  0.00000000E+00  0.00000000E+00  0.00000000E+00
  0.00000000E+00  0.00000000E+00  0.00000000E+00
  0.00000000E+00  0.00000000E+00  0.00000000E+00
  0.00000000E+00  0.00000000E+00  0.00000000E+00
  0.00000000E+00  0.00000000E+00  0.00000000E+00
  0.00000000E+00  0.00000000E+00  0.00000000E+00
  0.00000000E+00  0.00000000E+00  0.00000000E+00
  0.00000000E+00  0.00000000E+00  0.00000000E+00
  0.00000000E+00  0.00000000E+00  0.00000000E+00
  0.00000000E+00  0.00000000E+00  0.00000000E+00
  0.00000000E+00  0.00000000E+00  0.00000000E+00
  0.00000000E+00  0.00000000E+00  0.00000000E+00
  0.00000000E+00  0.00000000E+00  0.00000000E+00
  0.00000000E+00  0.00000000E+00  0.00000000E+00
  0.00000000E+00  0.00000000E+00  0.00000000E+00
  0.00000000E+00  0.00000000E+00  0.00000000E+00
  0.00000000E+00  0.00000000E+00  0.00000000E+00
  0.00000000E+00  0.00000000E+00  0.00000000E+00
  0.00000000E+00  0.00000000E+00  0.00000000E+00
  0.00000000E+00  0.00000000E+00  0.00000000E+00
  0.00000000E+00  0.00000000E+00  0.00000000E+00
  0.00000000E+00  0.00000000E+00  0.00000000E+00
  0.00000000E+00  0.00000000E+00  0.00000000E+00
  0.00000000E+00  0.00000000E+00  0.00000000E+00
  0.00000000E+00  0.00000000E+00  0.00000000E+00
  0.00000000E+00  0.00000000E+00  0.00000000E+00
  0.00000000E+00  0.00000000E+00  0.00000000E+00
  0.00000000E+00  0.00000000E+00  0.00000000E+00
  0.00000000E+00  0.00000000E+00  0.00000000E+00
  0.00000000E+00  0.00000000E+00  0.00000000E+00
  0.00000000E+00  0.00000000E+00  0.00000000E+00
  0.00000000E+00  0.00000000E+00  0.00000000E+00
  0.00000000E+00  0.00000000E+00  0.00000000E+00
  0.00000000E+00  0.00000000E+00  0.00000000E+00
  0.00000000E+00  0.00000000E+00  0.00000000E+00
  0.00000000E+00  0.00000000E+00  0.00000000E+00
  0.00000000E+00  0.00000000E+00  0.00000000E+00
  0.00000000E+00  0.00000000E+00  0.00000000E+00
