Mo1 S2                                  
1.0
       19.1418952942         0.0000000000         0.0000000000
       -9.5709489008        16.5773646751         0.0000000000
        0.0000000000         0.0000000000        23.1298294067
   Mo   S   O   C    
   36   69   2   1
Cartesian
     1.598102639         0.940372390        11.491244812
     0.007722197         3.699875111        11.516786036
    -1.586972449         6.445359127        11.557639874
    -3.190317974         9.206178775        11.576894867
    -4.791398711        11.975323244        11.551983817
    -6.383449217        14.743379684        11.505542406
     4.789335671         0.976798775        11.508143358
     3.198477677         3.768597622        11.569861420
     1.629944651         6.485080036        11.659797781
     0.027544273         9.189502001        11.627255122
    -1.589233129        11.975324222        11.551982302
    -3.190318057        14.760541068        11.512725791
     7.971925167         0.976798602        11.508143557
     6.380631399         3.807568275        11.580465103
     4.784026958         6.540032405        11.757829405
     3.210907794         9.117058663        11.741750359
     1.611977560        11.942248287        11.561473670
     0.002814353        14.743382797        11.505541093
    11.163157633         0.940371565        11.491244140
     9.562782329         3.768594751        11.569860568
     7.977235955         6.540031684        11.757832626
     6.380631162         9.082535006        11.792499479
     4.793396652        11.886350142        11.554689272
     3.195936242        14.709372509        11.486378056
    14.355338955         0.908839181        11.469263426
    12.753539152         3.699874195        11.516788455
    11.131316662         6.485080074        11.659798103
     9.550355632         9.117056432        11.741755925
     7.967864984        11.886350573        11.554690899
     6.380630783        14.687373223        11.473509138
    17.547817476         0.908839389        11.469263669
    15.951578900         3.678503020        11.497691457
    14.348231533         6.445359595        11.557638119
    12.733716252         9.189499081        11.627256934
    11.149285521        11.942245307        11.561478549
     9.565325494        14.709370863        11.486381089
     0.013900048         1.868121755         9.934403835
    -1.583488159         4.631930194         9.965181285
    -3.190317211         7.379857316        10.007952979
    -4.817536888        10.103826171        10.037405771
    -6.396345960        12.858109202         9.986629041
    -7.971323698        15.654750772         9.940156437
     3.203556186         1.933068374         9.972193488
     1.648667709         4.724455392        10.025392492
     0.084196250         7.385169280        10.058962449
    -1.563099068        10.103825633        10.037405203
    -3.190317133        12.884851076         9.987800012
    -4.783681874        15.690281940         9.957852865
     6.380629393         1.968405560         9.982405800
     4.790000810         4.872442579        10.083513172
     1.682195545        10.002855792        10.097452770
     0.015712043        12.858116621         9.986623788
    -1.596958020        15.690283047         9.957849036
     9.557702219         1.933068063         9.972191070
     7.971261868         4.872443511        10.083512984
     4.815921784         9.811710416        10.137040208
     3.205961508        12.806689262         9.977056121
     1.590688113        15.654752485         9.940152566
    12.747360613         1.868124716         9.934404034
    11.112595644         4.724452383        10.025396478
     7.945342339         9.811711881        10.137044513
     6.380623849        12.768447736         9.967535509
     4.784063499        15.620614525         9.919005498
    15.951579008         1.844180255         9.919848570
    14.344750226         4.631928441         9.965183047
    12.677063989         7.385168801        10.058962544
    11.079065824        10.002855117        10.097455871
     9.555302335        12.806688325         9.977061587
     7.977200823        15.620614829         9.919006436
    -0.010983038         1.830036438        13.041845372
    -1.602747523         4.576293580        13.073490285
    -3.190319170         7.351374409        13.116965342
    -4.777872425        10.148252940        13.134219446
    -6.390017123        12.918071221        13.087829411
    -7.989828133        15.663554799        13.041154752
     3.182744098         1.864834281        13.065298510
     1.568834150         4.603562595        13.135125963
    -0.015425867         7.332445385        13.175072297
    -1.602763466        10.148254810        13.134219214
    -3.190316021        12.927914855        13.088298024
    -4.790147418        15.692793534        13.054799436
     6.380629988         1.892957792        13.071447348
     4.780865486         4.649840597        13.190740443
     3.165902153         7.323706753        13.288879590
     1.598011819        10.148999761        13.199230884
     0.009387251        12.918069507        13.087824636
    -1.590487886        15.692793097        13.054797951
     9.578517800         1.864831629        13.065299145
     7.980396649         4.649839529        13.190740666
     6.380629680         7.297280250        13.340121359
     4.775417140        10.139334686        13.250765133
     3.211899905        12.891527435        13.074617507
     1.609184173        15.663542300        13.041152301
    12.772243068         1.830034744        13.041845542
    11.192424631         4.603562633        13.135125040
     9.595360404         7.323700669        13.288885526
     7.985844708        10.139332246        13.250767650
     6.380633434        12.871493330        13.063656998
     4.795413908        15.637885708        13.023197578
    15.951578283         1.815792145        13.028735066
    14.364009279         4.576295808        13.073489192
    12.776686406         7.332443390        13.175075247
    11.163254013        10.148998521        13.199235732
     9.549367600        12.891527637        13.074624465
     7.965846521        15.637886536        13.023199225
     3.165900000         7.323700000        10.321600000
     5.485900000         7.323700000        10.321600000
     4.325900000         7.323700000        10.321600000
