H4 W48 Se99 C1 O1                       
   1.00000000000000     
    33.0000000000000000    0.0000000000000000    0.0000000000000000
     0.0000000000000000   26.2560005200000006    0.0000000000000000
     0.0000000000000000    0.0000000000000000   18.1299999999999990
   W    Se   O    C    H 
    48    99     1     1     4
Direct
  0.2797135307368711  0.0414642070867321  0.4996091305022468
  0.2853300170656522  0.2775502009645749  0.4998041638044157
  0.2810546445677286  0.5416203829891386  0.4997181464309910
  0.2863369487435918  0.7760518888624370  0.4995392879157219
  0.4528345081156458  0.0349998040992044  0.4999838605534844
  0.4538263680115840  0.2850402428123054  0.5001188688237627
  0.4547203979140656  0.5350439537617795  0.4999569172204085
  0.4551928601436694  0.7849487431629077  0.4998205611510481
  0.6258876139017913  0.0352976624161288  0.4997232917430710
  0.6259621244787249  0.2838658168132792  0.5004712735468609
  0.6299187915886978  0.5338865617603143  0.5006352709142372
  0.6274475916316293  0.7861637856426817  0.5004916126079682
  0.2849236690170024  0.1682449918070027  0.4997579263057291
  0.2805062788491395  0.4038269348421362  0.4997459312959195
  0.2866642832730325  0.6673510355735854  0.4996097636861381
  0.2804017586236938  0.9021606158291319  0.4995649970055741
  0.4534148047647569  0.1594954646524878  0.5000892368765590
  0.4542151272951141  0.4098547801452692  0.5000809819505019
  0.4558963459987195  0.6592824171226330  0.4998336992793875
  0.4535993956793158  0.9095080344596467  0.4998748998388847
  0.6262810857024678  0.1592528819265181  0.5007290828661566
  0.6276336319761723  0.4088508840715937  0.5007022311575177
  0.6302028332099695  0.6596054902835247  0.5005759177316679
  0.6266733183831821  0.9112873730735711  0.5008283639700156
  0.3677189753333259  0.2225158450759119  0.4999405542713940
  0.3669031787100827  0.4725095325496907  0.4998472213513957
  0.3693410013474606  0.7219632748358397  0.4996488955281410
  0.3656272868670599  0.9720676649486057  0.4996637631039996
  0.5402951980385789  0.2218377860008516  0.5002700288674385
  0.5413444393678913  0.4722817026132305  0.5003433695742456
  0.5422133473902274  0.7220703853676790  0.5000170001611006
  0.5394668757402693  0.9726915173777825  0.5001682771228964
  0.7144031221827930  0.2128503727328111  0.5012157687352812
  0.7070575843297813  0.4600228034910024  0.5010382680403104
  0.7149651939213498  0.7182069965673282  0.5020657136895701
  0.7127940670887885  0.9765198687824227  0.4999195641632587
  0.3671933544334829  0.0978462372719764  0.4998192462159791
  0.3681299797390759  0.3470262502084763  0.4999303655911112
  0.3692554345538001  0.5980177868645247  0.4997313763928002
  0.3684853295365502  0.8462686609121096  0.4996516507980832
  0.5393434168067581  0.0971609991465748  0.5002423933477623
  0.5399256734878408  0.3470581923785572  0.5003322786597332
  0.5425939601756717  0.5972229972723371  0.5001057105773548
  0.5412129221190298  0.8479291799164838  0.5001042884409902
  0.7127049829335536  0.0953076674730595  0.4998845704417981
  0.7123405974667009  0.3533459610944548  0.5005949771209669
  0.7184744720094561  0.6079935647132882  0.5003194117099009
  0.7146531278865291  0.8590602579259822  0.5017854352744405
  0.2515493451257781  0.1032037914524054  0.5886381014319272
  0.2522131444595600  0.3425450815680035  0.5890682969841402
  0.2531734607235730  0.6029088448611254  0.5892907373621256
  0.2525495473098711  0.8405088837225460  0.5888125227205047
  0.4241591251298947  0.0972169008566452  0.5936843325549814
  0.4252116183659487  0.3476861077975523  0.5936550049172017
  0.4263545018056647  0.5973775051244028  0.5934792846207285
  0.4255758807706689  0.8469584264629662  0.5934180008039304
  0.5968250741663993  0.0971853702682038  0.5934035437629300
  0.5973090874378464  0.3462786820805032  0.5933909920461915
  0.6008659723731403  0.5963930636567948  0.5926872781522571
  0.5985143985172775  0.8480961181299000  0.5938646550085531
  0.4251791109207494  0.2223467417981568  0.5933812484846254
  0.4248934212516821  0.4725584204022464  0.5925934343412755
  0.4270520930787741  0.7219957485851981  0.5929102566799903
  0.4235916029629785  0.9720397496097590  0.5923728486041938
  0.5976858287122711  0.2218074850880067  0.5939845467654052
  0.5991101904353876  0.4728482907563245  0.5930494336876816
  0.5999600086398977  0.7223945208790893  0.5929302814276326
  0.5968939050522901  0.9731277301018604  0.5933368168895772
  0.3360044566794319  0.0347832713126911  0.5923611376181781
  0.3390322236172164  0.2844019606310851  0.5953331554857128
  0.3377231243869201  0.5353544809753171  0.5923294084480060
  0.3400179216395097  0.7834378485569068  0.5950761221407217
  0.5102205474494628  0.0347803220052394  0.5934517287646178
  0.5111870581768148  0.2843709132314217  0.5933432477672602
  0.5125421979786404  0.5350693284613477  0.5929431053693853
  0.5128469313197624  0.7847446417766321  0.5928242245947251
  0.6844969630092955  0.0358095661835055  0.5952738793087138
  0.6861957734379081  0.2829448873220254  0.5893915994902003
  0.6932309716786007  0.5348745388830147  0.5889689063052680
  0.6871550729689284  0.7879754300520976  0.5904239921146579
  0.3385354147507071  0.1607904759066500  0.5952398547273113
  0.3370698529114435  0.4100254532270304  0.5924705325146759
  0.3403996687919449  0.6604855097681555  0.5952043596265240
  0.3367940255849838  0.9089571135188921  0.5922639694287616
  0.5108299009233976  0.1597251889399548  0.5934562065949489
  0.5117472304195477  0.4100833152629649  0.5934859724563810
  0.5135617607198968  0.6595766379660545  0.5932071257454062
  0.5111288613189919  0.9098605477901063  0.5931907801534823
  0.6837960546435228  0.1575389504937550  0.5975275701331189
  0.6816478072091189  0.4059697966483374  0.6033174653346866
  0.6858773473213065  0.6602988836236734  0.5993367032474936
  0.6838744877977647  0.9141860801675669  0.5979932904476375
  0.2515997470901265  0.1032781653878602  0.4107101119343299
  0.2523030340700072  0.3425021145757603  0.4103711231815320
  0.2531985468044074  0.6028879037452920  0.4100206770987313
  0.2525873054566403  0.8405011380728278  0.4102549966038295
  0.4242924434461374  0.0972798776043944  0.4062495291581921
  0.4253291837004367  0.3476553376846854  0.4064404537953046
  0.4264677058302689  0.5972972902336008  0.4061828843328086
  0.4257011945823589  0.8469928675508775  0.4061471685701052
  0.5967856583145382  0.0975457374177910  0.4071057024277389
  0.5974498414157854  0.3463738676853921  0.4076047900839259
  0.6011610142914623  0.5964019679921763  0.4081117861660664
  0.5989072268516289  0.8481660110354909  0.4070126358228080
  0.2254028887602869  0.2232179211521014  0.4998195751855135
  0.2307340932847527  0.4729835763616298  0.4999310939257565
  0.2266168582448297  0.7214427912910159  0.4997396029012556
  0.2305806413376078  0.9714786658968887  0.4998675224921776
  0.4252900721496726  0.2223734734707656  0.4067227356957167
  0.4250117281181815  0.4724772003992168  0.4073124408115352
  0.4271650681528820  0.7219852720955074  0.4066275904919920
  0.4237447859817653  0.9721139766599860  0.4072919869553355
  0.5979315476707164  0.2217924107346644  0.4069079645466686
  0.5992408090893367  0.4727846534030197  0.4081107840346691
  0.6002689254052586  0.7224246135597264  0.4076883593197886
  0.5969507222485144  0.9727576488965672  0.4071549848927321
  0.3361041981250902  0.0348773476674682  0.4069301796103464
  0.3391319546350012  0.2843988922035613  0.4044563183100828
  0.3377751633382708  0.5352748841847145  0.4072108702993308
  0.3401062631874486  0.7834516804917802  0.4041220564904600
  0.5103705761324837  0.0348341651074149  0.4068245006923988
  0.5113158488191976  0.2843892334180496  0.4071271667976900
  0.5127192960320670  0.5349432069746933  0.4073287096675927
  0.5130222279843631  0.7848104198596687  0.4071101993839565
  0.6833678770785914  0.0357333198849816  0.4031172878222934
  0.6863398874290498  0.2829754210674115  0.4117928552171587
  0.6925353023072399  0.5345446894828715  0.4112517092552369
  0.6877642489834549  0.7877858353368634  0.4120848368770354
  0.3386357891569741  0.1608642303474075  0.4044406596602923
  0.3371785561917464  0.4099721702138706  0.4072016396087682
  0.3404655031737411  0.6604242564588078  0.4041009368482003
  0.3368707334684102  0.9089725943540002  0.4069618412529972
  0.5109252123300748  0.1597569787822596  0.4069573450996817
  0.5119108825886447  0.4100659702722871  0.4070076416451467
  0.5137259538024208  0.6595143419467188  0.4067359955036423
  0.5112973978346084  0.9098980716751357  0.4069057846417052
  0.6844211310928153  0.1576072729607446  0.4046267725306829
  0.6816292673315483  0.4061435779675405  0.3983863492442324
  0.6868678681986506  0.6614354173940665  0.4027200665300623
  0.6846779010610917  0.9137723087248764  0.4047171731161494
  0.7731570028646400  0.9152076371483555  0.5127534526663867
  0.7682979099639556  0.7884556769122946  0.4994518838766992
  0.7768381232012449  0.6658041550233560  0.5132606873812002
  0.7723666642485826  0.4204139289182300  0.5000493806725007
  0.7674705733497057  0.2878039274889320  0.4990983920580141
  0.7731600257196851  0.1580838110724507  0.5117594661415998
  0.7714732642994868  0.0363191730523496  0.4817457255684393
  0.7722268951177286  0.5562317254056620  0.4863046363952501
  0.8148355659473971  0.5567455338236479  0.5074015478788072
  0.8254836778663511  0.5171564405671391  0.5077450604280682
  0.8175119196511420  0.5732028555253381  0.5626587040667239
  0.7652112265277354  0.5223293362374730  0.4666416880445214
  0.8320418510032139  0.5794574464141807  0.4674581518358217
 
  0.00000000E+00  0.00000000E+00  0.00000000E+00
  0.00000000E+00  0.00000000E+00  0.00000000E+00
  0.00000000E+00  0.00000000E+00  0.00000000E+00
  0.00000000E+00  0.00000000E+00  0.00000000E+00
  0.00000000E+00  0.00000000E+00  0.00000000E+00
  0.00000000E+00  0.00000000E+00  0.00000000E+00
  0.00000000E+00  0.00000000E+00  0.00000000E+00
  0.00000000E+00  0.00000000E+00  0.00000000E+00
  0.00000000E+00  0.00000000E+00  0.00000000E+00
  0.00000000E+00  0.00000000E+00  0.00000000E+00
  0.00000000E+00  0.00000000E+00  0.00000000E+00
  0.00000000E+00  0.00000000E+00  0.00000000E+00
  0.00000000E+00  0.00000000E+00  0.00000000E+00
  0.00000000E+00  0.00000000E+00  0.00000000E+00
  0.00000000E+00  0.00000000E+00  0.00000000E+00
  0.00000000E+00  0.00000000E+00  0.00000000E+00
  0.00000000E+00  0.00000000E+00  0.00000000E+00
  0.00000000E+00  0.00000000E+00  0.00000000E+00
  0.00000000E+00  0.00000000E+00  0.00000000E+00
  0.00000000E+00  0.00000000E+00  0.00000000E+00
  0.00000000E+00  0.00000000E+00  0.00000000E+00
  0.00000000E+00  0.00000000E+00  0.00000000E+00
  0.00000000E+00  0.00000000E+00  0.00000000E+00
  0.00000000E+00  0.00000000E+00  0.00000000E+00
  0.00000000E+00  0.00000000E+00  0.00000000E+00
  0.00000000E+00  0.00000000E+00  0.00000000E+00
  0.00000000E+00  0.00000000E+00  0.00000000E+00
  0.00000000E+00  0.00000000E+00  0.00000000E+00
  0.00000000E+00  0.00000000E+00  0.00000000E+00
  0.00000000E+00  0.00000000E+00  0.00000000E+00
  0.00000000E+00  0.00000000E+00  0.00000000E+00
  0.00000000E+00  0.00000000E+00  0.00000000E+00
  0.00000000E+00  0.00000000E+00  0.00000000E+00
  0.00000000E+00  0.00000000E+00  0.00000000E+00
  0.00000000E+00  0.00000000E+00  0.00000000E+00
  0.00000000E+00  0.00000000E+00  0.00000000E+00
  0.00000000E+00  0.00000000E+00  0.00000000E+00
  0.00000000E+00  0.00000000E+00  0.00000000E+00
  0.00000000E+00  0.00000000E+00  0.00000000E+00
  0.00000000E+00  0.00000000E+00  0.00000000E+00
  0.00000000E+00  0.00000000E+00  0.00000000E+00
  0.00000000E+00  0.00000000E+00  0.00000000E+00
  0.00000000E+00  0.00000000E+00  0.00000000E+00
  0.00000000E+00  0.00000000E+00  0.00000000E+00
  0.00000000E+00  0.00000000E+00  0.00000000E+00
  0.00000000E+00  0.00000000E+00  0.00000000E+00
  0.00000000E+00  0.00000000E+00  0.00000000E+00
  0.00000000E+00  0.00000000E+00  0.00000000E+00
  0.00000000E+00  0.00000000E+00  0.00000000E+00
  0.00000000E+00  0.00000000E+00  0.00000000E+00
  0.00000000E+00  0.00000000E+00  0.00000000E+00
  0.00000000E+00  0.00000000E+00  0.00000000E+00
  0.00000000E+00  0.00000000E+00  0.00000000E+00
  0.00000000E+00  0.00000000E+00  0.00000000E+00
  0.00000000E+00  0.00000000E+00  0.00000000E+00
  0.00000000E+00  0.00000000E+00  0.00000000E+00
  0.00000000E+00  0.00000000E+00  0.00000000E+00
  0.00000000E+00  0.00000000E+00  0.00000000E+00
  0.00000000E+00  0.00000000E+00  0.00000000E+00
  0.00000000E+00  0.00000000E+00  0.00000000E+00
  0.00000000E+00  0.00000000E+00  0.00000000E+00
  0.00000000E+00  0.00000000E+00  0.00000000E+00
  0.00000000E+00  0.00000000E+00  0.00000000E+00
  0.00000000E+00  0.00000000E+00  0.00000000E+00
  0.00000000E+00  0.00000000E+00  0.00000000E+00
  0.00000000E+00  0.00000000E+00  0.00000000E+00
  0.00000000E+00  0.00000000E+00  0.00000000E+00
  0.00000000E+00  0.00000000E+00  0.00000000E+00
  0.00000000E+00  0.00000000E+00  0.00000000E+00
  0.00000000E+00  0.00000000E+00  0.00000000E+00
  0.00000000E+00  0.00000000E+00  0.00000000E+00
  0.00000000E+00  0.00000000E+00  0.00000000E+00
  0.00000000E+00  0.00000000E+00  0.00000000E+00
  0.00000000E+00  0.00000000E+00  0.00000000E+00
  0.00000000E+00  0.00000000E+00  0.00000000E+00
  0.00000000E+00  0.00000000E+00  0.00000000E+00
  0.00000000E+00  0.00000000E+00  0.00000000E+00
  0.00000000E+00  0.00000000E+00  0.00000000E+00
  0.00000000E+00  0.00000000E+00  0.00000000E+00
  0.00000000E+00  0.00000000E+00  0.00000000E+00
  0.00000000E+00  0.00000000E+00  0.00000000E+00
  0.00000000E+00  0.00000000E+00  0.00000000E+00
  0.00000000E+00  0.00000000E+00  0.00000000E+00
  0.00000000E+00  0.00000000E+00  0.00000000E+00
  0.00000000E+00  0.00000000E+00  0.00000000E+00
  0.00000000E+00  0.00000000E+00  0.00000000E+00
  0.00000000E+00  0.00000000E+00  0.00000000E+00
  0.00000000E+00  0.00000000E+00  0.00000000E+00
  0.00000000E+00  0.00000000E+00  0.00000000E+00
  0.00000000E+00  0.00000000E+00  0.00000000E+00
  0.00000000E+00  0.00000000E+00  0.00000000E+00
  0.00000000E+00  0.00000000E+00  0.00000000E+00
  0.00000000E+00  0.00000000E+00  0.00000000E+00
  0.00000000E+00  0.00000000E+00  0.00000000E+00
  0.00000000E+00  0.00000000E+00  0.00000000E+00
  0.00000000E+00  0.00000000E+00  0.00000000E+00
  0.00000000E+00  0.00000000E+00  0.00000000E+00
  0.00000000E+00  0.00000000E+00  0.00000000E+00
  0.00000000E+00  0.00000000E+00  0.00000000E+00
  0.00000000E+00  0.00000000E+00  0.00000000E+00
  0.00000000E+00  0.00000000E+00  0.00000000E+00
  0.00000000E+00  0.00000000E+00  0.00000000E+00
  0.00000000E+00  0.00000000E+00  0.00000000E+00
  0.00000000E+00  0.00000000E+00  0.00000000E+00
  0.00000000E+00  0.00000000E+00  0.00000000E+00
  0.00000000E+00  0.00000000E+00  0.00000000E+00
  0.00000000E+00  0.00000000E+00  0.00000000E+00
  0.00000000E+00  0.00000000E+00  0.00000000E+00
  0.00000000E+00  0.00000000E+00  0.00000000E+00
  0.00000000E+00  0.00000000E+00  0.00000000E+00
  0.00000000E+00  0.00000000E+00  0.00000000E+00
  0.00000000E+00  0.00000000E+00  0.00000000E+00
  0.00000000E+00  0.00000000E+00  0.00000000E+00
  0.00000000E+00  0.00000000E+00  0.00000000E+00
  0.00000000E+00  0.00000000E+00  0.00000000E+00
  0.00000000E+00  0.00000000E+00  0.00000000E+00
  0.00000000E+00  0.00000000E+00  0.00000000E+00
  0.00000000E+00  0.00000000E+00  0.00000000E+00
  0.00000000E+00  0.00000000E+00  0.00000000E+00
  0.00000000E+00  0.00000000E+00  0.00000000E+00
  0.00000000E+00  0.00000000E+00  0.00000000E+00
  0.00000000E+00  0.00000000E+00  0.00000000E+00
  0.00000000E+00  0.00000000E+00  0.00000000E+00
  0.00000000E+00  0.00000000E+00  0.00000000E+00
  0.00000000E+00  0.00000000E+00  0.00000000E+00
  0.00000000E+00  0.00000000E+00  0.00000000E+00
  0.00000000E+00  0.00000000E+00  0.00000000E+00
  0.00000000E+00  0.00000000E+00  0.00000000E+00
  0.00000000E+00  0.00000000E+00  0.00000000E+00
  0.00000000E+00  0.00000000E+00  0.00000000E+00
  0.00000000E+00  0.00000000E+00  0.00000000E+00
  0.00000000E+00  0.00000000E+00  0.00000000E+00
  0.00000000E+00  0.00000000E+00  0.00000000E+00
  0.00000000E+00  0.00000000E+00  0.00000000E+00
  0.00000000E+00  0.00000000E+00  0.00000000E+00
  0.00000000E+00  0.00000000E+00  0.00000000E+00
  0.00000000E+00  0.00000000E+00  0.00000000E+00
  0.00000000E+00  0.00000000E+00  0.00000000E+00
  0.00000000E+00  0.00000000E+00  0.00000000E+00
  0.00000000E+00  0.00000000E+00  0.00000000E+00
  0.00000000E+00  0.00000000E+00  0.00000000E+00
  0.00000000E+00  0.00000000E+00  0.00000000E+00
  0.00000000E+00  0.00000000E+00  0.00000000E+00
  0.00000000E+00  0.00000000E+00  0.00000000E+00
  0.00000000E+00  0.00000000E+00  0.00000000E+00
  0.00000000E+00  0.00000000E+00  0.00000000E+00
  0.00000000E+00  0.00000000E+00  0.00000000E+00
  0.00000000E+00  0.00000000E+00  0.00000000E+00
  0.00000000E+00  0.00000000E+00  0.00000000E+00
  0.00000000E+00  0.00000000E+00  0.00000000E+00
  0.00000000E+00  0.00000000E+00  0.00000000E+00
  0.00000000E+00  0.00000000E+00  0.00000000E+00
  0.00000000E+00  0.00000000E+00  0.00000000E+00
