CO2                                     
   1.00000000000000     
    20.0000000000000000    0.0000000000000000    0.0000000000000000
     0.0000000000000000   20.0000000000000000    0.0000000000000000
     0.0000000000000000    0.0000000000000000   20.0000000000000000
   C    O 
     1     2
Direct
  0.4999999999658655  0.4999999952597776  0.5000000001697842
  0.5000000000648868  0.5588351625978163  0.5000000002657075
  0.4999999999692477  0.4411648421423990  0.4999999995645084
 
  0.00000000E+00  0.00000000E+00  0.00000000E+00
  0.00000000E+00  0.00000000E+00  0.00000000E+00
  0.00000000E+00  0.00000000E+00  0.00000000E+00
