CO2
1.0
       20.0000000000         0.0000000000         0.0000000000
        0.0000000000        20.0000000000         0.0000000000
        0.0000000000         0.0000000000        20.0000000000
    C    O
    1    2
Cartesian
    10.000000000        10.000000000        10.000000000
    10.000000000        11.160000000        10.000000000
    10.000000000         8.840000000        10.000000000
