Mo36 H4 Se71 C1 O1                      
   1.00000000000000     
    19.7339992522999985    0.0000000000000000    0.0000000000000000
    -9.8669996262000002   17.0901446708000009    0.0000000000000000
     0.0000000000000000    0.0000000000000000   25.8540000915999997
   Mo   Se   O    C    H 
    36    71     1     1     4
Direct
  0.1228124345274514  0.0468212519362490  0.4981634524167777
  0.1238426683104908  0.2139155104730992  0.4973619598773827
  0.1238117163856202  0.3794193576867375  0.4973657018252257
  0.1227464537573838  0.5454721591759947  0.4981813675285107
  0.1224077224946167  0.7123751292743463  0.4988233981593425
  0.1224318071191895  0.8795043273883164  0.4988080107271763
  0.2893542187892805  0.0468236768764342  0.4982084076905423
  0.2903976499059671  0.2156077508085487  0.4956320020496462
  0.2942768760768011  0.3818699048746848  0.4929704730252929
  0.2903855673874592  0.5443166103456306  0.4957176682602997
  0.2893370001054704  0.7120531317812185  0.4983067122949930
  0.2890146841897550  0.8792399852356036  0.4989932939678154
  0.4555561112644601  0.0462849890669124  0.4990795544119717
  0.4554482417685432  0.2139500201432123  0.4975068092334072
  0.4530411332812878  0.3820548939227864  0.4929946100546207
  0.4530360294100530  0.5404938778787988  0.4930122845780814
  0.4554540296139156  0.7110003865021367  0.4976022910526773
  0.4555765469789856  0.8786737052883502  0.4991062371604010
  0.6222227685575286  0.0457546496657272  0.4994845580882720
  0.6220468689059930  0.2127151535218601  0.4990016891917957
  0.6209596529999298  0.3793263780843181  0.4974927866989649
  0.6195867628883356  0.5445444282190096  0.4955586606984587
  0.6210002245987212  0.7111602175150776  0.4975186959097747
  0.6220947884112120  0.8786955947565003  0.4990027256006105
  0.7890316039557426  0.0457423315197547  0.4994232256158907
  0.7890026582861666  0.2125217120035176  0.4994408164873375
  0.7885018229490950  0.3791679615849354  0.4990125698008296
  0.7881168953379740  0.5454814395572350  0.4981450353206633
  0.7881559527797111  0.7121157020200757  0.4981576970092335
  0.7886107430475796  0.8787265971191107  0.4989763527744537
  0.9561570980003833  0.0462917639653908  0.4989618464590036
  0.9561014301443137  0.2127068045387262  0.4988860897977854
  0.9561070549420180  0.3791575206094414  0.4989665432647265
  0.9555679461862322  0.5456912284042937  0.4988826234168632
  0.9553622479774299  0.7123726232456359  0.4987477227479937
  0.9556489222216462  0.8792814828060820  0.4988654335921479
  0.0688154203908922  0.1036380007806400  0.5630624355491265
  0.0688747704603794  0.2692081032111610  0.5628153741076943
  0.0687728952036994  0.4346986439347902  0.5630657716090234
  0.0672660395403005  0.6009219160265179  0.5634493321283258
  0.0667049917566567  0.7680470040033343  0.5635943880171957
  0.0673627694702871  0.9358649230666375  0.5634144487517726
  0.2352325718485214  0.1052141014910286  0.5619025262479403
  0.2394372738554197  0.2745540600845452  0.5603009073836268
  0.2393669750811605  0.4342856858091308  0.5603075833424160
  0.2351400644069686  0.5995122037222361  0.5619691810105445
  0.2337261564304108  0.7674612547186929  0.5635312589102387
  0.2337959043983037  0.9358604383772483  0.5634612143587896
  0.4000924337874826  0.1035554328492967  0.5631379196139951
  0.4002781546408860  0.2746368513850072  0.5603475362082033
  0.4003131965893443  0.5950970900182493  0.5603986936979382
  0.4000911866103398  0.7660743629984270  0.5632684227264492
  0.4000272252472550  0.9347055141491745  0.5638791607375196
  0.5664422629644892  0.1017237260708412  0.5640878151209240
  0.5656809301072161  0.2690975513643639  0.5629519763784760
  0.5605405888174514  0.4346681378405695  0.5602680382840394
  0.5606045993065505  0.5954187753685235  0.5602160007536165
  0.5657583024858654  0.7661066122983106  0.5630617651866497
  0.5665025679992944  0.9340130699016941  0.5641041548608541
  0.7334610108520829  0.1013046940079757  0.5643538811015244
  0.7330701176541824  0.2683195345949453  0.5640596263072327
  0.7313928320083765  0.4347608912418977  0.5630877030385490
  0.7299380625149278  0.5997389633567046  0.5618615257574867
  0.7314983054699491  0.7662011113316068  0.5631115962458952
  0.7331534274680024  0.9340124209196422  0.5640473756025829
  0.9007878164555603  0.1017417285165780  0.5640198341108223
  0.9007767011501532  0.2682857227952820  0.5640216462053961
  0.9000842288546461  0.4346388415472883  0.5637733538203801
  0.8990913965391900  0.6009780106633769  0.5633878110894009
  0.8991816840257831  0.7675283116018219  0.5633913272311643
  0.9001615562629821  0.9347380944517192  0.5637682539440763
  0.0664678069901224  0.1014393539625042  0.4334086756030135
  0.0662406468363117  0.2678308666467155  0.4331926987368082
  0.0664454731081876  0.4344282971650421  0.4334268520992979
  0.0666205030994359  0.6013434018558044  0.4339015536391404
  0.0667852413373818  0.7680997676824164  0.4340830151988475
  0.0666822446462785  0.9347712374753754  0.4338846770198122
  0.2333888438394151  0.1013684089788794  0.4327764211473267
  0.2330580235749186  0.2691017139789267  0.4304273226842615
  0.2330893968739498  0.4334833054473246  0.4304841600300131
  0.2333799539078819  0.6015513114139763  0.4328623174813239
  0.2335164504896785  0.7682197994135327  0.4339849557794984
  0.2335357341489777  0.9347241875766208  0.4339626428311594
  0.4004129837872611  0.1014644058096943  0.4335363293219390
  0.4014360973455944  0.2691228647699149  0.4305412617701099
  0.4001219550076203  0.4347944679351798  0.4260013496173822
  0.4013800849568406  0.6018209177149595  0.4306053307488505
  0.4003554903660572  0.7682984154806086  0.4336196403669609
  0.4002702056602799  0.9347953285382975  0.4343799871139282
  0.5668201041364265  0.1012318362799577  0.4344416726990676
  0.5669398840564065  0.2677427964747661  0.4333231311186911
  0.5659552912126681  0.4334769966911354  0.4305070935775712
  0.5659070141884255  0.6019497336731202  0.4305241145880165
  0.5668944607080376  0.7685632812762369  0.4333529268739833
  0.5668186468347346  0.9348421274387657  0.4344385531842104
  0.7333861032238653  0.1012911181533418  0.4346721403489505
  0.7334245177436405  0.2678038416466858  0.4343935336764899
  0.7333162187893291  0.4342953445323558  0.4334843132576013
  0.7337009888626922  0.6015936351225917  0.4327024268761223
  0.7333385820579609  0.7683952193750657  0.4334703013352680
  0.7334574863755706  0.9348538281585423  0.4343677122782896
  0.8998813801413861  0.1012475624742347  0.4343361910500616
  0.8998378175319666  0.2678371989759935  0.4343465713614770
  0.8999182757633389  0.4343677401488665  0.4342695118482899
  0.9001409678321759  0.6012312590944140  0.4338662773068551
  0.9001650187809638  0.7682607752973425  0.4338637681790387
  0.9000138658194459  0.9348594428861832  0.4342217854302092
  0.3794528038018939  0.4277485571329684  0.6298782752711083
  0.4387165497849052  0.4542041372241298  0.6687736061859352
  0.4820704270221317  0.5170093691269412  0.6646658734310203
  0.4039986917858359  0.4365142572851248  0.5957378341637639
  0.4090638671144747  0.4451259407836475  0.7061618797580920
  0.4698873327877757  0.4207739235560484  0.6684539629138599
 
  0.00000000E+00  0.00000000E+00  0.00000000E+00
  0.00000000E+00  0.00000000E+00  0.00000000E+00
  0.00000000E+00  0.00000000E+00  0.00000000E+00
  0.00000000E+00  0.00000000E+00  0.00000000E+00
  0.00000000E+00  0.00000000E+00  0.00000000E+00
  0.00000000E+00  0.00000000E+00  0.00000000E+00
  0.00000000E+00  0.00000000E+00  0.00000000E+00
  0.00000000E+00  0.00000000E+00  0.00000000E+00
  0.00000000E+00  0.00000000E+00  0.00000000E+00
  0.00000000E+00  0.00000000E+00  0.00000000E+00
  0.00000000E+00  0.00000000E+00  0.00000000E+00
  0.00000000E+00  0.00000000E+00  0.00000000E+00
  0.00000000E+00  0.00000000E+00  0.00000000E+00
  0.00000000E+00  0.00000000E+00  0.00000000E+00
  0.00000000E+00  0.00000000E+00  0.00000000E+00
  0.00000000E+00  0.00000000E+00  0.00000000E+00
  0.00000000E+00  0.00000000E+00  0.00000000E+00
  0.00000000E+00  0.00000000E+00  0.00000000E+00
  0.00000000E+00  0.00000000E+00  0.00000000E+00
  0.00000000E+00  0.00000000E+00  0.00000000E+00
  0.00000000E+00  0.00000000E+00  0.00000000E+00
  0.00000000E+00  0.00000000E+00  0.00000000E+00
  0.00000000E+00  0.00000000E+00  0.00000000E+00
  0.00000000E+00  0.00000000E+00  0.00000000E+00
  0.00000000E+00  0.00000000E+00  0.00000000E+00
  0.00000000E+00  0.00000000E+00  0.00000000E+00
  0.00000000E+00  0.00000000E+00  0.00000000E+00
  0.00000000E+00  0.00000000E+00  0.00000000E+00
  0.00000000E+00  0.00000000E+00  0.00000000E+00
  0.00000000E+00  0.00000000E+00  0.00000000E+00
  0.00000000E+00  0.00000000E+00  0.00000000E+00
  0.00000000E+00  0.00000000E+00  0.00000000E+00
  0.00000000E+00  0.00000000E+00  0.00000000E+00
  0.00000000E+00  0.00000000E+00  0.00000000E+00
  0.00000000E+00  0.00000000E+00  0.00000000E+00
  0.00000000E+00  0.00000000E+00  0.00000000E+00
  0.00000000E+00  0.00000000E+00  0.00000000E+00
  0.00000000E+00  0.00000000E+00  0.00000000E+00
  0.00000000E+00  0.00000000E+00  0.00000000E+00
  0.00000000E+00  0.00000000E+00  0.00000000E+00
  0.00000000E+00  0.00000000E+00  0.00000000E+00
  0.00000000E+00  0.00000000E+00  0.00000000E+00
  0.00000000E+00  0.00000000E+00  0.00000000E+00
  0.00000000E+00  0.00000000E+00  0.00000000E+00
  0.00000000E+00  0.00000000E+00  0.00000000E+00
  0.00000000E+00  0.00000000E+00  0.00000000E+00
  0.00000000E+00  0.00000000E+00  0.00000000E+00
  0.00000000E+00  0.00000000E+00  0.00000000E+00
  0.00000000E+00  0.00000000E+00  0.00000000E+00
  0.00000000E+00  0.00000000E+00  0.00000000E+00
  0.00000000E+00  0.00000000E+00  0.00000000E+00
  0.00000000E+00  0.00000000E+00  0.00000000E+00
  0.00000000E+00  0.00000000E+00  0.00000000E+00
  0.00000000E+00  0.00000000E+00  0.00000000E+00
  0.00000000E+00  0.00000000E+00  0.00000000E+00
  0.00000000E+00  0.00000000E+00  0.00000000E+00
  0.00000000E+00  0.00000000E+00  0.00000000E+00
  0.00000000E+00  0.00000000E+00  0.00000000E+00
  0.00000000E+00  0.00000000E+00  0.00000000E+00
  0.00000000E+00  0.00000000E+00  0.00000000E+00
  0.00000000E+00  0.00000000E+00  0.00000000E+00
  0.00000000E+00  0.00000000E+00  0.00000000E+00
  0.00000000E+00  0.00000000E+00  0.00000000E+00
  0.00000000E+00  0.00000000E+00  0.00000000E+00
  0.00000000E+00  0.00000000E+00  0.00000000E+00
  0.00000000E+00  0.00000000E+00  0.00000000E+00
  0.00000000E+00  0.00000000E+00  0.00000000E+00
  0.00000000E+00  0.00000000E+00  0.00000000E+00
  0.00000000E+00  0.00000000E+00  0.00000000E+00
  0.00000000E+00  0.00000000E+00  0.00000000E+00
  0.00000000E+00  0.00000000E+00  0.00000000E+00
  0.00000000E+00  0.00000000E+00  0.00000000E+00
  0.00000000E+00  0.00000000E+00  0.00000000E+00
  0.00000000E+00  0.00000000E+00  0.00000000E+00
  0.00000000E+00  0.00000000E+00  0.00000000E+00
  0.00000000E+00  0.00000000E+00  0.00000000E+00
  0.00000000E+00  0.00000000E+00  0.00000000E+00
  0.00000000E+00  0.00000000E+00  0.00000000E+00
  0.00000000E+00  0.00000000E+00  0.00000000E+00
  0.00000000E+00  0.00000000E+00  0.00000000E+00
  0.00000000E+00  0.00000000E+00  0.00000000E+00
  0.00000000E+00  0.00000000E+00  0.00000000E+00
  0.00000000E+00  0.00000000E+00  0.00000000E+00
  0.00000000E+00  0.00000000E+00  0.00000000E+00
  0.00000000E+00  0.00000000E+00  0.00000000E+00
  0.00000000E+00  0.00000000E+00  0.00000000E+00
  0.00000000E+00  0.00000000E+00  0.00000000E+00
  0.00000000E+00  0.00000000E+00  0.00000000E+00
  0.00000000E+00  0.00000000E+00  0.00000000E+00
  0.00000000E+00  0.00000000E+00  0.00000000E+00
  0.00000000E+00  0.00000000E+00  0.00000000E+00
  0.00000000E+00  0.00000000E+00  0.00000000E+00
  0.00000000E+00  0.00000000E+00  0.00000000E+00
  0.00000000E+00  0.00000000E+00  0.00000000E+00
  0.00000000E+00  0.00000000E+00  0.00000000E+00
  0.00000000E+00  0.00000000E+00  0.00000000E+00
  0.00000000E+00  0.00000000E+00  0.00000000E+00
  0.00000000E+00  0.00000000E+00  0.00000000E+00
  0.00000000E+00  0.00000000E+00  0.00000000E+00
  0.00000000E+00  0.00000000E+00  0.00000000E+00
  0.00000000E+00  0.00000000E+00  0.00000000E+00
  0.00000000E+00  0.00000000E+00  0.00000000E+00
  0.00000000E+00  0.00000000E+00  0.00000000E+00
  0.00000000E+00  0.00000000E+00  0.00000000E+00
  0.00000000E+00  0.00000000E+00  0.00000000E+00
  0.00000000E+00  0.00000000E+00  0.00000000E+00
  0.00000000E+00  0.00000000E+00  0.00000000E+00
  0.00000000E+00  0.00000000E+00  0.00000000E+00
  0.00000000E+00  0.00000000E+00  0.00000000E+00
  0.00000000E+00  0.00000000E+00  0.00000000E+00
  0.00000000E+00  0.00000000E+00  0.00000000E+00
  0.00000000E+00  0.00000000E+00  0.00000000E+00
  0.00000000E+00  0.00000000E+00  0.00000000E+00
