Mo36 H4 Se71 C1 O1
1.0
  19.7339992522999985    0.0000000000000000    0.0000000000000000
  -9.8669996262000002   17.0901446708000009    0.0000000000000000
   0.0000000000000000    0.0000000000000000   25.8540000915999997
Mo Se O C H
36 71 1 1 4
direct
   0.1209102059364814    0.0471925921948469    0.5002259880552061 Mo
   0.1218147969751495    0.2143428991130082    0.4997578790988697 Mo
   0.1217757983418704    0.3796585337329548    0.4997224633412787 Mo
   0.1208604742235859    0.5458377533186399    0.5001791949479223 Mo
   0.1205616093018803    0.7127725532840550    0.5005751500791875 Mo
   0.1205773672022201    0.8798907684317506    0.5006174906839730 Mo
   0.2874834553651831    0.0472768174619658    0.5002621797855644 Mo
   0.2884025246149002    0.2158100495370091    0.4979311343849890 Mo
   0.2926999515221805    0.3825665462136750    0.4953066092144315 Mo
   0.2883899887288928    0.5449384530905816    0.4978733542351202 Mo
   0.2874960423108796    0.7124723837361187    0.5001791057934398 Mo
   0.2872017827646131    0.8797232952444177    0.5008234876276231 Mo
   0.4536683168110192    0.0467936887840614    0.5011027697106438 Mo
   0.4536084350474769    0.2144315860158517    0.4998034264414793 Mo
   0.4507353830400548    0.3826007136833628    0.4953503919558251 Mo
   0.4507635822470307    0.5406285860052639    0.4953079821934628 Mo
   0.4536739632260429    0.7115595953249909    0.4997254804372687 Mo
   0.4536958293107638    0.8791663440785060    0.5010225861029756 Mo
   0.6203044428360912    0.0462621806444305    0.5014840339624067 Mo
   0.6201127872367195    0.2132202123616911    0.5011231532875809 Mo
   0.6189047747974971    0.3797272328003188    0.4998077805452775 Mo
   0.6175242054867944    0.5449281990521651    0.4979344765757407 Mo
   0.6189900023836095    0.7115181789991708    0.4997614666288330 Mo
   0.6201925745546776    0.8791840766375825    0.5010218074226968 Mo
   0.7871009668610350    0.0462314950645187    0.5014445969315261 Mo
   0.7870701457520081    0.2130280135205887    0.5014835030194210 Mo
   0.7865403415657940    0.3796673386320881    0.5011062757445141 Mo
   0.7860568744062086    0.5458528557653993    0.5002670596493980 Mo
   0.7861371539086792    0.7124207420433769    0.5002301607170618 Mo
   0.7866417703355923    0.8790881977534909    0.5010391919279341 Mo
   0.9542440636205829    0.0466905898908723    0.5010376058677557 Mo
   0.9541482007918825    0.2131392664114580    0.5010181416069752 Mo
   0.9541673948290711    0.3796365296477207    0.5010227064325180 Mo
   0.9536099941675023    0.5461331174654763    0.5008258086997894 Mo
   0.9534422007099485    0.7127585329229277    0.5006198709346027 Mo
   0.9537104119466189    0.8796231644946222    0.5008081301201351 Mo
   0.0667784340132683    0.1037565131926408    0.5652376659017648 Se
   0.0666229905569385    0.2694111826839480    0.5651579465936231 Se
   0.0667221308891145    0.4351265126915920    0.5652034193636329 Se
   0.0654150554387693    0.6014614488643080    0.5652875749292047 Se
   0.0649058706533016    0.7684304133152348    0.5653360922184271 Se
   0.0654731263391226    0.9360706858341149    0.5653083973550611 Se
   0.2331709558712613    0.1053444435187291    0.5640910511073435 Se
   0.2377454835212036    0.2751442095767750    0.5626057641550750 Se
   0.2377154861574105    0.4350627962619786    0.5625904121786461 Se
   0.2331705946111338    0.6001618165658202    0.5640396688069144 Se
   0.2318735634167208    0.7679207360030886    0.5652873454869528 Se
   0.2318818080988542    0.9361479536411134    0.5653407852252953 Se
   0.3981660577685648    0.1038808024857343    0.5652755576398529 Se
   0.3982853158429446    0.2751524702441198    0.5626208194656119 Se
   0.3982697676381868    0.5956155877598844    0.5625921469585580 Se
   0.3982057615524439    0.7666106160227555    0.5652036331023187 Se
   0.3981005239793012    0.9351270691292455    0.5657880048802436 Se
   0.5645307090574451    0.1021636710883542    0.5661326385914075 Se
   0.5638174013093625    0.2695132526215408    0.5652323727943341 Se
   0.5581805103279900    0.4350476168117752    0.5626231417368190 Se
   0.5581876665662118    0.5955868803375982    0.5626121395321702 Se
   0.5639187723623417    0.7667078126838720    0.5651626067622458 Se
   0.5645400151039115    0.9345081496172257    0.5660654502262088 Se
   0.7315296215380559    0.1018035340550781    0.5663566416075552 Se
   0.7311694184812643    0.2688021917596183    0.5661324388544237 Se
   0.7294636550749491    0.4351742080163363    0.5652880032961870 Se
   0.7279882231289851    0.6001607160485126    0.5640957774939594 Se
   0.7295751978085511    0.7665550220521776    0.5652409207172557 Se
   0.7312399791759633    0.9345066074418664    0.5660525113773338 Se
   0.8988299079640802    0.1021007166183526    0.5660499191672401 Se
   0.8988265034615801    0.2687897365695599    0.5660625107584386 Se
   0.8982075788171819    0.4352306558708502    0.5657876460963043 Se
   0.8971848711625854    0.6014551221770807    0.5653428684232457 Se
   0.8972628925985324    0.7678644965727904    0.5653112861923681 Se
   0.8982691750572487    0.9350649487656998    0.5657445979414324 Se
   0.0646620159336627    0.1020969175282190    0.4355913521350596 Se
   0.0643735651812285    0.2682304194201661    0.4354423236293604 Se
   0.0645561553176928    0.4346293107565775    0.4355343618436239 Se
   0.0646243777925809    0.6015424199752409    0.4357962165653696 Se
   0.0648486031120715    0.7684846435173689    0.4358504556771137 Se
   0.0647534447238237    0.9352406693378685    0.4358119856532692 Se
   0.2315365315410478    0.1018462741847886    0.4348692246138307 Se
   0.2311153582096750    0.2695594069997040    0.4329231142316176 Se
   0.2310575277536968    0.4338197981242100    0.4328869350331692 Se
   0.2314807287840352    0.6018510297677029    0.4348098244438547 Se
   0.2317890073591105    0.7687088416194802    0.4357958636992766 Se
   0.2318077849324068    0.9353567213104063    0.4358429050466771 Se
   0.3986800452726083    0.1021919441082324    0.4356228279994179 Se
   0.3995339435886632    0.2696610426519152    0.4329718311031089 Se
   0.3980641855068666    0.4352673045366202    0.4281198874752153 Se
   0.3995162790853002    0.6022803366659959    0.4328879811768956 Se
   0.3987058692597911    0.7687764084553521    0.4355371124818133 Se
   0.3985298682034728    0.9354479968396687    0.4362775230539560 Se
   0.5649376903669409    0.1018729080143300    0.4364824236488825 Se
   0.5650133602981455    0.2683231083371128    0.4355287075928510 Se
   0.5636737814349665    0.4338002463295098    0.4329743128467375 Se
   0.5637717576485567    0.6022158071361854    0.4329238587198954 Se
   0.5651026751869087    0.7689580725699517    0.4354482126213716 Se
   0.5649950091390170    0.9354040218462163    0.4364176242757076 Se
   0.7314508809892191    0.1018796733169197    0.4366941785023135 Se
   0.7314599694697825    0.2683990247219646    0.4364835355851360 Se
   0.7311483093992454    0.4346587970488066    0.4356262977913139 Se
   0.7314828274935585    0.6017940713265223    0.4348741028918361 Se
   0.7312343338340113    0.7686693502042229    0.4355955478107623 Se
   0.7315801609132266    0.9353253972923647    0.4364112388421416 Se
   0.8980045872246396    0.1017501626519935    0.4364104704117274 Se
   0.8979273030093512    0.2683381231895288    0.4364156698779424 Se
   0.8978855500262608    0.4348056805918282    0.4362783277650230 Se
   0.8979745753412314    0.6015275351392785    0.4358457082879451 Se
   0.8980884037431032    0.7685804321740206    0.4358157527299171 Se
   0.8980381503455495    0.9352916333300861    0.4362693445516256 Se
   0.4395121962245044    0.4348599996170840    0.5797228168522236 O
   0.4804992602344415    0.4422812515984497    0.6278078031443027 C
   0.5103586733616292    0.5029248148896834    0.6420420531132106 H
   0.3981942076905282    0.4479978743586376    0.5844716785202442 H
   0.4386771686498770    0.4024309365122569    0.6566885046742218 H
   0.5238352244562254    0.4245059286944231    0.6193096961116744 H
