W48 Se98                                
   1.00000000000000     
    33.0000000000000000    0.0000000000000000    0.0000000000000000
     0.0000000000000000   26.2560005188000005    0.0000000000000000
     0.0000000000000000    0.0000000000000000   18.1299991608000006
   W    Se   O    C 
    48    98     2     1
Direct
  0.2804837653745362  0.0431320766054104  0.5001431537461374
  0.2852582012920892  0.2768508498035747  0.4998526669692989
  0.2805922089902402  0.5446929009915508  0.5002161810084452
  0.2861806914503061  0.7775053059378118  0.4998085426133364
  0.4545130015782550  0.0349630746269244  0.4999605073955148
  0.4536818481442944  0.2855472704574267  0.4997815052030781
  0.4538947078110678  0.5358306362676237  0.4999030690889091
  0.4555366038392641  0.7853542742618606  0.4998603028092814
  0.6282613832093911  0.0357597327759085  0.5000806988242045
  0.6259334412486562  0.2868123200710659  0.4999324383125850
  0.6288199356618827  0.5353352764014830  0.4999316511083750
  0.6287311371072331  0.7853138007729085  0.5000841488881003
  0.2855192431272386  0.1661389876694161  0.5001432843159832
  0.2798087336504120  0.3991353626171547  0.4999690848476860
  0.2860612295759478  0.6674497163311789  0.5001749967945951
  0.2805521672684925  0.9002717487256363  0.4999358926095012
  0.4541830830813929  0.1596227613551835  0.4999581119995902
  0.4531512131016424  0.4102947351055121  0.4997800203317480
  0.4548206494015091  0.6599484268872108  0.4999140866642839
  0.4546382707427020  0.9099591062976878  0.4999511879631213
  0.6265858681914755  0.1616287951041832  0.4998986621794304
  0.6243429305299604  0.4109355195607672  0.4999713245650107
  0.6293728284316110  0.6606541291950876  0.4998784480511791
  0.6280666393249533  0.9108136208867840  0.5001935560031437
  0.3677269690408320  0.2221246945954047  0.4999889405322478
  0.3659210141304151  0.4725045660224677  0.5000913877885428
  0.3687449913866846  0.7224869013344433  0.4999596679546560
  0.3666958898363273  0.9721118984433369  0.5000589676489300
  0.5402738249978424  0.2233549094935358  0.4998131814891768
  0.5393142927675242  0.4735919119691813  0.4998798115006018
  0.5417157529531645  0.7228956800119085  0.4998638231149913
  0.5417395041308358  0.9728341411949507  0.5000332673991638
  0.7141211184265827  0.2339925995092225  0.4998430850217321
  0.7152999378109284  0.4714309871260066  0.4998947950727557
  0.7078605200061286  0.7313423304686223  0.4998105755755715
  0.7154563657475800  0.9837512255879145  0.5000365853071841
  0.3682287212296911  0.0975533102012378  0.5001296921240586
  0.3673380854571436  0.3470896833515779  0.4998131784120491
  0.3682743506245123  0.5981298003365457  0.4999935434323229
  0.3688133758864178  0.8467683847305426  0.4998464540167838
  0.5410945803956781  0.0977402653184551  0.4999259412473857
  0.5391973140579926  0.3484498845254801  0.4998482883325535
  0.5415321248987587  0.5977138494008487  0.4998780149253427
  0.5412287499097710  0.8478445310252145  0.4999308695472598
  0.7145578398744714  0.0931183466466001  0.5002490290605976
  0.7116632684786869  0.3446708121420812  0.4999480361504025
  0.7081285083799355  0.5906069079457154  0.4998582778187670
  0.7142181849028971  0.8377218916932460  0.4997619613009103
  0.2521319514857784  0.1029133243205625  0.5910340098965940
  0.2514474600786051  0.3393436254168164  0.5909658629664463
  0.2525634210156100  0.6045131322574825  0.5914097350863431
  0.2523728964700485  0.8403165204648605  0.5906878654856573
  0.4254908231558606  0.0969798852284945  0.5935034405687720
  0.4246479221188583  0.3478426545438231  0.5932901644458269
  0.4254880523913749  0.5979126554551757  0.5935605330097311
  0.4261457976702158  0.8475547102125471  0.5932133327580871
  0.5987935706644432  0.0985890872300624  0.5929183079369292
  0.5962893166616839  0.3486565285910673  0.5933398731485320
  0.5997734135836603  0.5984704209240639  0.5925893539762672
  0.5990264675424193  0.8485823707665739  0.5926801968371318
  0.4255690839794325  0.2224454563256266  0.5929067374827671
  0.4241415064437702  0.4729155222297339  0.5924730431933755
  0.4265681170653893  0.7227076251021322  0.5929325050926234
  0.4249241900467919  0.9723396770276913  0.5924171766294959
  0.5977889140472157  0.2236374606883392  0.5931371208479536
  0.5971382390323091  0.4741325073152834  0.5927026844841073
  0.5994504987965930  0.7220426312456067  0.5926359930475154
  0.5995701999946976  0.9727922152953301  0.5932078526647173
  0.3371704576842026  0.0345011809420694  0.5928733746499733
  0.3391512278843005  0.2839135338895024  0.5952166233069065
  0.3370530875700991  0.5351550146560480  0.5930362020575554
  0.3401195896294011  0.7842590587711528  0.5953849405210392
  0.5123679246245956  0.0351137428487526  0.5929791240807561
  0.5109916406958195  0.2855363153356216  0.5931379246700823
  0.5114683665180640  0.5360462979430590  0.5934759301417425
  0.5130708214581973  0.7852313605410662  0.5934597931531719
  0.6844571187705683  0.0374608400174470  0.5988514983805152
  0.6827020345568304  0.2878022610080888  0.5975505552941591
  0.6854599784902087  0.5304543361738673  0.5990401638152036
  0.6826090536927049  0.7871569620560989  0.6019124046010411
  0.3394851376118680  0.1599705329033130  0.5955482189312581
  0.3362150748845706  0.4097592817636865  0.5929152875838060
  0.3399483762211988  0.6608272169512753  0.5956823743657397
  0.3372765219965785  0.9093248322128508  0.5925839954113798
  0.5118197767018795  0.1602618065272660  0.5927762012065175
  0.5104782946118985  0.4109072472375523  0.5931572628793483
  0.5125364755922884  0.6602807702356567  0.5928243703094050
  0.5123240049293751  0.9105354580630660  0.5929981104639197
  0.6870752998806338  0.1630964330959367  0.5884320831629049
  0.6824229071872902  0.4100693392538257  0.5922692152237918
  0.6918784470674225  0.6609385470613924  0.5929913637632466
  0.6899880381432794  0.9107579799337274  0.5877665311604644
  0.2522425051826581  0.1031643548054213  0.4091595785012176
  0.2514917390309485  0.3394823719488529  0.4088126325648122
  0.2524714796373583  0.6043720541206462  0.4091381112506318
  0.2526206498767181  0.8402469653424127  0.4087468916813277
  0.4254694073762113  0.0970041621536541  0.4065626118630018
  0.4246261410732035  0.3478723754670974  0.4062455019749600
  0.4255094501214534  0.5978876206341174  0.4062708470238074
  0.4261784335720532  0.8476678122942700  0.4065422010460120
  0.5988273200668229  0.0984754587094276  0.4070181465822429
  0.5963239627808010  0.3487044680448420  0.4064453221588662
  0.5998009634525207  0.5984769477112265  0.4071838052190523
  0.5990721122792626  0.8485721870992030  0.4074640057447125
  0.2259815759605771  0.2211678795706626  0.4999159872311112
  0.2337667211752111  0.4722959257522950  0.5007986133866383
  0.2265788759637338  0.7226983537947799  0.5000676724446268
  0.2328800417134420  0.9716175113147183  0.4999714912253674
  0.4255257000227984  0.2224140653129863  0.4069097872650794
  0.4240018887054047  0.4730248004097396  0.4073925332061691
  0.4265207415843903  0.7226636403485761  0.4069244180790781
  0.4247949856514486  0.9723376152464442  0.4075312332594526
  0.5977845020757322  0.2235998050905688  0.4065997144766206
  0.5972162884479545  0.4741596732825102  0.4071654686206209
  0.5994929882649155  0.7221732237119670  0.4072629121201483
  0.5995618368723528  0.9728157460493251  0.4069400744785264
  0.3370961213468676  0.0346760226875957  0.4074333901291805
  0.3391954941687403  0.2838551518149193  0.4045063702268374
  0.3369621326456465  0.5351494321567491  0.4071961057297936
  0.3402030306318660  0.7842082508367820  0.4043861477374943
  0.5123850784711034  0.0350587369296750  0.4069649670592848
  0.5110478646996429  0.2856011156857484  0.4064502962643942
  0.5114669533204403  0.5360172599981808  0.4062881471457439
  0.5130229140050763  0.7852544217058194  0.4062616279512387
  0.6846962649572921  0.0373789270684141  0.4015572337516746
  0.6826023239399631  0.2877785000005509  0.4024264308820978
  0.6854433113212581  0.5304512792365301  0.4008084324779305
  0.6826598651851606  0.7871789486962890  0.3982828686222269
  0.3394988900117088  0.1600348719534324  0.4047030725838876
  0.3362014510678182  0.4099700556346076  0.4070199467677602
  0.3398380599272441  0.6606931155634344  0.4044929437292250
  0.3373021261165540  0.9095477736503530  0.4072800412388864
  0.5117745809206771  0.1601987601956691  0.4069805297680075
  0.5105860988245838  0.4109388836174003  0.4064763534356980
  0.5125251652125006  0.6602385877875326  0.4069754360937673
  0.5123184349807566  0.9105912317456940  0.4069777680831834
  0.6870700122736637  0.1628971962995795  0.4114647305199564
  0.6823799278711210  0.4099875259930790  0.4076933853922965
  0.6922667062845814  0.6608563537591881  0.4065877211876739
  0.6892273422340622  0.9108160693789262  0.4118169980599506
  0.7683828451711496  0.9081539413960354  0.4877559986997794
  0.7725159490472433  0.7739070930881004  0.5010930845656069
  0.8362487354830883  0.9066065134307643  0.5144850020823326
  0.7739599095656811  0.2939495961909881  0.4999033113226870
  0.7682392064605015  0.1639071643640023  0.4989891566545968
  0.7757746019109084  0.0372927079368627  0.5037119880513824
  0.7483482413707330  0.4111894857566204  0.4998631815998585
  0.7741238148693256  0.5063963482484480  0.4999316143195361
  0.7540036277926244  0.5474223846441898  0.4999174602172767
 
  0.00000000E+00  0.00000000E+00  0.00000000E+00
  0.00000000E+00  0.00000000E+00  0.00000000E+00
  0.00000000E+00  0.00000000E+00  0.00000000E+00
  0.00000000E+00  0.00000000E+00  0.00000000E+00
  0.00000000E+00  0.00000000E+00  0.00000000E+00
  0.00000000E+00  0.00000000E+00  0.00000000E+00
  0.00000000E+00  0.00000000E+00  0.00000000E+00
  0.00000000E+00  0.00000000E+00  0.00000000E+00
  0.00000000E+00  0.00000000E+00  0.00000000E+00
  0.00000000E+00  0.00000000E+00  0.00000000E+00
  0.00000000E+00  0.00000000E+00  0.00000000E+00
  0.00000000E+00  0.00000000E+00  0.00000000E+00
  0.00000000E+00  0.00000000E+00  0.00000000E+00
  0.00000000E+00  0.00000000E+00  0.00000000E+00
  0.00000000E+00  0.00000000E+00  0.00000000E+00
  0.00000000E+00  0.00000000E+00  0.00000000E+00
  0.00000000E+00  0.00000000E+00  0.00000000E+00
  0.00000000E+00  0.00000000E+00  0.00000000E+00
  0.00000000E+00  0.00000000E+00  0.00000000E+00
  0.00000000E+00  0.00000000E+00  0.00000000E+00
  0.00000000E+00  0.00000000E+00  0.00000000E+00
  0.00000000E+00  0.00000000E+00  0.00000000E+00
  0.00000000E+00  0.00000000E+00  0.00000000E+00
  0.00000000E+00  0.00000000E+00  0.00000000E+00
  0.00000000E+00  0.00000000E+00  0.00000000E+00
  0.00000000E+00  0.00000000E+00  0.00000000E+00
  0.00000000E+00  0.00000000E+00  0.00000000E+00
  0.00000000E+00  0.00000000E+00  0.00000000E+00
  0.00000000E+00  0.00000000E+00  0.00000000E+00
  0.00000000E+00  0.00000000E+00  0.00000000E+00
  0.00000000E+00  0.00000000E+00  0.00000000E+00
  0.00000000E+00  0.00000000E+00  0.00000000E+00
  0.00000000E+00  0.00000000E+00  0.00000000E+00
  0.00000000E+00  0.00000000E+00  0.00000000E+00
  0.00000000E+00  0.00000000E+00  0.00000000E+00
  0.00000000E+00  0.00000000E+00  0.00000000E+00
  0.00000000E+00  0.00000000E+00  0.00000000E+00
  0.00000000E+00  0.00000000E+00  0.00000000E+00
  0.00000000E+00  0.00000000E+00  0.00000000E+00
  0.00000000E+00  0.00000000E+00  0.00000000E+00
  0.00000000E+00  0.00000000E+00  0.00000000E+00
  0.00000000E+00  0.00000000E+00  0.00000000E+00
  0.00000000E+00  0.00000000E+00  0.00000000E+00
  0.00000000E+00  0.00000000E+00  0.00000000E+00
  0.00000000E+00  0.00000000E+00  0.00000000E+00
  0.00000000E+00  0.00000000E+00  0.00000000E+00
  0.00000000E+00  0.00000000E+00  0.00000000E+00
  0.00000000E+00  0.00000000E+00  0.00000000E+00
  0.00000000E+00  0.00000000E+00  0.00000000E+00
  0.00000000E+00  0.00000000E+00  0.00000000E+00
  0.00000000E+00  0.00000000E+00  0.00000000E+00
  0.00000000E+00  0.00000000E+00  0.00000000E+00
  0.00000000E+00  0.00000000E+00  0.00000000E+00
  0.00000000E+00  0.00000000E+00  0.00000000E+00
  0.00000000E+00  0.00000000E+00  0.00000000E+00
  0.00000000E+00  0.00000000E+00  0.00000000E+00
  0.00000000E+00  0.00000000E+00  0.00000000E+00
  0.00000000E+00  0.00000000E+00  0.00000000E+00
  0.00000000E+00  0.00000000E+00  0.00000000E+00
  0.00000000E+00  0.00000000E+00  0.00000000E+00
  0.00000000E+00  0.00000000E+00  0.00000000E+00
  0.00000000E+00  0.00000000E+00  0.00000000E+00
  0.00000000E+00  0.00000000E+00  0.00000000E+00
  0.00000000E+00  0.00000000E+00  0.00000000E+00
  0.00000000E+00  0.00000000E+00  0.00000000E+00
  0.00000000E+00  0.00000000E+00  0.00000000E+00
  0.00000000E+00  0.00000000E+00  0.00000000E+00
  0.00000000E+00  0.00000000E+00  0.00000000E+00
  0.00000000E+00  0.00000000E+00  0.00000000E+00
  0.00000000E+00  0.00000000E+00  0.00000000E+00
  0.00000000E+00  0.00000000E+00  0.00000000E+00
  0.00000000E+00  0.00000000E+00  0.00000000E+00
  0.00000000E+00  0.00000000E+00  0.00000000E+00
  0.00000000E+00  0.00000000E+00  0.00000000E+00
  0.00000000E+00  0.00000000E+00  0.00000000E+00
  0.00000000E+00  0.00000000E+00  0.00000000E+00
  0.00000000E+00  0.00000000E+00  0.00000000E+00
  0.00000000E+00  0.00000000E+00  0.00000000E+00
  0.00000000E+00  0.00000000E+00  0.00000000E+00
  0.00000000E+00  0.00000000E+00  0.00000000E+00
  0.00000000E+00  0.00000000E+00  0.00000000E+00
  0.00000000E+00  0.00000000E+00  0.00000000E+00
  0.00000000E+00  0.00000000E+00  0.00000000E+00
  0.00000000E+00  0.00000000E+00  0.00000000E+00
  0.00000000E+00  0.00000000E+00  0.00000000E+00
  0.00000000E+00  0.00000000E+00  0.00000000E+00
  0.00000000E+00  0.00000000E+00  0.00000000E+00
  0.00000000E+00  0.00000000E+00  0.00000000E+00
  0.00000000E+00  0.00000000E+00  0.00000000E+00
  0.00000000E+00  0.00000000E+00  0.00000000E+00
  0.00000000E+00  0.00000000E+00  0.00000000E+00
  0.00000000E+00  0.00000000E+00  0.00000000E+00
  0.00000000E+00  0.00000000E+00  0.00000000E+00
  0.00000000E+00  0.00000000E+00  0.00000000E+00
  0.00000000E+00  0.00000000E+00  0.00000000E+00
  0.00000000E+00  0.00000000E+00  0.00000000E+00
  0.00000000E+00  0.00000000E+00  0.00000000E+00
  0.00000000E+00  0.00000000E+00  0.00000000E+00
  0.00000000E+00  0.00000000E+00  0.00000000E+00
  0.00000000E+00  0.00000000E+00  0.00000000E+00
  0.00000000E+00  0.00000000E+00  0.00000000E+00
  0.00000000E+00  0.00000000E+00  0.00000000E+00
  0.00000000E+00  0.00000000E+00  0.00000000E+00
  0.00000000E+00  0.00000000E+00  0.00000000E+00
  0.00000000E+00  0.00000000E+00  0.00000000E+00
  0.00000000E+00  0.00000000E+00  0.00000000E+00
  0.00000000E+00  0.00000000E+00  0.00000000E+00
  0.00000000E+00  0.00000000E+00  0.00000000E+00
  0.00000000E+00  0.00000000E+00  0.00000000E+00
  0.00000000E+00  0.00000000E+00  0.00000000E+00
  0.00000000E+00  0.00000000E+00  0.00000000E+00
  0.00000000E+00  0.00000000E+00  0.00000000E+00
  0.00000000E+00  0.00000000E+00  0.00000000E+00
  0.00000000E+00  0.00000000E+00  0.00000000E+00
  0.00000000E+00  0.00000000E+00  0.00000000E+00
  0.00000000E+00  0.00000000E+00  0.00000000E+00
  0.00000000E+00  0.00000000E+00  0.00000000E+00
  0.00000000E+00  0.00000000E+00  0.00000000E+00
  0.00000000E+00  0.00000000E+00  0.00000000E+00
  0.00000000E+00  0.00000000E+00  0.00000000E+00
  0.00000000E+00  0.00000000E+00  0.00000000E+00
  0.00000000E+00  0.00000000E+00  0.00000000E+00
  0.00000000E+00  0.00000000E+00  0.00000000E+00
  0.00000000E+00  0.00000000E+00  0.00000000E+00
  0.00000000E+00  0.00000000E+00  0.00000000E+00
  0.00000000E+00  0.00000000E+00  0.00000000E+00
  0.00000000E+00  0.00000000E+00  0.00000000E+00
  0.00000000E+00  0.00000000E+00  0.00000000E+00
  0.00000000E+00  0.00000000E+00  0.00000000E+00
  0.00000000E+00  0.00000000E+00  0.00000000E+00
  0.00000000E+00  0.00000000E+00  0.00000000E+00
  0.00000000E+00  0.00000000E+00  0.00000000E+00
  0.00000000E+00  0.00000000E+00  0.00000000E+00
  0.00000000E+00  0.00000000E+00  0.00000000E+00
  0.00000000E+00  0.00000000E+00  0.00000000E+00
  0.00000000E+00  0.00000000E+00  0.00000000E+00
  0.00000000E+00  0.00000000E+00  0.00000000E+00
  0.00000000E+00  0.00000000E+00  0.00000000E+00
  0.00000000E+00  0.00000000E+00  0.00000000E+00
  0.00000000E+00  0.00000000E+00  0.00000000E+00
  0.00000000E+00  0.00000000E+00  0.00000000E+00
  0.00000000E+00  0.00000000E+00  0.00000000E+00
  0.00000000E+00  0.00000000E+00  0.00000000E+00
  0.00000000E+00  0.00000000E+00  0.00000000E+00
  0.00000000E+00  0.00000000E+00  0.00000000E+00
  0.00000000E+00  0.00000000E+00  0.00000000E+00
  0.00000000E+00  0.00000000E+00  0.00000000E+00
  0.00000000E+00  0.00000000E+00  0.00000000E+00
  0.00000000E+00  0.00000000E+00  0.00000000E+00
