W48 Se98
1.0
  33.0000000000         0.0000000000         0.0000000000
   0.0000000000        26.2560005188         0.0000000000
   0.0000000000         0.0000000000        18.1299991608
W Se O C
48 98 2 1
Cartesian
     9.262571670         1.110992205         9.065246874
     9.440327160         7.296820333         9.064097613
     9.273028380        14.239011106         9.064418695
     9.445008870        20.405807834         9.065573939
    14.978275950         0.935865207         9.065034934
    15.015264990         7.507588801         9.065092950
    15.000350970        14.053704919         9.064950811
    15.003770760        20.633546081         9.065003025
    20.708519370         0.922787618         9.065089686
    20.706837690         7.460007152         9.065052339
    20.788652280        13.991635209         9.065011727
    20.685567870        20.637737589         9.065068474
     9.434365380         4.427454846         9.064220353
     9.266914140        10.598669409         9.064921440
     9.451388430        17.539653982         9.065495980
     9.265978920        23.718745607         9.064725817
    14.994432750         4.202764133         9.065125765
    14.997445980        10.781315338         9.065045449
    15.021652800        17.328559413         9.064950811
    14.983496220        23.898052298         9.064950629
    20.675849700         4.199912994         9.065115431
    20.813744160        10.888132887         9.065019161
    20.711302590        17.369304525         9.065052883
    20.711981070        23.917694412         9.065089686
    12.163780860         5.859770873         9.064930324
    12.111019800        12.417331194         9.064863243
    12.174580110        18.976071459         9.065032577
    12.087552510        25.544971483         9.064777669
    17.837116110         5.854082248         9.065122320
    17.912228070        12.422320622         9.065043274
    17.846265690        18.985242417         9.065072644
    17.829641610        25.547561638         9.065100746
    23.568295080         6.065272388         9.064996317
    23.251616850        12.322821407         9.065035115
    23.568394740        18.781458307         9.065099295
    23.586593910        25.547511489         9.065058140
    12.152916930         2.588567013         9.064863787
    12.165601140         9.122480917         9.064854903
    12.173618820        15.713200466         9.064960420
    12.159362820        22.246799035         9.065008464
    17.854981650         2.558348982         9.065172359
    17.844875730         9.136503985         9.065021518
    17.854321650        15.695331420         9.065024056
    17.862293130        22.279121485         9.065069743
    23.622291000         2.341641144         9.065043818
    23.327521470         8.961103399         9.064979275
    23.382762480        15.927693086         9.065129210
    23.623692840        22.496327662         9.065047444
     8.331044040         2.727543437        10.679855467
     8.337726870         8.991689014        10.686634636
     8.350274130        15.847972517        10.689601610
     8.340865830        22.101218964        10.683185947
    14.036751960         2.570042355        10.764023262
    14.053486920         9.142761840        10.760704385
    14.059963830        15.693626092        10.760928109
    14.043079050        22.265272495        10.764199667
    19.757482470         2.562358799        10.759063439
    19.781744730         9.182925381        10.709639429
    19.780332990        15.664678327        10.722521156
    19.765008120        22.276931209        10.758603843
    14.066708370         5.858810954        10.754408924
    14.025025080        12.416994854        10.748088081
    14.076622890        18.977667036        10.754628297
    14.005386450        25.542741299        10.742084513
    19.726250940         5.832342017        10.755602603
    19.796652150        12.426065252        10.799124754
    19.736579280        19.003727692        10.753860129
    19.733722800        25.547914781        10.746910356
    11.123741310         0.939101259        10.746550294
    11.213609550         7.478850296        10.796705487
    11.141263980        14.064541033        10.743729992
    11.217752040        20.596015492        10.796015096
    16.880207850         0.929909558        10.755807835
    16.906895610         7.499337853        10.764327846
    16.911196500        14.049472452        10.748118902
    16.902271980        20.637048894        10.751868004
    22.617553200         0.891695525        10.812309252
    22.510049760         7.406226724        10.873304371
    22.789244940        14.138195416        10.776480929
    22.691820690        20.646909861        10.662842457
    11.206472640         4.238583882        10.794939806
    11.134458060        10.772375695        10.744136648
    11.225148990        17.356900140        10.797538923
    11.125813710        23.894961704        10.747078784
    16.893470220         4.202320144        10.750559200
    16.910712390        10.786622201        10.746181712
    16.914785580        17.337787610        10.760426996
    16.886279190        23.906789770        10.755219154
    22.687205310         4.191462763        10.657504985
    22.795967040        10.658018472        10.865425436
    22.516959300        17.422029725        10.878088515
    22.620583920        23.947475806        10.812906454
     8.332025790         2.728458722         7.449194407
     8.340641760         8.990514058         7.440606589
     8.348978550        15.847662433         7.441157560
     8.337529860        22.101722554         7.449264571
    14.036967780         2.570019512         7.366051319
    14.053722870         9.142785733         7.369377449
    14.060006730        15.693686219         7.368950125
    14.043084990        22.265174560         7.365737670
    19.757438910         2.562442293         7.371149112
    19.781755620         9.182934571         7.420440410
    19.780323090        15.664744492         7.407545086
    19.765038810        22.276971381         7.371532924
     7.465727280         5.865916353         9.065294737
     7.631088960        12.420615820         9.064434468
     7.475561280        18.968696411         9.064879378
     7.629134370        25.540521091         9.064908205
    14.067152220         5.858775771         7.375755582
    14.025166320        12.416931840         7.381797405
    14.076471090        18.977726375         7.375325901
    14.005453770        25.542742349         7.387776316
    19.726288560         5.832358559         7.374621914
    19.796651820        12.426078643         7.330972309
    19.736600070        19.003786505         7.376289330
    19.733650200        25.547977533         7.383365106
    11.123367420         0.939399002         7.383043298
    11.214926910         7.478552290         7.332777150
    11.141658990        14.064540508         7.385943736
    11.216898000        20.596288029         7.334183132
    16.880284740         0.929992790         7.374426472
    16.906926300         7.499281928         7.365819436
    16.911230820        14.049424928         7.381878990
    16.902337320        20.637027102         7.378203495
    22.617512610         0.891705239         7.317813918
    22.509954720         7.406220685         7.256685544
    22.789310280        14.138239001         7.353652394
    22.691838180        20.646909335         7.467286334
    11.207528640         4.238765573         7.334495512
    11.134542210        10.772130989         7.385573521
    11.224408470        17.356930072         7.332784584
    11.125876080        23.894878736         7.382700279
    16.893616740         4.202318568         7.379870548
    16.910715360        10.786625614         7.383918977
    16.914884910        17.337791023         7.369603530
    16.886378520        23.906823378         7.374807021
    22.687152840         4.191484030         7.472597517
    22.795949220        10.658050242         7.264610892
    22.517039820        17.422020535         7.252051335
    22.620478650        23.947500224         7.317247356
    25.583857860        23.939781485         9.065031308
    25.372909650        20.565748887         9.065033483
    25.505517180        17.066557086         9.065009008
    25.461369450         7.807010656         9.064991966
    25.370248530         4.269187088         9.065043999
    25.582513770         0.890663401         9.065055965
    25.312000000        15.927000000         9.065000000
    25.312000000        13.607000000         9.065000000
    25.312000000        14.767000000         9.065000000
