W48 S100                                
   1.00000000000000     
    33.0000000000000000    0.0000000000000000    0.0000000000000000
     0.0000000000000000   25.2255992888999998    0.0000000000000000
     0.0000000000000000    0.0000000000000000   17.4929999999999986
   W    S 
    48   98
Direct
  0.2898705311815263  0.0374713878979770  0.5000008624969702
  0.2901856089729553  0.2866315885309828  0.4999984502184506
  0.2898719954930070  0.5373808357564268  0.4999999375827017
  0.2902439080077922  0.7866874802391818  0.4999983044451063
  0.4560964193974577  0.0356431239176667  0.4999966882143528
  0.4561809726234680  0.2856689478619584  0.4999981298947900
  0.4560838530405525  0.5356526329231286  0.4999993351704246
  0.4563012437606202  0.7856648148520818  0.4999988179085502
  0.6225863687712140  0.0358713347664789  0.4999976448822510
  0.6226671178542033  0.2854887466138392  0.4999989145697405
  0.6225503761970201  0.5350683065541078  0.5000002228748487
  0.6227599767607691  0.7854706519115676  0.5000004198398540
  0.2902003168099077  0.1593576873593083  0.4999992838811046
  0.2898678361217107  0.4085282013055257  0.4999991152365308
  0.2902183378208457  0.6592498572468412  0.4999994873738668
  0.2899003227663816  0.9085308587316473  0.4999995916199390
  0.4561354844242697  0.1604022964778716  0.4999975092922948
  0.4560854177582599  0.4102381144326196  0.4999986232506194
  0.4561945806576038  0.6602534545271757  0.5000004261968548
  0.4561606023561497  0.9103856703910891  0.4999975489197463
  0.6225757696246712  0.1603191439406920  0.4999984367087192
  0.6225526764103017  0.4106127582716936  0.4999998057896064
  0.6227196124757556  0.6601932555880080  0.5000002658881811
  0.6227308187020421  0.9106977289773788  0.4999992206384119
  0.3722130751958027  0.2230108111267562  0.4999984279562587
  0.3720675541923076  0.4729535937311715  0.4999990897525478
  0.3722602642051753  0.7229797802942959  0.4999991711482831
  0.3720825586662684  0.9730074851482297  0.4999983505446509
  0.5397076068833351  0.2229430337502936  0.4999970759416418
  0.5391579415402369  0.4728988678314888  0.4999986069562467
  0.5396519076968330  0.7229228992481983  0.5000005729443906
  0.5397131235542287  0.9731592806163066  0.4999961352663654
  0.7076861095631091  0.2161302953160689  0.4999996238205229
  0.7070681095488561  0.4725037889505598  0.5000005721649712
  0.7073424827403525  0.7288947354638217  0.5000016594321661
  0.7078895586668125  0.9795955417532370  0.4999990050272602
  0.3735736820314531  0.0980259764420089  0.4999988980932841
  0.3735725183160133  0.3479419759177293  0.4999989326992637
  0.3735793047413111  0.5979827072732554  0.4999999967761085
  0.3736395375141905  0.8479628459520018  0.4999983986377123
  0.5391668149911842  0.0980548314409447  0.4999970297172368
  0.5396783777053460  0.3480350183232629  0.4999976331965611
  0.5396795889494541  0.5977898479121182  0.4999997246920189
  0.5396290632936234  0.8480337932372399  0.4999983791290794
  0.7071002144862487  0.0984116238334801  0.4999994341918230
  0.7076728291020526  0.3547732077009996  0.5000011983835293
  0.7078551856116831  0.5912837632015179  0.5000005388290698
  0.7073567633192788  0.8419827627144897  0.5000005344333661
  0.2627496866282426  0.0983231502717387  0.5890538631523329
  0.2627491600308645  0.3476711157696998  0.5890446660180354
  0.2627653616375850  0.5982505978708933  0.5890722756129954
  0.2628000579018842  0.8476824863379276  0.5890928153538971
  0.4285322256862290  0.0980107891108965  0.5907141951071633
  0.4285292239742864  0.3479411750954859  0.5907494346827443
  0.4285278595663016  0.5979819061280766  0.5907401901198195
  0.4286249107791568  0.8479900795129857  0.5906909508771087
  0.5945669554100770  0.0980596479216925  0.5901064638903850
  0.5952620310297027  0.3478768640982940  0.5903318704250720
  0.5952817532166786  0.5978640393736049  0.5903228454563609
  0.5951795651166436  0.8482362512053925  0.5901458362413422
  0.4280807184556623  0.2230496694597651  0.5898950800314029
  0.4279556623629581  0.4729567009465198  0.5898244278088807
  0.4281679208443172  0.7229949718216775  0.5898341471391718
  0.4279699950579183  0.9729908810123399  0.5898473510017842
  0.5952997322852878  0.2230747485615807  0.5903063589183577
  0.5945553183599628  0.4728697714016630  0.5901024309849292
  0.5952064258217026  0.7226810763378660  0.5901336957376720
  0.5953295944688607  0.9730613189058047  0.5902970210461561
  0.3442525094130491  0.0354004771508133  0.5902032790369239
  0.3444176729941583  0.2853044411676834  0.5903814736216102
  0.3442527085076102  0.5353581010206071  0.5901983760284217
  0.3444920219903547  0.7853082455444380  0.5903584098031339
  0.5115817221795068  0.0353935248315475  0.5902582034750338
  0.5117724932636478  0.2854636064235809  0.5900824342756001
  0.5115614756202677  0.5354898146905681  0.5902630023491195
  0.5118359594985725  0.7854519862676266  0.5902256807525543
  0.6786134403424088  0.0368573350085031  0.5924493391643870
  0.6802709128136215  0.2854608460108360  0.5868005414691481
  0.6785642806993096  0.5340641351810329  0.5924576112354837
  0.6779250460463702  0.7854394960937613  0.5938561410264729
  0.3444359519320684  0.1606821315632684  0.5903737174679979
  0.3442462237319069  0.4105651327258818  0.5902019452446016
  0.3444549091658273  0.6606567487509439  0.5903588207068169
  0.3442858647366006  0.9105800853716778  0.5901788534672869
  0.5115966860569044  0.1606799909728758  0.5902805577491357
  0.5115616853311409  0.4103578178095769  0.5902701751289704
  0.5117548326112101  0.6603995881266683  0.5901004418230720
  0.5117427345511434  0.9106339274113354  0.5900812760660038
  0.6785029705433180  0.1594008126757757  0.5927346862079980
  0.6784811028385583  0.4115115582408171  0.5927378130094627
  0.6802578075064140  0.6599083746988629  0.5870640747837410
  0.6802672575842041  0.9109732161452380  0.5870664079104529
  0.2627499216095835  0.0983226466801124  0.4109488151237469
  0.2627489826083368  0.3476717705193070  0.4109525143155546
  0.2627651254280748  0.5982500161652864  0.4109261297110073
  0.2627995542364238  0.8476821296998051  0.4109070292914004
  0.4285323032161112  0.0980112920990975  0.4092893098803472
  0.4285293712956361  0.3479404722498673  0.4092509893396480
  0.4285280574804617  0.5979821332140950  0.4092588032963709
  0.4286250400337422  0.8479902687633473  0.4093086107361994
  0.5945668134355385  0.0980604796475139  0.4098964288803226
  0.5952626190740369  0.3478769760698801  0.4096704564070746
  0.5952822733584950  0.5978642299947078  0.4096782848824398
  0.5951797961350435  0.8482358572273415  0.4098584766357406
  0.2397886747371395  0.2229750418951632  0.4999961390396055
  0.2400095772040367  0.4729603693796207  0.4999990836847151
  0.2398883765550762  0.7229760032026245  0.5000005278744860
  0.2400588049087272  0.9729729655552191  0.4999989108903524
  0.4280802315425514  0.2230492119262678  0.4101078191351175
  0.4279557291450662  0.4729562990066455  0.4101749633436922
  0.4281682402930528  0.7229946738158323  0.4101642698968855
  0.4279698283308901  0.9729920593595252  0.4101540305189398
  0.5952999352360442  0.2230744961117079  0.4096979716237239
  0.5945559653692665  0.4728702135693263  0.4098991195401077
  0.5952064494623792  0.7226810765718473  0.4098678213003973
  0.5953295314512426  0.9730608969741706  0.4097040877546373
  0.3442523759092912  0.0354011903121421  0.4097986612962475
  0.3444181471527434  0.2853042129852192  0.4096184373037439
  0.3442530728183096  0.5353581628302568  0.4098004076662933
  0.3444916607818437  0.7853082489868793  0.4096392098341926
  0.5115818786384623  0.0353934372862793  0.4097445489585113
  0.5117726362092331  0.2854626742841405  0.4099215386117764
  0.5115616082030081  0.5354901861816902  0.4097367027246147
  0.5118364839245348  0.7854523405957514  0.4097742169302276
  0.6786132681491589  0.0368585292708022  0.4075500783984225
  0.6802709021958806  0.2854603588664003  0.4132028056512935
  0.6785644577378609  0.5340639886450901  0.4075431729545781
  0.6779251303363503  0.7854393988156420  0.4061462506762170
  0.3444362547567534  0.1606822098090365  0.4096278276437335
  0.3442463040946134  0.4105647184575606  0.4097968926326507
  0.3444544523010479  0.6606564107772854  0.4096396638334842
  0.3442852295067565  0.9105812127011889  0.4098210089586686
  0.5115962590255079  0.1606793565491441  0.4097226518051658
  0.5115622147589607  0.4103575221385948  0.4097309568678367
  0.5117551491168740  0.6603996589003275  0.4098993527197500
  0.5117431052770141  0.9106339248464526  0.4099206674600985
  0.6785026517690165  0.1594018571895083  0.4072668802233522
  0.6784828569817538  0.4115115598696439  0.4072649923339990
  0.6802580862865065  0.6599087856963500  0.4129384742822245
  0.6802672833176321  0.9109725873548017  0.4129350716422907
  0.7585062840952976  0.9114015180644365  0.4999999479994408
  0.7639589808317733  0.7854198263455494  0.5000006988646541
  0.7584919245731436  0.6594553305428685  0.5000010303048699
  0.7581902884142422  0.2854601996170307  0.5000003051556982
  0.7632119871637453  0.1596149417380247  0.4999992647328814
  0.7630671046519898  0.0373293981828138  0.5000003004965752
 
  0.00000000E+00  0.00000000E+00  0.00000000E+00
  0.00000000E+00  0.00000000E+00  0.00000000E+00
  0.00000000E+00  0.00000000E+00  0.00000000E+00
  0.00000000E+00  0.00000000E+00  0.00000000E+00
  0.00000000E+00  0.00000000E+00  0.00000000E+00
  0.00000000E+00  0.00000000E+00  0.00000000E+00
  0.00000000E+00  0.00000000E+00  0.00000000E+00
  0.00000000E+00  0.00000000E+00  0.00000000E+00
  0.00000000E+00  0.00000000E+00  0.00000000E+00
  0.00000000E+00  0.00000000E+00  0.00000000E+00
  0.00000000E+00  0.00000000E+00  0.00000000E+00
  0.00000000E+00  0.00000000E+00  0.00000000E+00
  0.00000000E+00  0.00000000E+00  0.00000000E+00
  0.00000000E+00  0.00000000E+00  0.00000000E+00
  0.00000000E+00  0.00000000E+00  0.00000000E+00
  0.00000000E+00  0.00000000E+00  0.00000000E+00
  0.00000000E+00  0.00000000E+00  0.00000000E+00
  0.00000000E+00  0.00000000E+00  0.00000000E+00
  0.00000000E+00  0.00000000E+00  0.00000000E+00
  0.00000000E+00  0.00000000E+00  0.00000000E+00
  0.00000000E+00  0.00000000E+00  0.00000000E+00
  0.00000000E+00  0.00000000E+00  0.00000000E+00
  0.00000000E+00  0.00000000E+00  0.00000000E+00
  0.00000000E+00  0.00000000E+00  0.00000000E+00
  0.00000000E+00  0.00000000E+00  0.00000000E+00
  0.00000000E+00  0.00000000E+00  0.00000000E+00
  0.00000000E+00  0.00000000E+00  0.00000000E+00
  0.00000000E+00  0.00000000E+00  0.00000000E+00
  0.00000000E+00  0.00000000E+00  0.00000000E+00
  0.00000000E+00  0.00000000E+00  0.00000000E+00
  0.00000000E+00  0.00000000E+00  0.00000000E+00
  0.00000000E+00  0.00000000E+00  0.00000000E+00
  0.00000000E+00  0.00000000E+00  0.00000000E+00
  0.00000000E+00  0.00000000E+00  0.00000000E+00
  0.00000000E+00  0.00000000E+00  0.00000000E+00
  0.00000000E+00  0.00000000E+00  0.00000000E+00
  0.00000000E+00  0.00000000E+00  0.00000000E+00
  0.00000000E+00  0.00000000E+00  0.00000000E+00
  0.00000000E+00  0.00000000E+00  0.00000000E+00
  0.00000000E+00  0.00000000E+00  0.00000000E+00
  0.00000000E+00  0.00000000E+00  0.00000000E+00
  0.00000000E+00  0.00000000E+00  0.00000000E+00
  0.00000000E+00  0.00000000E+00  0.00000000E+00
  0.00000000E+00  0.00000000E+00  0.00000000E+00
  0.00000000E+00  0.00000000E+00  0.00000000E+00
  0.00000000E+00  0.00000000E+00  0.00000000E+00
  0.00000000E+00  0.00000000E+00  0.00000000E+00
  0.00000000E+00  0.00000000E+00  0.00000000E+00
  0.00000000E+00  0.00000000E+00  0.00000000E+00
  0.00000000E+00  0.00000000E+00  0.00000000E+00
  0.00000000E+00  0.00000000E+00  0.00000000E+00
  0.00000000E+00  0.00000000E+00  0.00000000E+00
  0.00000000E+00  0.00000000E+00  0.00000000E+00
  0.00000000E+00  0.00000000E+00  0.00000000E+00
  0.00000000E+00  0.00000000E+00  0.00000000E+00
  0.00000000E+00  0.00000000E+00  0.00000000E+00
  0.00000000E+00  0.00000000E+00  0.00000000E+00
  0.00000000E+00  0.00000000E+00  0.00000000E+00
  0.00000000E+00  0.00000000E+00  0.00000000E+00
  0.00000000E+00  0.00000000E+00  0.00000000E+00
  0.00000000E+00  0.00000000E+00  0.00000000E+00
  0.00000000E+00  0.00000000E+00  0.00000000E+00
  0.00000000E+00  0.00000000E+00  0.00000000E+00
  0.00000000E+00  0.00000000E+00  0.00000000E+00
  0.00000000E+00  0.00000000E+00  0.00000000E+00
  0.00000000E+00  0.00000000E+00  0.00000000E+00
  0.00000000E+00  0.00000000E+00  0.00000000E+00
  0.00000000E+00  0.00000000E+00  0.00000000E+00
  0.00000000E+00  0.00000000E+00  0.00000000E+00
  0.00000000E+00  0.00000000E+00  0.00000000E+00
  0.00000000E+00  0.00000000E+00  0.00000000E+00
  0.00000000E+00  0.00000000E+00  0.00000000E+00
  0.00000000E+00  0.00000000E+00  0.00000000E+00
  0.00000000E+00  0.00000000E+00  0.00000000E+00
  0.00000000E+00  0.00000000E+00  0.00000000E+00
  0.00000000E+00  0.00000000E+00  0.00000000E+00
  0.00000000E+00  0.00000000E+00  0.00000000E+00
  0.00000000E+00  0.00000000E+00  0.00000000E+00
  0.00000000E+00  0.00000000E+00  0.00000000E+00
  0.00000000E+00  0.00000000E+00  0.00000000E+00
  0.00000000E+00  0.00000000E+00  0.00000000E+00
  0.00000000E+00  0.00000000E+00  0.00000000E+00
  0.00000000E+00  0.00000000E+00  0.00000000E+00
  0.00000000E+00  0.00000000E+00  0.00000000E+00
  0.00000000E+00  0.00000000E+00  0.00000000E+00
  0.00000000E+00  0.00000000E+00  0.00000000E+00
  0.00000000E+00  0.00000000E+00  0.00000000E+00
  0.00000000E+00  0.00000000E+00  0.00000000E+00
  0.00000000E+00  0.00000000E+00  0.00000000E+00
  0.00000000E+00  0.00000000E+00  0.00000000E+00
  0.00000000E+00  0.00000000E+00  0.00000000E+00
  0.00000000E+00  0.00000000E+00  0.00000000E+00
  0.00000000E+00  0.00000000E+00  0.00000000E+00
  0.00000000E+00  0.00000000E+00  0.00000000E+00
  0.00000000E+00  0.00000000E+00  0.00000000E+00
  0.00000000E+00  0.00000000E+00  0.00000000E+00
  0.00000000E+00  0.00000000E+00  0.00000000E+00
  0.00000000E+00  0.00000000E+00  0.00000000E+00
  0.00000000E+00  0.00000000E+00  0.00000000E+00
  0.00000000E+00  0.00000000E+00  0.00000000E+00
  0.00000000E+00  0.00000000E+00  0.00000000E+00
  0.00000000E+00  0.00000000E+00  0.00000000E+00
  0.00000000E+00  0.00000000E+00  0.00000000E+00
  0.00000000E+00  0.00000000E+00  0.00000000E+00
  0.00000000E+00  0.00000000E+00  0.00000000E+00
  0.00000000E+00  0.00000000E+00  0.00000000E+00
  0.00000000E+00  0.00000000E+00  0.00000000E+00
  0.00000000E+00  0.00000000E+00  0.00000000E+00
  0.00000000E+00  0.00000000E+00  0.00000000E+00
  0.00000000E+00  0.00000000E+00  0.00000000E+00
  0.00000000E+00  0.00000000E+00  0.00000000E+00
  0.00000000E+00  0.00000000E+00  0.00000000E+00
  0.00000000E+00  0.00000000E+00  0.00000000E+00
  0.00000000E+00  0.00000000E+00  0.00000000E+00
  0.00000000E+00  0.00000000E+00  0.00000000E+00
  0.00000000E+00  0.00000000E+00  0.00000000E+00
  0.00000000E+00  0.00000000E+00  0.00000000E+00
  0.00000000E+00  0.00000000E+00  0.00000000E+00
  0.00000000E+00  0.00000000E+00  0.00000000E+00
  0.00000000E+00  0.00000000E+00  0.00000000E+00
  0.00000000E+00  0.00000000E+00  0.00000000E+00
  0.00000000E+00  0.00000000E+00  0.00000000E+00
  0.00000000E+00  0.00000000E+00  0.00000000E+00
  0.00000000E+00  0.00000000E+00  0.00000000E+00
  0.00000000E+00  0.00000000E+00  0.00000000E+00
  0.00000000E+00  0.00000000E+00  0.00000000E+00
  0.00000000E+00  0.00000000E+00  0.00000000E+00
  0.00000000E+00  0.00000000E+00  0.00000000E+00
  0.00000000E+00  0.00000000E+00  0.00000000E+00
  0.00000000E+00  0.00000000E+00  0.00000000E+00
  0.00000000E+00  0.00000000E+00  0.00000000E+00
  0.00000000E+00  0.00000000E+00  0.00000000E+00
  0.00000000E+00  0.00000000E+00  0.00000000E+00
  0.00000000E+00  0.00000000E+00  0.00000000E+00
  0.00000000E+00  0.00000000E+00  0.00000000E+00
  0.00000000E+00  0.00000000E+00  0.00000000E+00
  0.00000000E+00  0.00000000E+00  0.00000000E+00
  0.00000000E+00  0.00000000E+00  0.00000000E+00
  0.00000000E+00  0.00000000E+00  0.00000000E+00
  0.00000000E+00  0.00000000E+00  0.00000000E+00
  0.00000000E+00  0.00000000E+00  0.00000000E+00
  0.00000000E+00  0.00000000E+00  0.00000000E+00
  0.00000000E+00  0.00000000E+00  0.00000000E+00
  0.00000000E+00  0.00000000E+00  0.00000000E+00
  0.00000000E+00  0.00000000E+00  0.00000000E+00
  0.00000000E+00  0.00000000E+00  0.00000000E+00
  0.00000000E+00  0.00000000E+00  0.00000000E+00
  0.00000000E+00  0.00000000E+00  0.00000000E+00
