Mo  S                                   
    1.000000000000000     
    33.0000000000000000    0.0000000000000000    0.0000000000000000
     0.0000000000000000   25.5200004577999984    0.0000000000000000
     0.0000000000000000    0.0000000000000000   17.4729003905999996
   Mo   S    O    C 
    48    97     2     1
Direct
  0.2843557445976401  0.1048704429239978  0.4962559430028404
  0.3690249658446239  0.0352209049020477  0.4984865209719727
  0.2854539827636375  0.2263466437590746  0.4962174122110286
  0.3695430720276416  0.1603563517847494  0.4983425702014844
  0.4515570303138915  0.0974908100972479  0.5004532139115396
  0.5346296835939889  0.0348300582643294  0.5028658001266367
  0.2855753342520557  0.3429213239319981  0.4962707561687297
  0.3699725257285134  0.2845584496267853  0.4984255957003915
  0.4525841587918061  0.2223202863934609  0.5003247943429971
  0.5346456072018120  0.1594734534560425  0.5019606404015539
  0.6167052877871306  0.0975012919596901  0.5044109245680585
  0.2846502781161548  0.4640362772994799  0.4963300987304202
  0.3698341351991905  0.4086616752771692  0.4986651888792380
  0.4528217855031568  0.3468208760382708  0.5008662764527375
  0.5354805899002520  0.2846995368294958  0.5026166117022717
  0.2854764012028212  0.6042027601920794  0.4963675464427505
  0.3693690025227522  0.5336481619121644  0.4987138128553810
  0.4520728268155115  0.4713960134311058  0.5012060007827517
  0.5355664652775040  0.4094358334586515  0.5038880601758911
  0.2852658961015367  0.7145113797741427  0.4963505588702085
  0.3692941518052281  0.6589539863989620  0.4985584381911090
  0.4518449844588655  0.5963620415158282  0.5010090351115088
  0.5351524051924960  0.5340864177721927  0.5039999715555932
  0.4515532269706558  0.7216800176404721  0.5004728271050570
  0.5344743868928835  0.6589889261073603  0.5028381368484258
  0.6171589836745541  0.2223579997023589  0.5032516835370794
  0.7009480339401239  0.0379261295590645  0.4994731055732355
  0.6188605162969575  0.3479718105126110  0.5076846417823301
  0.6975017999873417  0.1607141351382448  0.5075207099519502
  0.6184270293900742  0.4719485136184940  0.5060464300061613
  0.6966847832690158  0.2809711379985849  0.5110761182220790
  0.6181545878017910  0.5958880810124799  0.5079237910768214
  0.6966998714182674  0.4129813171666866  0.5075938348781527
  0.6163353941995789  0.7214309858129788  0.5035201817275919
  0.6962895367992153  0.5315176015852847  0.5078050126467792
  0.6958118110453108  0.6627746006441542  0.5114792902706606
  0.2851503583334925  0.8542893158031719  0.4963644544087974
  0.3690590539175003  0.7844154618204560  0.4984545817412223
  0.2852476084563760  0.9646246026072225  0.4963771003126051
  0.3690893367256717  0.9098718484068568  0.4985405276190437
  0.4514414760620814  0.8471537830190834  0.5005601420157124
  0.5339738138475455  0.7844875093476706  0.5021255547761261
  0.4515815645465516  0.9724211393358831  0.5007432273329282
  0.5343298934812616  0.9095346046053830  0.5029156310705664
  0.6161421633675964  0.8464328645474208  0.5045705425821619
  0.6181416321686840  0.9719992221975758  0.5050101490301599
  0.6967419315018063  0.7829634727278116  0.5078013064435452
  0.7005919576237025  0.9056573252252802  0.4995839297858768
  0.3121246812696629  0.0353235775789104  0.4113873933568429
  0.3108931095095821  0.0353772100120677  0.5826197558660513
  0.3143054178889718  0.1622350077514782  0.4057586005166430
  0.3130309036541060  0.1622644918625940  0.5881366043683096
  0.3967706601280496  0.0973811118532232  0.4094391960412597
  0.3955254060325499  0.0974899192048127  0.5887032478128703
  0.4798292025764908  0.0347670148795383  0.4121541178688825
  0.4785097445917563  0.0349312320139021  0.5906218948083717
  0.3147455844684870  0.2845862155025502  0.4047929019162312
  0.3133994999622083  0.2845424977672940  0.5891625080793174
  0.3980347520193779  0.2223461971626581  0.4096279881604274
  0.3968246812232244  0.2222849112859568  0.5883946262568036
  0.4799417705428277  0.1595437167913200  0.4113749682079795
  0.4789271724368111  0.1595927951554400  0.5904043832535949
  0.5624159830094935  0.0969244101070638  0.4131962897715608
  0.5613910884787318  0.0971246462402346  0.5929601042626973
  0.3146585007849269  0.4068188374163988  0.4058680348638130
  0.3132312507612035  0.4067534956555165  0.5883525939292332
  0.3983199001722598  0.3468150290482119  0.4099418159047074
  0.3969306073518550  0.3466362091239485  0.5886985990339040
  0.4809136261978230  0.2848065440763330  0.4117327763449731
  0.4796471086294543  0.2844323040877242  0.5907788754991484
  0.5626372927603940  0.2223121147434482  0.4127056869005146
  0.5616035477651411  0.2216892414604782  0.5920043713784211
  0.6449912724006902  0.0342856932394189  0.4154128894197985
  0.6475019000359594  0.0350302499226490  0.5921119543114307
  0.6459333056457986  0.1595979964588546  0.4146177106869580
  0.6428188321920851  0.1612283921972659  0.5952094381881690
  0.3124793504029542  0.5335328167121808  0.4114984875104542
  0.3111319132902298  0.5335307377750019  0.5827019184561769
  0.3973425769043472  0.4714986246183777  0.4099262826645138
  0.3958253647083699  0.4714604109204239  0.5891166701422925
  0.4809513585874611  0.4094732882684333  0.4126287976857303
  0.4792893427174800  0.4092634224588187  0.5913590784472700
  0.5644573723146782  0.3475361473277921  0.4155488163641461
  0.5623270487261295  0.3468833419064193  0.5940229913008690
  0.3154549459509052  0.6591476867676317  0.4030672326010143
  0.3140645943147988  0.6591797307530031  0.5911945638740504
  0.3971706761547773  0.5961034398721348  0.4101193169654047
  0.3957407810424639  0.5962292294391637  0.5887270707345887
  0.4804454231223511  0.5339394343849533  0.4129028481856930
  0.4787628262897100  0.5340386063230991  0.5912732234864249
  0.5635008498635856  0.4719356478877682  0.4151488092541021
  0.5621882595365844  0.4718425376792768  0.5942598238241511
  0.3968401457819100  0.7219210409058413  0.4098308409404172
  0.3956077482929092  0.7220040860869407  0.5884455277430813
  0.4797027940279299  0.6588369565697766  0.4121031096892758
  0.4783959364235210  0.6591965643837281  0.5907558071655635
  0.5636649368726802  0.5962939769849205  0.4157877762470480
  0.5615046535169440  0.5968537403772844  0.5941559057483179
  0.5617266721320634  0.7214109990617434  0.4130273809533974
  0.5606411984936489  0.7220831583363914  0.5921501982572613
  0.6483180489340181  0.2864854647499832  0.4163831200854607
  0.6442301835396542  0.2818051875989079  0.5985856487933134
  0.7266469953830104  0.0970122036400495  0.4156923616226609
  0.7253214219969493  0.1004009907205608  0.5919484189213858
  0.6475139502808185  0.4095516869730140  0.4157719406360648
  0.6466773970301685  0.4110408025080537  0.5999576677353644
  0.7433882080203998  0.2226718316140094  0.4654068027133320
  0.6471039861905042  0.5346839816815816  0.4158945174535596
  0.6462321658113157  0.5329657173570751  0.6001581891261853
  0.7316229016477459  0.3440386336205832  0.5725217601222254
  0.6474675753638170  0.6573923525551647  0.4166218000477143
  0.6433280263498666  0.6620454691156186  0.5989277023275659
  0.7309230117389389  0.6001444181655045  0.5735407369045431
  0.7426469393169957  0.7209625955055561  0.4659765422407412
  0.2303785874176773  0.1634743790909433  0.4948222426483988
  0.2300043670426418  0.2846465942245394  0.4946927107308930
  0.2286212876203260  0.6580568480724969  0.4948696757021023
  0.2355426136157025  0.0367340221211181  0.4950713592015364
  0.3120573713187777  0.7844155630952792  0.4114106929043845
  0.3108505250599473  0.7844162135810354  0.5826222760501510
  0.3152546917950005  0.9096915745264578  0.4030670865362339
  0.3138910577822139  0.9096671607183501  0.5912007386802134
  0.3967471877144425  0.8469407924119325  0.4098574476580406
  0.3954922037440564  0.8468812689243307  0.5884934851306963
  0.4792434988287188  0.7844624164021223  0.4116837235289767
  0.4782001272379446  0.7844447839409813  0.5903626909515572
  0.3968635796600493  0.9726751377416014  0.4099730874674739
  0.3955338922586328  0.9727103677897313  0.5885356217598298
  0.4795761868377557  0.9098156164677043  0.4120815240713301
  0.4782553642903006  0.9097095381169565  0.5907874390475707
  0.5618368926942775  0.8470568018960777  0.4133943024704811
  0.5607761506359489  0.8469404949655837  0.5930027760667858
  0.5628165115126447  0.9720587332864145  0.4146990470421777
  0.5619504043491728  0.9720957644532511  0.5926707172052963
  0.6451657339826478  0.7841416871860595  0.4148895472448033
  0.6420090103140662  0.7826401142925706  0.5954016583766965
  0.6446514984778243  0.9094515746442415  0.4155347952311228
  0.6471463132824752  0.9088029077269936  0.5922187745468412
  0.7260900435524889  0.8464275375085211  0.4158814109756698
  0.7247552030801124  0.8431221310198881  0.5921629058210544
  0.7484695985698562  0.9716315138392202  0.5014348482027603
  0.2284410834432158  0.9106692114522975  0.4949255009041174
  0.2353108401266425  0.7843372768107177  0.4951036682958010
  0.2357778404371554  0.5321790659384857  0.4949674933912185
  0.2305199443463063  0.4057319275113957  0.4948507862190813
  0.7564840709251366  0.4270904164009316  0.4693519674079096
  0.7561085705443265  0.5179504122065057  0.4691250671384700
  0.7407079619802536  0.4724240553612856  0.4733626364219945
 
  0.00000000E+00  0.00000000E+00  0.00000000E+00
  0.00000000E+00  0.00000000E+00  0.00000000E+00
  0.00000000E+00  0.00000000E+00  0.00000000E+00
  0.00000000E+00  0.00000000E+00  0.00000000E+00
  0.00000000E+00  0.00000000E+00  0.00000000E+00
  0.00000000E+00  0.00000000E+00  0.00000000E+00
  0.00000000E+00  0.00000000E+00  0.00000000E+00
  0.00000000E+00  0.00000000E+00  0.00000000E+00
  0.00000000E+00  0.00000000E+00  0.00000000E+00
  0.00000000E+00  0.00000000E+00  0.00000000E+00
  0.00000000E+00  0.00000000E+00  0.00000000E+00
  0.00000000E+00  0.00000000E+00  0.00000000E+00
  0.00000000E+00  0.00000000E+00  0.00000000E+00
  0.00000000E+00  0.00000000E+00  0.00000000E+00
  0.00000000E+00  0.00000000E+00  0.00000000E+00
  0.00000000E+00  0.00000000E+00  0.00000000E+00
  0.00000000E+00  0.00000000E+00  0.00000000E+00
  0.00000000E+00  0.00000000E+00  0.00000000E+00
  0.00000000E+00  0.00000000E+00  0.00000000E+00
  0.00000000E+00  0.00000000E+00  0.00000000E+00
  0.00000000E+00  0.00000000E+00  0.00000000E+00
  0.00000000E+00  0.00000000E+00  0.00000000E+00
  0.00000000E+00  0.00000000E+00  0.00000000E+00
  0.00000000E+00  0.00000000E+00  0.00000000E+00
  0.00000000E+00  0.00000000E+00  0.00000000E+00
  0.00000000E+00  0.00000000E+00  0.00000000E+00
  0.00000000E+00  0.00000000E+00  0.00000000E+00
  0.00000000E+00  0.00000000E+00  0.00000000E+00
  0.00000000E+00  0.00000000E+00  0.00000000E+00
  0.00000000E+00  0.00000000E+00  0.00000000E+00
  0.00000000E+00  0.00000000E+00  0.00000000E+00
  0.00000000E+00  0.00000000E+00  0.00000000E+00
  0.00000000E+00  0.00000000E+00  0.00000000E+00
  0.00000000E+00  0.00000000E+00  0.00000000E+00
  0.00000000E+00  0.00000000E+00  0.00000000E+00
  0.00000000E+00  0.00000000E+00  0.00000000E+00
  0.00000000E+00  0.00000000E+00  0.00000000E+00
  0.00000000E+00  0.00000000E+00  0.00000000E+00
  0.00000000E+00  0.00000000E+00  0.00000000E+00
  0.00000000E+00  0.00000000E+00  0.00000000E+00
  0.00000000E+00  0.00000000E+00  0.00000000E+00
  0.00000000E+00  0.00000000E+00  0.00000000E+00
  0.00000000E+00  0.00000000E+00  0.00000000E+00
  0.00000000E+00  0.00000000E+00  0.00000000E+00
  0.00000000E+00  0.00000000E+00  0.00000000E+00
  0.00000000E+00  0.00000000E+00  0.00000000E+00
  0.00000000E+00  0.00000000E+00  0.00000000E+00
  0.00000000E+00  0.00000000E+00  0.00000000E+00
  0.00000000E+00  0.00000000E+00  0.00000000E+00
  0.00000000E+00  0.00000000E+00  0.00000000E+00
  0.00000000E+00  0.00000000E+00  0.00000000E+00
  0.00000000E+00  0.00000000E+00  0.00000000E+00
  0.00000000E+00  0.00000000E+00  0.00000000E+00
  0.00000000E+00  0.00000000E+00  0.00000000E+00
  0.00000000E+00  0.00000000E+00  0.00000000E+00
  0.00000000E+00  0.00000000E+00  0.00000000E+00
  0.00000000E+00  0.00000000E+00  0.00000000E+00
  0.00000000E+00  0.00000000E+00  0.00000000E+00
  0.00000000E+00  0.00000000E+00  0.00000000E+00
  0.00000000E+00  0.00000000E+00  0.00000000E+00
  0.00000000E+00  0.00000000E+00  0.00000000E+00
  0.00000000E+00  0.00000000E+00  0.00000000E+00
  0.00000000E+00  0.00000000E+00  0.00000000E+00
  0.00000000E+00  0.00000000E+00  0.00000000E+00
  0.00000000E+00  0.00000000E+00  0.00000000E+00
  0.00000000E+00  0.00000000E+00  0.00000000E+00
  0.00000000E+00  0.00000000E+00  0.00000000E+00
  0.00000000E+00  0.00000000E+00  0.00000000E+00
  0.00000000E+00  0.00000000E+00  0.00000000E+00
  0.00000000E+00  0.00000000E+00  0.00000000E+00
  0.00000000E+00  0.00000000E+00  0.00000000E+00
  0.00000000E+00  0.00000000E+00  0.00000000E+00
  0.00000000E+00  0.00000000E+00  0.00000000E+00
  0.00000000E+00  0.00000000E+00  0.00000000E+00
  0.00000000E+00  0.00000000E+00  0.00000000E+00
  0.00000000E+00  0.00000000E+00  0.00000000E+00
  0.00000000E+00  0.00000000E+00  0.00000000E+00
  0.00000000E+00  0.00000000E+00  0.00000000E+00
  0.00000000E+00  0.00000000E+00  0.00000000E+00
  0.00000000E+00  0.00000000E+00  0.00000000E+00
  0.00000000E+00  0.00000000E+00  0.00000000E+00
  0.00000000E+00  0.00000000E+00  0.00000000E+00
  0.00000000E+00  0.00000000E+00  0.00000000E+00
  0.00000000E+00  0.00000000E+00  0.00000000E+00
  0.00000000E+00  0.00000000E+00  0.00000000E+00
  0.00000000E+00  0.00000000E+00  0.00000000E+00
  0.00000000E+00  0.00000000E+00  0.00000000E+00
  0.00000000E+00  0.00000000E+00  0.00000000E+00
  0.00000000E+00  0.00000000E+00  0.00000000E+00
  0.00000000E+00  0.00000000E+00  0.00000000E+00
  0.00000000E+00  0.00000000E+00  0.00000000E+00
  0.00000000E+00  0.00000000E+00  0.00000000E+00
  0.00000000E+00  0.00000000E+00  0.00000000E+00
  0.00000000E+00  0.00000000E+00  0.00000000E+00
  0.00000000E+00  0.00000000E+00  0.00000000E+00
  0.00000000E+00  0.00000000E+00  0.00000000E+00
  0.00000000E+00  0.00000000E+00  0.00000000E+00
  0.00000000E+00  0.00000000E+00  0.00000000E+00
  0.00000000E+00  0.00000000E+00  0.00000000E+00
  0.00000000E+00  0.00000000E+00  0.00000000E+00
  0.00000000E+00  0.00000000E+00  0.00000000E+00
  0.00000000E+00  0.00000000E+00  0.00000000E+00
  0.00000000E+00  0.00000000E+00  0.00000000E+00
  0.00000000E+00  0.00000000E+00  0.00000000E+00
  0.00000000E+00  0.00000000E+00  0.00000000E+00
  0.00000000E+00  0.00000000E+00  0.00000000E+00
  0.00000000E+00  0.00000000E+00  0.00000000E+00
  0.00000000E+00  0.00000000E+00  0.00000000E+00
  0.00000000E+00  0.00000000E+00  0.00000000E+00
  0.00000000E+00  0.00000000E+00  0.00000000E+00
  0.00000000E+00  0.00000000E+00  0.00000000E+00
  0.00000000E+00  0.00000000E+00  0.00000000E+00
  0.00000000E+00  0.00000000E+00  0.00000000E+00
  0.00000000E+00  0.00000000E+00  0.00000000E+00
  0.00000000E+00  0.00000000E+00  0.00000000E+00
  0.00000000E+00  0.00000000E+00  0.00000000E+00
  0.00000000E+00  0.00000000E+00  0.00000000E+00
  0.00000000E+00  0.00000000E+00  0.00000000E+00
  0.00000000E+00  0.00000000E+00  0.00000000E+00
  0.00000000E+00  0.00000000E+00  0.00000000E+00
  0.00000000E+00  0.00000000E+00  0.00000000E+00
  0.00000000E+00  0.00000000E+00  0.00000000E+00
  0.00000000E+00  0.00000000E+00  0.00000000E+00
  0.00000000E+00  0.00000000E+00  0.00000000E+00
  0.00000000E+00  0.00000000E+00  0.00000000E+00
  0.00000000E+00  0.00000000E+00  0.00000000E+00
  0.00000000E+00  0.00000000E+00  0.00000000E+00
  0.00000000E+00  0.00000000E+00  0.00000000E+00
  0.00000000E+00  0.00000000E+00  0.00000000E+00
  0.00000000E+00  0.00000000E+00  0.00000000E+00
  0.00000000E+00  0.00000000E+00  0.00000000E+00
  0.00000000E+00  0.00000000E+00  0.00000000E+00
  0.00000000E+00  0.00000000E+00  0.00000000E+00
  0.00000000E+00  0.00000000E+00  0.00000000E+00
  0.00000000E+00  0.00000000E+00  0.00000000E+00
  0.00000000E+00  0.00000000E+00  0.00000000E+00
  0.00000000E+00  0.00000000E+00  0.00000000E+00
  0.00000000E+00  0.00000000E+00  0.00000000E+00
  0.00000000E+00  0.00000000E+00  0.00000000E+00
  0.00000000E+00  0.00000000E+00  0.00000000E+00
  0.00000000E+00  0.00000000E+00  0.00000000E+00
  0.00000000E+00  0.00000000E+00  0.00000000E+00
  0.00000000E+00  0.00000000E+00  0.00000000E+00
  0.00000000E+00  0.00000000E+00  0.00000000E+00
  0.00000000E+00  0.00000000E+00  0.00000000E+00
  0.00000000E+00  0.00000000E+00  0.00000000E+00
  0.00000000E+00  0.00000000E+00  0.00000000E+00
  0.00000000E+00  0.00000000E+00  0.00000000E+00
