Mo  S                                   
1.0
  33.0000000000         0.0000000000         0.0000000000
   0.0000000000        25.5200004578         0.0000000000
   0.0000000000         0.0000000000        17.4729003906
Mo S O C
48 97 2 1
Cartesian
     9.398483733         2.675716673         8.689924570
    12.201591620         0.900437442         8.713735263
     9.415516797         5.763305153         8.687229506
    12.203444256         4.090306479         8.707731241
    14.923270462         2.493842571         8.735424460
    17.668010602         0.899988480         8.772446654
     9.404091438         8.740651549         8.685284254
    12.193785859         7.256526730         8.704282581
    14.938218723         5.674730757         8.726932370
    17.667938415         4.085218595         8.755433709
    20.379196816         2.508229870         8.798750483
     9.369745525        11.844388644         8.684822474
    12.175293987        10.428290067         8.705925961
    14.912514776         8.844611683         8.730328956
    17.667016189         7.272806777         8.756486107
     9.411255145        15.427354156         8.687835479
    12.167261911        13.626357011         8.708455790
    14.877071059        12.031896759         8.737331267
    17.611206637        10.445876140         8.775993097
     9.418435568        18.247524583         8.690731784
    12.184737854        16.826616923         8.710435003
    14.895355325        15.231261391         8.738243798
    17.607919760        13.631469695         8.782346855
    14.923097331        18.420836623         8.736920770
    17.657871322        16.812665252         8.773572298
    20.407805311         5.703005723         8.769929742
    23.162301487         0.978579455         8.710203703
    20.390527162         8.885719854         8.838314369
    23.042692354         4.102554493         8.835465431
    20.226040138        12.034932172         8.837348313
    23.091395568         7.217733663         8.844422799
    20.386019430        15.199289202         8.850560517
    22.842962605        10.775025787         8.939684460
    20.430658431        18.383960006         8.795003042
    22.836865755        13.272642353         8.932723169
    23.069953337        16.677009069         8.901961597
     9.431560961        21.807419064         8.693527688
    12.199697636        20.024428983         8.712999101
     9.437057548        24.625487798         8.693589646
    12.209079240        23.222984178         8.715492835
    14.932796407        21.618922128         8.740150020
    17.669743646        20.013889677         8.767034444
    14.931408680        24.819813670         8.742093902
    17.664468074        23.213444580         8.773363974
    20.362664912        21.607587795         8.791129319
    20.421921044        24.818865195         8.803119957
    23.078719289        20.054534533         8.812282838
    23.135702432        23.132215642         8.732950973
    10.314309707         0.903224914         7.202520844
    10.290643202         0.906146702        10.195084531
    10.370681713         4.135052657         7.100406419
    10.348632462         4.138675865        10.289482230
    13.107211861         2.486311576         7.152928855
    13.079439090         2.492102492        10.284248745
    15.856115793         0.893702653         7.191261051
    15.820159032         0.899552034        10.309048849
    10.360744613         7.254243537         7.081180499
    10.339481719         7.255897546        10.303062484
    13.128578261         5.671562411         7.151041261
    13.103407647         5.674594883        10.273445729
    15.855999202         4.077293133         7.175924274
    15.827730444         4.084257318        10.301613922
    18.583948139         2.487868475         7.207356646
    18.553616380         2.495704439        10.344612372
    10.345576046        10.379183524         7.098136424
    10.320655221        10.378536182        10.285540842
    13.108957931         8.846495159         7.150349655
    13.079436978         8.843957234        10.275461364
    15.858982331         7.266436211         7.172457852
    15.825092087         7.261584196        10.300734840
    18.594634026         5.686754083         7.194778262
    18.568488609         5.682851571        10.317291752
    21.311155626         0.894038112         7.244359920
    21.394677241         0.913049066        10.327713154
    21.334333099         4.090916993         7.219888971
    21.246996800         4.150706275        10.380115591
    10.282306507        13.622498510         7.197437171
    10.257747127        13.620418096        10.188615041
    13.069898495        12.035963788         7.149609695
    13.035272619        12.033330381        10.283486777
    15.814914496        10.445124479         7.182394215
    15.767072921        10.437390475        10.312099143
    18.604379448         8.875575908         7.229133353
    18.535575073         8.853718043        10.350203634
    10.397748488        16.832027343         7.054398616
    10.371933352        16.829043981        10.338903197
    13.085849222        15.223595864         7.157800208
    13.052970708        15.222468811        10.278775439
    15.807441676        13.635727018         7.191368326
    15.757231893        13.635497714        10.312435253
    18.486505656        12.043024456         7.207831721
    18.416487698        12.036603974        10.389001881
    13.106678160        18.430427987         7.160706409
    13.077824863        18.428748485        10.277668235
    15.843591371        16.821636527         7.188714753
    15.802856998        16.824310181        10.308170408
    18.595973546        15.213272170         7.242348842
    18.523630612        15.225381256        10.358481245
    18.607738455        18.399155933         7.224924882
    18.571271759        18.410870704        10.329688120
    21.448884127         7.345303305         7.245630976
    21.368394792         7.254324963        10.395186556
    24.035196831         2.462500325         7.253510055
    23.948861208         2.582395817        10.331649755
    21.316393081        10.529450813         7.256668903
    21.201296032        10.515084104        10.489043086
    24.547292198         5.677598192         8.029055025
    21.304727825        13.550140621         7.259270726
    21.201454301        13.546876793        10.493153525
    24.356525693         9.051728645         9.490130996
    21.446591099        16.728809747         7.268375338
    21.362787036        16.799792261        10.432271776
    24.450814931        14.877670183         9.406818259
    24.496012181        18.363625435         8.242701384
     7.604448501         4.154614192         8.677267859
     7.577510145         7.249705962         8.679359233
     7.543055287        16.813621690         8.676307353
     7.789874334         0.930157943         8.679137273
    10.308154788        20.026975628         7.203751937
    10.285395334        20.024959966        10.193515256
    10.420894386        23.221062263         7.059921126
    10.395153091        23.220531328        10.342629327
    13.118454306        21.616329436         7.163284864
    13.089364584        21.614263963        10.281194064
    15.855101902        20.016353324         7.189175907
    15.823126171        20.015198512        10.305181320
    13.118571700        24.825350699         7.163732136
    13.088398528        24.826965361        10.283178054
    15.853390943        23.220193124         7.191192723
    15.818715963        23.218597107        10.312379361
    18.569284865        21.614731129         7.207279419
    18.545210161        21.613992118        10.347112700
    18.594795423        24.817547969         7.230184167
    18.571711188        24.817855818        10.338166646
    21.313882941        19.996132070         7.236491587
    21.278041793        19.996424265        10.354213247
    21.296523133        23.223615642         7.237419992
    21.360027318        23.210380462        10.330123785
    23.923765833        21.614619400         7.185721543
    24.006130601        21.575825572        10.308896782
    24.719859555        24.797394201         8.786824596
     7.563310806        23.246285210         8.683231193
     7.780776480        20.032533426         8.681845336
     7.766050882        13.593524722         8.674550049
     7.587453700        10.351660573         8.671541300
    24.350000000        10.874900000         8.930000000 
    24.350000000        13.194900000         8.930000000 
    24.350000000        12.034900000         8.930000000      
