W36 Se72                                
   1.00000000000000     
    19.6920000000000002    0.0000000000000000    0.0000000000000012
    -9.8459999999999965   17.0537722513231707    0.0000000000000012
     0.0000000000000000    0.0000000000000000   25.9200000000000017
   W    Se
    36    69
Direct
  0.1228298713661645  0.0486885381541005  0.5008772684792535
  0.1281700551551887  0.2173151011803014  0.5013100604696390
  0.1281837966262424  0.3831561642726161  0.5013175928637253
  0.1227876748475623  0.5463845807310088  0.5008568830636050
  0.1202684308546531  0.7124968545066788  0.5012335857542417
  0.1203197878624688  0.8800439403151223  0.5012454750504293
  0.2881188885207323  0.0485763411172819  0.4975444525360868
  0.2978774232153559  0.2198852744674404  0.4917788636206235
  0.3003488564384735  0.3862893385610054  0.4895333376517125
  0.2978586783170906  0.5502213374020241  0.4917525323530908
  0.2881302100959512  0.7117643260366878  0.4974889262519737
  0.2871563362996615  0.8796745317435596  0.4998125863564074
  0.4535829857959650  0.0468562034765647  0.5002380092789664
  0.4487854554853568  0.2162128978231593  0.4942858763328670
  0.4460021905919056  0.3758139133761026  0.4868300822081008
  0.4460065983158406  0.5423431951019947  0.4868296858028203
  0.4488284492164181  0.7047713460117921  0.4942674449479214
  0.4535901116595883  0.8788828696617311  0.5002189977461897
  0.6203257728454685  0.0462647337441259  0.5031805739376424
  0.6186490998190256  0.2129090627733402  0.5021056421221862
  0.6136098449530817  0.3776027926385341  0.4990024378581390
  0.6101490744778723  0.5411971418481117  0.4979608686053379
  0.6136431946650440  0.7082525715322989  0.4989488266841174
  0.6187501315977395  0.8779699587031010  0.5020384601579777
  0.7876641055293870  0.0464211294874366  0.5050379458911392
  0.7876149638357623  0.2134751975691156  0.5050930432484294
  0.7853602359155079  0.3791558158048287  0.5039573347594352
  0.7829356680758061  0.5446049776045752  0.5029539298189171
  0.7829391221872498  0.7106286752202410  0.5029149120003358
  0.7854507802617675  0.8785031634126790  0.5038736550217268
  0.9557699703580756  0.0476660485792798  0.5044724924267308
  0.9574887507058318  0.2148540231770562  0.5052176562450987
  0.9557436910381415  0.3802788143934465  0.5045161488858493
  0.9533245235662853  0.5459919760687182  0.5035926797805154
  0.9520146092599180  0.7121331506244162  0.5032250467960667
  0.9533243236335011  0.8795441349704280  0.5035337844159987
  0.0717057059647239  0.1065563411220228  0.5673755410265242
  0.0751165201559146  0.2737139535054535  0.5677998570022477
  0.0716956534445827  0.4374126562908505  0.5673783819892714
  0.0677038503429230  0.6021527921628402  0.5670149753568005
  0.0657116981722774  0.7689873967717057  0.5669074408228335
  0.0676619027573084  0.9377730605187062  0.5669762551912764
  0.2411481626561296  0.1129307855725355  0.5614473971416252
  0.2561939652234645  0.2827967747807063  0.5595245418622160
  0.2562684749555070  0.4457173714358766  0.5595312640212867
  0.2410990742219988  0.6004750808027257  0.5613916754433166
  0.2337220993868625  0.7674606319637842  0.5644140914795148
  0.2337731058791381  0.9384549429900230  0.5644598014767369
  0.3977590474348116  0.1079494833091300  0.5623797141700253
  0.3977487045844441  0.7619475012379107  0.5623614980583406
  0.3975030549573884  0.9348141730858824  0.5653180337912511
  0.5623930956173118  0.1017088403078487  0.5672117103479916
  0.5546522757852187  0.2677991205852304  0.5636246142103123
  0.5417671612552930  0.4246142759570467  0.5600651578259860
  0.5417721704947449  0.5894241240637941  0.5600604519764807
  0.5547823811182543  0.7591644503669057  0.5635744193896796
  0.5624343360199027  0.9328466098120165  0.5671491487216673
  0.7304916801460259  0.1013434014350190  0.5697227169723088
  0.7283712877678239  0.2681705969404993  0.5690001559252162
  0.7233070400106378  0.4324073706704121  0.5668550166178873
  0.7200053998866023  0.5961946636135138  0.5659677787877038
  0.7233334557526701  0.7632519063548818  0.5667897349559580
  0.7285126153788156  0.9325143428259125  0.5689277621000209
  0.9004945595797444  0.1028821154561603  0.5701099019972186
  0.9004778192964547  0.2697621463469938  0.5701612766648864
  0.8979180214424738  0.4353310174173247  0.5690571435978037
  0.8951870583638375  0.6005430461861200  0.5682437847803924
  0.8951554161181845  0.7669127513361336  0.5682114149006599
  0.8979461212684339  0.9347609479923513  0.5690232635624903
  0.0652497669007800  0.1037493653987410  0.4377958005867995
  0.0669247952563161  0.2696338184600703  0.4385837911256171
  0.0651847097831504  0.4337252531197489  0.4377967986386811
  0.0630820723221423  0.6002922180912706  0.4370231991069481
  0.0623572931444234  0.7673282451173102  0.4370229378714675
  0.0631595243713824  0.9350877082909432  0.4370231362196952
  0.2303103256160123  0.1018277818457265  0.4320777807794392
  0.2320209318527974  0.2684157260040750  0.4297334506910581
  0.2320245510359930  0.4358031024304697  0.4297321135687534
  0.2302746759942860  0.6006985537015094  0.4320291133927925
  0.2298838799558078  0.7681493637254331  0.4345914721054329
  0.2299485724097004  0.9339925014232335  0.4345981681089787
  0.3997491860071432  0.1018672208749373  0.4325582057668436
  0.4003192481097556  0.2678054611260119  0.4218562988837199
  0.4018934178473156  0.4370082556485436  0.4191868769578188
  0.4003668244348998  0.6046884183236818  0.4218643457103648
  0.3998088801697677  0.7700636061212529  0.4325439861775934
  0.3987683619127888  0.9354642999846836  0.4350168370025124
  0.5666150315216394  0.1022933300540473  0.4368593918298939
  0.5647583222474172  0.2671589239085843  0.4339339789943500
  0.5642342544307203  0.4345533326571581  0.4294970298696831
  0.5642350003457793  0.6018545239032627  0.4294827068290696
  0.5647624278585155  0.7697581676347660  0.4338665715231621
  0.5666565449579511  0.9364885752054004  0.4368530971199429
  0.7334751192306768  0.1028920625110333  0.4395726831784306
  0.7325050680945900  0.2684366889589949  0.4388796638438529
  0.7305591223681845  0.4342547082250642  0.4375471996916621
  0.7287584043229348  0.6005079195493283  0.4370922521872162
  0.7305844004488462  0.7685737602887630  0.4374648911786755
  0.7326238403891058  0.9363919551070383  0.4388053736973943
  0.8996722030612615  0.1033293717356196  0.4402350174494261
  0.8995979498796772  0.2685254816399299  0.4402853274619388
  0.8978307491635431  0.4340994710338476  0.4393578018776517
  0.8960134855817620  0.6004345337044227  0.4385755602499546
  0.8960021205124503  0.7677408141466584  0.4385245374191257
  0.8979143557493412  0.9359586919357610  0.4392507863314620
 
  0.00000000E+00  0.00000000E+00  0.00000000E+00
  0.00000000E+00  0.00000000E+00  0.00000000E+00
  0.00000000E+00  0.00000000E+00  0.00000000E+00
  0.00000000E+00  0.00000000E+00  0.00000000E+00
  0.00000000E+00  0.00000000E+00  0.00000000E+00
  0.00000000E+00  0.00000000E+00  0.00000000E+00
  0.00000000E+00  0.00000000E+00  0.00000000E+00
  0.00000000E+00  0.00000000E+00  0.00000000E+00
  0.00000000E+00  0.00000000E+00  0.00000000E+00
  0.00000000E+00  0.00000000E+00  0.00000000E+00
  0.00000000E+00  0.00000000E+00  0.00000000E+00
  0.00000000E+00  0.00000000E+00  0.00000000E+00
  0.00000000E+00  0.00000000E+00  0.00000000E+00
  0.00000000E+00  0.00000000E+00  0.00000000E+00
  0.00000000E+00  0.00000000E+00  0.00000000E+00
  0.00000000E+00  0.00000000E+00  0.00000000E+00
  0.00000000E+00  0.00000000E+00  0.00000000E+00
  0.00000000E+00  0.00000000E+00  0.00000000E+00
  0.00000000E+00  0.00000000E+00  0.00000000E+00
  0.00000000E+00  0.00000000E+00  0.00000000E+00
  0.00000000E+00  0.00000000E+00  0.00000000E+00
  0.00000000E+00  0.00000000E+00  0.00000000E+00
  0.00000000E+00  0.00000000E+00  0.00000000E+00
  0.00000000E+00  0.00000000E+00  0.00000000E+00
  0.00000000E+00  0.00000000E+00  0.00000000E+00
  0.00000000E+00  0.00000000E+00  0.00000000E+00
  0.00000000E+00  0.00000000E+00  0.00000000E+00
  0.00000000E+00  0.00000000E+00  0.00000000E+00
  0.00000000E+00  0.00000000E+00  0.00000000E+00
  0.00000000E+00  0.00000000E+00  0.00000000E+00
  0.00000000E+00  0.00000000E+00  0.00000000E+00
  0.00000000E+00  0.00000000E+00  0.00000000E+00
  0.00000000E+00  0.00000000E+00  0.00000000E+00
  0.00000000E+00  0.00000000E+00  0.00000000E+00
  0.00000000E+00  0.00000000E+00  0.00000000E+00
  0.00000000E+00  0.00000000E+00  0.00000000E+00
  0.00000000E+00  0.00000000E+00  0.00000000E+00
  0.00000000E+00  0.00000000E+00  0.00000000E+00
  0.00000000E+00  0.00000000E+00  0.00000000E+00
  0.00000000E+00  0.00000000E+00  0.00000000E+00
  0.00000000E+00  0.00000000E+00  0.00000000E+00
  0.00000000E+00  0.00000000E+00  0.00000000E+00
  0.00000000E+00  0.00000000E+00  0.00000000E+00
  0.00000000E+00  0.00000000E+00  0.00000000E+00
  0.00000000E+00  0.00000000E+00  0.00000000E+00
  0.00000000E+00  0.00000000E+00  0.00000000E+00
  0.00000000E+00  0.00000000E+00  0.00000000E+00
  0.00000000E+00  0.00000000E+00  0.00000000E+00
  0.00000000E+00  0.00000000E+00  0.00000000E+00
  0.00000000E+00  0.00000000E+00  0.00000000E+00
  0.00000000E+00  0.00000000E+00  0.00000000E+00
  0.00000000E+00  0.00000000E+00  0.00000000E+00
  0.00000000E+00  0.00000000E+00  0.00000000E+00
  0.00000000E+00  0.00000000E+00  0.00000000E+00
  0.00000000E+00  0.00000000E+00  0.00000000E+00
  0.00000000E+00  0.00000000E+00  0.00000000E+00
  0.00000000E+00  0.00000000E+00  0.00000000E+00
  0.00000000E+00  0.00000000E+00  0.00000000E+00
  0.00000000E+00  0.00000000E+00  0.00000000E+00
  0.00000000E+00  0.00000000E+00  0.00000000E+00
  0.00000000E+00  0.00000000E+00  0.00000000E+00
  0.00000000E+00  0.00000000E+00  0.00000000E+00
  0.00000000E+00  0.00000000E+00  0.00000000E+00
  0.00000000E+00  0.00000000E+00  0.00000000E+00
  0.00000000E+00  0.00000000E+00  0.00000000E+00
  0.00000000E+00  0.00000000E+00  0.00000000E+00
  0.00000000E+00  0.00000000E+00  0.00000000E+00
  0.00000000E+00  0.00000000E+00  0.00000000E+00
  0.00000000E+00  0.00000000E+00  0.00000000E+00
  0.00000000E+00  0.00000000E+00  0.00000000E+00
  0.00000000E+00  0.00000000E+00  0.00000000E+00
  0.00000000E+00  0.00000000E+00  0.00000000E+00
  0.00000000E+00  0.00000000E+00  0.00000000E+00
  0.00000000E+00  0.00000000E+00  0.00000000E+00
  0.00000000E+00  0.00000000E+00  0.00000000E+00
  0.00000000E+00  0.00000000E+00  0.00000000E+00
  0.00000000E+00  0.00000000E+00  0.00000000E+00
  0.00000000E+00  0.00000000E+00  0.00000000E+00
  0.00000000E+00  0.00000000E+00  0.00000000E+00
  0.00000000E+00  0.00000000E+00  0.00000000E+00
  0.00000000E+00  0.00000000E+00  0.00000000E+00
  0.00000000E+00  0.00000000E+00  0.00000000E+00
  0.00000000E+00  0.00000000E+00  0.00000000E+00
  0.00000000E+00  0.00000000E+00  0.00000000E+00
  0.00000000E+00  0.00000000E+00  0.00000000E+00
  0.00000000E+00  0.00000000E+00  0.00000000E+00
  0.00000000E+00  0.00000000E+00  0.00000000E+00
  0.00000000E+00  0.00000000E+00  0.00000000E+00
  0.00000000E+00  0.00000000E+00  0.00000000E+00
  0.00000000E+00  0.00000000E+00  0.00000000E+00
  0.00000000E+00  0.00000000E+00  0.00000000E+00
  0.00000000E+00  0.00000000E+00  0.00000000E+00
  0.00000000E+00  0.00000000E+00  0.00000000E+00
  0.00000000E+00  0.00000000E+00  0.00000000E+00
  0.00000000E+00  0.00000000E+00  0.00000000E+00
  0.00000000E+00  0.00000000E+00  0.00000000E+00
  0.00000000E+00  0.00000000E+00  0.00000000E+00
  0.00000000E+00  0.00000000E+00  0.00000000E+00
  0.00000000E+00  0.00000000E+00  0.00000000E+00
  0.00000000E+00  0.00000000E+00  0.00000000E+00
  0.00000000E+00  0.00000000E+00  0.00000000E+00
  0.00000000E+00  0.00000000E+00  0.00000000E+00
  0.00000000E+00  0.00000000E+00  0.00000000E+00
  0.00000000E+00  0.00000000E+00  0.00000000E+00
  0.00000000E+00  0.00000000E+00  0.00000000E+00
