Mo1 S2                                  
   1.00000000000000     
    19.1418952942000011    0.0000000000000000    0.0000000000000000
    -9.5709489007999995   16.5773646751000001    0.0000000000000000
     0.0000000000000000    0.0000000000000000   23.1298294067000008
   Mo   S    O    C 
    36    71     1     1
Direct
  0.1110959531179674  0.0555127038080840  0.5003730220275315
  0.1111005204822106  0.2222002106717440  0.5003910762017512
  0.1110031651965713  0.3888600600426955  0.5004157888439593
  0.1108867682517811  0.5554285567384269  0.5005015751398574
  0.1108809586880355  0.7220776810595027  0.5004791053131683
  0.1110010229305232  0.8887592298311233  0.5003750662455246
  0.2778547613446634  0.0556195643293975  0.5003651768982138
  0.2778810915173011  0.2222517116811815  0.5004221723159716
  0.2778578684677129  0.3888601883124210  0.5004157329815868
  0.2777593071339126  0.5555177545548844  0.5004494358663507
  0.2776978168818616  0.7221666408025555  0.5004576087119830
  0.2777584748289641  0.8888784597100070  0.5003925864047218
  0.4445469440792706  0.0557555802831686  0.5004377455940130
  0.4448502918283523  0.2225839851087912  0.5005518427258693
  0.4448491873554801  0.3888940230488060  0.5005826757424856
  0.4445421258890363  0.5554283598011622  0.5005017367752629
  0.4444695288612124  0.7221666664163706  0.5004578411567522
  0.4444742313211947  0.8889477660269804  0.5004323891846383
  0.6112090498704248  0.0557554106378788  0.5004379731735611
  0.6115396829451072  0.2230789229201235  0.5008842994543770
  0.6117863617829968  0.3892016006344505  0.5017848010702508
  0.6115296849982741  0.5550788072330164  0.5009347225424392
  0.6111974116970913  0.7220777380256607  0.5004793031488077
  0.6111205202243681  0.8888783728330907  0.5003930084229182
  0.7777652666580082  0.0556192772377457  0.5003657409114979
  0.7777341977985017  0.2225840211594559  0.5005521791579071
  0.7774141376338832  0.3892016754014733  0.5017845875483218
  0.7774110092531643  0.5548228915169346  0.5017903479516193
  0.7777181491912444  0.7217506217966232  0.5005831205604707
  0.7777583814786624  0.8887588980700940  0.5003754447087090
  0.9444172912325399  0.0555125809401815  0.5003732624537491
  0.9443713066208872  0.2222515982366815  0.5004224508668429
  0.9440449380012552  0.3888937804648833  0.5005826881898443
  0.9435485407937705  0.5550786253363285  0.5009346791387586
  0.9440325213953003  0.7217510629552066  0.5005825419068088
  0.9443603447781399  0.8887203577864398  0.5004208653775351
  0.0555413018978754  0.1110818154160071  0.4330848902741167
  0.0554884931900048  0.2777854103895692  0.4331233267176486
  0.0551951105290982  0.4444055475327247  0.4332130632721629
  0.0547133191690747  0.6106562683592145  0.4334175504422433
  0.0551672811668382  0.7773865386082974  0.4331946343960666
  0.0554627443966496  0.9443107808778279  0.4331057879514475
  0.2222835753406187  0.1111425123231982  0.4330971990074275
  0.2222986437591032  0.2777857862787627  0.4331233623529727
  0.2222167609750301  0.4444315214955026  0.4331542224591018
  0.2220534968287851  0.6110322154590904  0.4331997828875487
  0.2220484661587250  0.7776298133510835  0.4331725198208076
  0.2222048923289108  0.9444116558657214  0.4330987588641335
  0.3892130682627126  0.1114570289810217  0.4331656449457384
  0.3891699237316573  0.2779103526081599  0.4331913531539726
  0.3892118484717813  0.4444057960810284  0.4332135880312791
  0.3889805604825867  0.6110320989752722  0.4332001936043426
  0.3888758182707903  0.7777496014820287  0.4331970848504554
  0.3889920887913192  0.9445800477737905  0.4331545218204695
  0.5559639275047346  0.1119275800501001  0.4333617944133152
  0.5569183923499210  0.2793232585077021  0.4336690666276652
  0.5569109865018120  0.4442320867126526  0.4336940243911442
  0.5559427505085708  0.6106563291264493  0.4334179572742229
  0.5555822434992450  0.7776292086612173  0.4331729575197656
  0.5555887117111311  0.9445795107861983  0.4331545956611507
  0.7222439809851409  0.1114560397619684  0.4331657020066402
  0.7224042641047035  0.2793229532714605  0.4336689521960082
  0.7223741947878395  0.6096926514723222  0.4337003456811743
  0.7222188727633991  0.7773858634242217  0.4331954146079653
  0.7222068517964644  0.9444106466641315  0.4330990928457226
  0.8888592453097672  0.1111416744819493  0.4330974284809059
  0.8887406904763253  0.2779094579069010  0.4331910846732043
  0.8873202947612242  0.4442314686598863  0.4336933048430822
  0.8873167320315645  0.6096927526823706  0.4336998543548418
  0.8887080167531423  0.7774173689143282  0.4332055573581002
  0.8888477264262988  0.9443103069563961  0.4331061004817514
  0.0555348043381727  0.1110682310044524  0.5676655257035392
  0.0555174173013171  0.2777428044761763  0.5676818847533696
  0.0554024602601544  0.4443234763079005  0.5677390165502203
  0.0553578929371028  0.6109985814618000  0.5678077889205397
  0.0554181832306426  0.7777129919701622  0.5677216892609991
  0.0555314415394221  0.9443851693381049  0.5676669302121411
  0.2222300672128767  0.1110827978389679  0.5676600910118097
  0.2222272549689990  0.2777430406303623  0.5676815175974284
  0.2221880696091816  0.4443740772965725  0.5676850942205789
  0.2221405669042866  0.6110416911430150  0.5677348461143552
  0.2221460334544787  0.7777642804480465  0.5677086970433578
  0.2221976546664379  0.9444451444099826  0.5676346814337165
  0.3889216877433697  0.1112139909379977  0.5676878832838881
  0.3889546667639436  0.2777713753386379  0.5677714063506087
  0.3889222464657394  0.4443235886188859  0.5677384870839575
  0.3889027354866670  0.6110416130946916  0.5677346578901492
  0.3888938569600526  0.7777862211992144  0.5677122808930477
  0.3889053373679161  0.9445283228084733  0.5676814632793707
  0.5556347239913961  0.1112696017963302  0.5677483838065100
  0.5553538457151816  0.2776997644086663  0.5685335929740347
  0.5553528886869188  0.4442359380989345  0.5685646848025598
  0.5556407351288044  0.6109982725017389  0.5678074964581015
  0.5556189128349516  0.7777636052872836  0.5677087242298882
  0.5556233124319832  0.9445277255000235  0.5676817253947135
  0.7222920678059737  0.1112131551156210  0.5676884721710991
  0.7223449266285229  0.2776994494544809  0.5685340703744828
  0.7221946371093111  0.4443908391029012  0.5691696663597270
  0.7223561959455651  0.6112450130031419  0.5685653601767768
  0.7222941412248289  0.7777123524849472  0.5677218336687559
  0.7222473414721264  0.9444439845700572  0.5676351854477346
  0.8888532479422580  0.1110819909145349  0.5676606914261271
  0.8888169266309376  0.2777709022306283  0.5677720959460757
  0.8888825853330076  0.4442361399024861  0.5685651192985475
  0.8888875761987975  0.6112468878280453  0.5685649092379066
  0.8888287955727705  0.7776577656588373  0.5677895091816580
  0.8888538355230722  0.9443845529743697  0.5676671459278140
  0.7222218741294384  0.4444438102268649  0.3907979497705441
  0.7222211055257048  0.4444419408614522  0.4430269568188763
 
  0.00000000E+00  0.00000000E+00  0.00000000E+00
  0.00000000E+00  0.00000000E+00  0.00000000E+00
  0.00000000E+00  0.00000000E+00  0.00000000E+00
  0.00000000E+00  0.00000000E+00  0.00000000E+00
  0.00000000E+00  0.00000000E+00  0.00000000E+00
  0.00000000E+00  0.00000000E+00  0.00000000E+00
  0.00000000E+00  0.00000000E+00  0.00000000E+00
  0.00000000E+00  0.00000000E+00  0.00000000E+00
  0.00000000E+00  0.00000000E+00  0.00000000E+00
  0.00000000E+00  0.00000000E+00  0.00000000E+00
  0.00000000E+00  0.00000000E+00  0.00000000E+00
  0.00000000E+00  0.00000000E+00  0.00000000E+00
  0.00000000E+00  0.00000000E+00  0.00000000E+00
  0.00000000E+00  0.00000000E+00  0.00000000E+00
  0.00000000E+00  0.00000000E+00  0.00000000E+00
  0.00000000E+00  0.00000000E+00  0.00000000E+00
  0.00000000E+00  0.00000000E+00  0.00000000E+00
  0.00000000E+00  0.00000000E+00  0.00000000E+00
  0.00000000E+00  0.00000000E+00  0.00000000E+00
  0.00000000E+00  0.00000000E+00  0.00000000E+00
  0.00000000E+00  0.00000000E+00  0.00000000E+00
  0.00000000E+00  0.00000000E+00  0.00000000E+00
  0.00000000E+00  0.00000000E+00  0.00000000E+00
  0.00000000E+00  0.00000000E+00  0.00000000E+00
  0.00000000E+00  0.00000000E+00  0.00000000E+00
  0.00000000E+00  0.00000000E+00  0.00000000E+00
  0.00000000E+00  0.00000000E+00  0.00000000E+00
  0.00000000E+00  0.00000000E+00  0.00000000E+00
  0.00000000E+00  0.00000000E+00  0.00000000E+00
  0.00000000E+00  0.00000000E+00  0.00000000E+00
  0.00000000E+00  0.00000000E+00  0.00000000E+00
  0.00000000E+00  0.00000000E+00  0.00000000E+00
  0.00000000E+00  0.00000000E+00  0.00000000E+00
  0.00000000E+00  0.00000000E+00  0.00000000E+00
  0.00000000E+00  0.00000000E+00  0.00000000E+00
  0.00000000E+00  0.00000000E+00  0.00000000E+00
  0.00000000E+00  0.00000000E+00  0.00000000E+00
  0.00000000E+00  0.00000000E+00  0.00000000E+00
  0.00000000E+00  0.00000000E+00  0.00000000E+00
  0.00000000E+00  0.00000000E+00  0.00000000E+00
  0.00000000E+00  0.00000000E+00  0.00000000E+00
  0.00000000E+00  0.00000000E+00  0.00000000E+00
  0.00000000E+00  0.00000000E+00  0.00000000E+00
  0.00000000E+00  0.00000000E+00  0.00000000E+00
  0.00000000E+00  0.00000000E+00  0.00000000E+00
  0.00000000E+00  0.00000000E+00  0.00000000E+00
  0.00000000E+00  0.00000000E+00  0.00000000E+00
  0.00000000E+00  0.00000000E+00  0.00000000E+00
  0.00000000E+00  0.00000000E+00  0.00000000E+00
  0.00000000E+00  0.00000000E+00  0.00000000E+00
  0.00000000E+00  0.00000000E+00  0.00000000E+00
  0.00000000E+00  0.00000000E+00  0.00000000E+00
  0.00000000E+00  0.00000000E+00  0.00000000E+00
  0.00000000E+00  0.00000000E+00  0.00000000E+00
  0.00000000E+00  0.00000000E+00  0.00000000E+00
  0.00000000E+00  0.00000000E+00  0.00000000E+00
  0.00000000E+00  0.00000000E+00  0.00000000E+00
  0.00000000E+00  0.00000000E+00  0.00000000E+00
  0.00000000E+00  0.00000000E+00  0.00000000E+00
  0.00000000E+00  0.00000000E+00  0.00000000E+00
  0.00000000E+00  0.00000000E+00  0.00000000E+00
  0.00000000E+00  0.00000000E+00  0.00000000E+00
  0.00000000E+00  0.00000000E+00  0.00000000E+00
  0.00000000E+00  0.00000000E+00  0.00000000E+00
  0.00000000E+00  0.00000000E+00  0.00000000E+00
  0.00000000E+00  0.00000000E+00  0.00000000E+00
  0.00000000E+00  0.00000000E+00  0.00000000E+00
  0.00000000E+00  0.00000000E+00  0.00000000E+00
  0.00000000E+00  0.00000000E+00  0.00000000E+00
  0.00000000E+00  0.00000000E+00  0.00000000E+00
  0.00000000E+00  0.00000000E+00  0.00000000E+00
  0.00000000E+00  0.00000000E+00  0.00000000E+00
  0.00000000E+00  0.00000000E+00  0.00000000E+00
  0.00000000E+00  0.00000000E+00  0.00000000E+00
  0.00000000E+00  0.00000000E+00  0.00000000E+00
  0.00000000E+00  0.00000000E+00  0.00000000E+00
  0.00000000E+00  0.00000000E+00  0.00000000E+00
  0.00000000E+00  0.00000000E+00  0.00000000E+00
  0.00000000E+00  0.00000000E+00  0.00000000E+00
  0.00000000E+00  0.00000000E+00  0.00000000E+00
  0.00000000E+00  0.00000000E+00  0.00000000E+00
  0.00000000E+00  0.00000000E+00  0.00000000E+00
  0.00000000E+00  0.00000000E+00  0.00000000E+00
  0.00000000E+00  0.00000000E+00  0.00000000E+00
  0.00000000E+00  0.00000000E+00  0.00000000E+00
  0.00000000E+00  0.00000000E+00  0.00000000E+00
  0.00000000E+00  0.00000000E+00  0.00000000E+00
  0.00000000E+00  0.00000000E+00  0.00000000E+00
  0.00000000E+00  0.00000000E+00  0.00000000E+00
  0.00000000E+00  0.00000000E+00  0.00000000E+00
  0.00000000E+00  0.00000000E+00  0.00000000E+00
  0.00000000E+00  0.00000000E+00  0.00000000E+00
  0.00000000E+00  0.00000000E+00  0.00000000E+00
  0.00000000E+00  0.00000000E+00  0.00000000E+00
  0.00000000E+00  0.00000000E+00  0.00000000E+00
  0.00000000E+00  0.00000000E+00  0.00000000E+00
  0.00000000E+00  0.00000000E+00  0.00000000E+00
  0.00000000E+00  0.00000000E+00  0.00000000E+00
  0.00000000E+00  0.00000000E+00  0.00000000E+00
  0.00000000E+00  0.00000000E+00  0.00000000E+00
  0.00000000E+00  0.00000000E+00  0.00000000E+00
  0.00000000E+00  0.00000000E+00  0.00000000E+00
  0.00000000E+00  0.00000000E+00  0.00000000E+00
  0.00000000E+00  0.00000000E+00  0.00000000E+00
  0.00000000E+00  0.00000000E+00  0.00000000E+00
  0.00000000E+00  0.00000000E+00  0.00000000E+00
  0.00000000E+00  0.00000000E+00  0.00000000E+00
  0.00000000E+00  0.00000000E+00  0.00000000E+00
  0.00000000E+00  0.00000000E+00  0.00000000E+00
