Mo1 S2                                  
1.0
       19.1418952942         0.0000000000         0.0000000000
       -9.5709489008        16.5773646751         0.0000000000
        0.0000000000         0.0000000000        23.1298294067
   Mo    S    O    C
   36   71    1    1
Cartesian
     1.591218808         0.904046217        11.633156646
    -0.000005558         3.669225848        11.673779140
    -1.572584669         6.444359563        11.688320519
    -3.163567103         9.220507903        11.647909417
    -4.771121405        11.981200263        11.604408076
    -6.378942532        14.727780695        11.601991277
     4.778268542         0.914893007        11.601638587
     3.172964985         3.669007197        11.641631933
     1.572576384         6.444353337        11.688317497
    -0.000004598         9.219073066        11.678678363
    -1.588845536        11.987625129        11.640130969
    -3.186679936        14.745397574        11.605497825
     7.973967026         0.935026125        11.551302281
     6.354627889         3.676173802        11.530741673
     4.701901542         6.438422485        11.620708097
     3.163567259         9.220489552        11.647883626
     1.588868562        11.987614010        11.640119423
     0.000011852        14.752381121        11.601566696
    11.167938073         0.935024470        11.551289997
     9.570949806         3.707607769        11.435536217
     7.852082986         6.474621789        11.331529443
     6.333787534         9.212795990        11.534248932
     4.771130834        11.981198358        11.604378767
     3.186695421        14.745400425        11.605473949
    14.363640006         0.914898047        11.601604103
    12.787266675         3.676186359        11.530717464
    11.289825929         6.474631460        11.331536864
     9.570952422         9.227057021        11.415270380
     7.963575602        11.961092258        11.546774667
     6.378954073        14.727784028        11.601963223
    17.550674912         0.904051008        11.633141982
    15.968927314         3.669020354        11.641612660
    14.439992773         6.438441010        11.620702993
    12.808110415         9.212803401        11.534267750
    11.178328264        11.961093644        11.546787414
     9.570948699        14.717490220        11.594789140
     0.000005449         1.845556698        10.092357571
    -1.568148166         4.608004290        10.116182127
    -3.098805962         7.374803244        10.097085468
    -4.707413236        10.152636887        10.038997679
    -6.351658830        12.904272199        10.027460234
    -7.976262146        15.658403709        10.054473948
     3.163929047         1.838732789        10.070609409
     1.568150183         4.607993007        10.116189610
    -0.000002662         7.369648323        10.129025929
    -1.568999583        10.135008397        10.099844234
    -3.167650511        12.898318436        10.060530777
    -4.788465504        15.652422946        10.047108480
     6.343120319         1.813814218        10.005212476
     4.702328635         4.599233772        10.041691912
     3.098806769         7.374771037        10.097075011
     1.568995023        10.134996401        10.099829381
     0.000012478        12.891647845        10.070807488
    -1.597330589        15.645690178        10.029638109
     9.570946777         1.808959579         9.955481829
     7.895298723         4.538881144         9.902873314
     6.098398021         7.393188098         9.989295354
     4.707422360        10.152624252        10.038972293
     3.167666979        12.898306829        10.060503127
     1.597332759        15.645692372        10.029621180
    12.798776742         1.813823457        10.005189765
    11.246586017         4.538890940         9.902865583
     7.905836596        10.152992302         9.946121460
     6.351671448        12.904269661        10.027433446
     4.788477921        15.652429372        10.047076980
    15.977976153         1.838744443        10.070583135
    14.439559533         4.599258977        10.041681489
    13.043504985         7.393215420         9.989293810
    11.236069231        10.152996762         9.946132325
     9.570957454        12.901046083        10.007229169
     7.976271820        15.658401196        10.054456986
    -0.000007729         1.805875228        13.206597714
    -1.600018207         4.581756705        13.230068989
    -3.179702794         7.380463052        13.222205557
    -4.804584665        10.134518602        13.156520811
    -6.397014853        12.873134223        13.141426793
    -7.979515603        15.621663938        13.167821557
     3.197035982         1.816649439        13.185246597
     1.600004093         4.581750782        13.230078056
    -0.000000814         7.379033309        13.252413584
    -1.597662156        10.159821031        13.218458811
    -3.197064875        12.914987243        13.176145642
    -4.785638859        15.655031709        13.161707414
     6.397859116         1.864706647        13.118120007
     4.808363461         4.582072640        13.160969779
     3.179703064         7.380457543        13.222199737
     1.597675585        10.159808706        13.218449144
     0.000018303        12.932799744        13.186517980
    -1.590581057        15.699586292        13.142722582
     9.570957605         1.923779176        13.061121000
     7.990434129         4.685366224        12.970968240
     6.412452929         7.346203497        13.056905788
     4.804583237        10.134515200        13.156496587
     3.197093439        12.914991665        13.176125977
     1.590621081        15.699596309        13.142709922
    12.744053062         1.864708101        13.118097042
    11.151470214         4.685368347        12.970954583
     9.570954430         7.319300250        12.815326110
     7.998685210        10.082026780        13.050653187
     6.397014238        12.873135918        13.141405426
     4.785652878        15.655038096        13.161679360
    15.944847222         1.816657152        13.185218904
    14.333534139         4.582081411        13.160953001
    12.729449209         7.346203132        13.056901546
    11.143204545        10.082027220        13.050665594
     9.570947309        12.845985996        13.114227460
     7.979509587        15.621674773        13.167807701
     9.570954430         7.319300250         8.684496429
     9.570954430         7.319300250         9.834370530
