Mo48 Se99
1.0
  33.0000000000000000    0.0000000000000000    0.0000000000000000
   0.0000000000000000   26.3120002699999986    0.0000000000000000
   0.0000000000000000    0.0000000000000000   18.0970000000000013
Mo Se
48 99
direct
   0.2876906700000000    0.0265475900000000    0.5012876100000000 Mo
   0.2874921000000000    0.2768254400000000    0.4982251300000000 Mo
   0.2876538300000000    0.5263569200000000    0.5029696800000000 Mo
   0.2816847900000000    0.7921664700000000    0.5025065800000000 Mo
   0.4546533300000000    0.0360115600000000    0.5009034700000000 Mo
   0.4532589800000000    0.2852970400000000    0.4994599800000000 Mo
   0.4546798600000000    0.5350061000000000    0.5010445100000001 Mo
   0.4548981000000000    0.7856370499999999    0.5019003399999999 Mo
   0.6271310600000000    0.0368180000000000    0.5001999700000000 Mo
   0.6263512000000000    0.2853737900000000    0.4998451000000000 Mo
   0.6270723600000000    0.5340943100000000    0.4999646400000000 Mo
   0.6275094600000000    0.7854189499999999    0.5003501299999999 Mo
   0.2874018800000000    0.1696981600000000    0.4988453300000000 Mo
   0.2875313700000000    0.4181385400000000    0.5001322600000000 Mo
   0.2820733900000000    0.6563185200000000    0.5026913900000000 Mo
   0.2882619200000000    0.9188406300000000    0.5026577500000000 Mo
   0.4537438300000000    0.1606398900000000    0.4998853200000000 Mo
   0.4540102400000000    0.4100316500000000    0.5000115600000000 Mo
   0.4547648800000000    0.6600878800000000    0.5017313700000000 Mo
   0.4553529800000000    0.9106300100000000    0.5015365600000000 Mo
   0.6266475600000000    0.1618384500000000    0.4999307200000000 Mo
   0.6267013200000000    0.4089934700000000    0.4998578200000000 Mo
   0.6277828000000000    0.6596133300000000    0.5000619100000000 Mo
   0.6278277700000000    0.9112085800000000    0.5003954400000000 Mo
   0.3675023500000000    0.2224380400000000    0.4987690800000000 Mo
   0.3684901700000000    0.4721273000000000    0.5006033300000000 Mo
   0.3673317700000000    0.7227968900000000    0.5026269600000000 Mo
   0.3688510200000000    0.9742153900000000    0.5018170800000000 Mo
   0.5396503700000000    0.2233071800000000    0.4998683000000000 Mo
   0.5411862700000000    0.4719860200000000    0.5002376500000000 Mo
   0.5414413800000000    0.7225449000000000    0.5010531300000000 Mo
   0.5414406300000000    0.9735196900000000    0.5008628100000000 Mo
   0.7139757799999999    0.2272898500000000    0.4997529600000000 Mo
   0.7151268000000000    0.4614982900000000    0.4995459500000000 Mo
   0.7148219700000000    0.7141421800000000    0.4992249700000000 Mo
   0.7146584300000000    0.9658206100000000    0.4996751800000000 Mo
   0.3665604100000000    0.0981156400000000    0.5005719000000000 Mo
   0.3665508200000000    0.3475541700000000    0.4995739400000000 Mo
   0.3689114200000000    0.5971537500000000    0.5023666900000000 Mo
   0.3698260400000000    0.8489473500000000    0.5024968200000000 Mo
   0.5411183300000000    0.0988546300000000    0.5003194500000000 Mo
   0.5397952900000000    0.3474633200000000    0.4998441600000000 Mo
   0.5412902400000000    0.5974669600000000    0.5007707200000000 Mo
   0.5416043400000000    0.8482202100000000    0.5010589500000000 Mo
   0.7151225200000000    0.1094088700000000    0.4997292900000000 Mo
   0.7139990899999999    0.3436585600000000    0.4997184100000000 Mo
   0.7146646400000000    0.6050456500000000    0.4992289300000000 Mo
   0.7147864600000000    0.8566650800000000    0.4995008700000000 Mo
   0.2432355600000000    0.0987438200000000    0.5637967500000000 Se
   0.2437232900000000    0.3476598100000000    0.5414028500000000 Se
   0.2538485100000000    0.5917455500000000    0.5877421300000000 Se
   0.2551658700000000    0.8541049700000000    0.5917883300000000 Se
   0.4249334400000000    0.0984142100000000    0.5926746600000000 Se
   0.4243237400000000    0.3476454300000000    0.5919131800000000 Se
   0.4265752200000000    0.5975596600000000    0.5946639500000001 Se
   0.4271208600000000    0.8482011200000000    0.5951669600000000 Se
   0.5989019000000000    0.0988352600000000    0.5931567300000000 Se
   0.5972454699999999    0.3474413300000000    0.5924400800000000 Se
   0.5992777100000000    0.5969365800000000    0.5927840000000000 Se
   0.5995800900000000    0.8480092000000000    0.5931599400000001 Se
   0.4249057700000000    0.2228792300000000    0.5924284500000000 Se
   0.4261584300000000    0.4722339700000000    0.5934777400000000 Se
   0.4257371200000000    0.7228527400000000    0.5941705000000000 Se
   0.4268272300000000    0.9735575600000000    0.5941523900000000 Se
   0.5971199600000000    0.2233534100000000    0.5924711600000000 Se
   0.5989882600000001    0.4720838700000000    0.5929987799999999 Se
   0.5995550900000000    0.7227073899999999    0.5929121000000001 Se
   0.5993436800000000    0.9739824800000000    0.5930707700000000 Se
   0.3383767900000000    0.0356518300000000    0.5977834300000000 Se
   0.3372001600000000    0.2842691100000000    0.5953418500000000 Se
   0.3413169100000000    0.5335453500000000    0.5974708600000000 Se
   0.3385018400000000    0.7861482900000000    0.5941593600000000 Se
   0.5125871200000000    0.0362646100000000    0.5931232500000000 Se
   0.5106384700000000    0.2854404000000000    0.5925291600000000 Se
   0.5126968700000000    0.5346982300000001    0.5930335200000000 Se
   0.5130464300000001    0.7853457400000000    0.5937320699999999 Se
   0.6881084800000000    0.0376046600000000    0.5874227500000000 Se
   0.6846264900000000    0.2854874200000000    0.5956450700000000 Se
   0.6881179100000000    0.5333918600000001    0.5870487300000000 Se
   0.6884985800000000    0.7853069600000000    0.5875980400000000 Se
   0.3379977500000000    0.1615158900000000    0.5961612800000000 Se
   0.3375103800000000    0.4103583300000000    0.5964675800000000 Se
   0.3382705000000000    0.6597470900000000    0.5948847200000000 Se
   0.3415046500000000    0.9117840100000000    0.5975517299999999 Se
   0.5113897100000000    0.1606853500000000    0.5927097099999999 Se
   0.5116674600000000    0.4100599800000000    0.5927431300000000 Se
   0.5128570500000000    0.6600969800000001    0.5938194900000000 Se
   0.5132357200000000    0.9108225800000000    0.5938475600000001 Se
   0.6846580900000000    0.1642180900000000    0.5955424000000000 Se
   0.6847085500000000    0.4067284600000000    0.5954903700000000 Se
   0.6845627800000000    0.6595275800000000    0.5975873300000000 Se
   0.6845834400000000    0.9112399400000000    0.5979981100000000 Se
   0.2429165800000000    0.0969755200000000    0.4361142300000000 Se
   0.2545271700000000    0.5926649000000001    0.4157826800000000 Se
   0.2553022800000000    0.8543861200000000    0.4132419600000000 Se
   0.4249261400000000    0.0976739000000000    0.4082528900000000 Se
   0.4245923300000000    0.3480825200000000    0.4071844100000000 Se
   0.4259309900000000    0.5980102000000000    0.4087456400000000 Se
   0.4266492300000000    0.8479456500000000    0.4088278800000000 Se
   0.5987432300000000    0.0986344400000000    0.4071586600000000 Se
   0.5972294200000000    0.3474379100000000    0.4072347600000000 Se
   0.5987924600000000    0.5970373200000000    0.4077077500000000 Se
   0.5991459000000000    0.8480141200000000    0.4081523900000000 Se
   0.2276398300000000    0.2234463200000000    0.4855403900000000 Se
   0.2278547900000000    0.4732240400000000    0.4930500400000000 Se
   0.2317795000000000    0.7238791400000000    0.4942055600000000 Se
   0.2281540700000000    0.9712723800000000    0.5029158300000000 Se
   0.4252438100000000    0.2226136700000000    0.4063615100000000 Se
   0.4258967600000000    0.4729594800000000    0.4076858700000000 Se
   0.4252491700000000    0.7229516800000000    0.4100433800000000 Se
   0.4265431700000000    0.9730621699999999    0.4087082200000000 Se
   0.5971253800000000    0.2232798100000000    0.4072726300000000 Se
   0.5987706600000000    0.4721882700000000    0.4070073800000000 Se
   0.5989975000000000    0.7228845100000000    0.4080814400000000 Se
   0.5989819000000000    0.9738364600000000    0.4079972200000000 Se
   0.3383709000000000    0.0346243700000000    0.4046159800000000 Se
   0.3376749100000000    0.2854441000000000    0.4026252500000000 Se
   0.3398002800000000    0.5349381200000000    0.4069223100000000 Se
   0.3383053800000000    0.7860567300000000    0.4109328800000000 Se
   0.5123734700000000    0.0358420200000000    0.4083667900000000 Se
   0.5108270000000000    0.2854142000000000    0.4068578800000000 Se
   0.5123194599999999    0.5351043100000000    0.4083597000000000 Se
   0.5125225799999999    0.7853494600000001    0.4090461300000000 Se
   0.6878440000000000    0.0375544700000000    0.4123233500000000 Se
   0.6845611600000000    0.2854622000000000    0.4038558600000000 Se
   0.6877349500000000    0.5332875600000000    0.4120150100000000 Se
   0.6878955800000000    0.7854400400000000    0.4118070700000000 Se
   0.3382553400000000    0.1602273500000000    0.4031242400000000 Se
   0.3372612200000000    0.4102566900000000    0.4036727500000000 Se
   0.3379132800000000    0.6602195400000000    0.4103772700000000 Se
   0.3411876900000000    0.9113863600000000    0.4072462100000000 Se
   0.5115409600000000    0.1603571900000000    0.4073481900000000 Se
   0.5116478100000000    0.4103391100000000    0.4072979300000000 Se
   0.5123367800000000    0.6602764300000000    0.4085912100000000 Se
   0.5128857100000001    0.9106595400000000    0.4084734000000000 Se
   0.6845259500000000    0.1641999500000000    0.4040162300000000 Se
   0.7755159700000001    0.9122741900000000    0.4983013800000000 Se
   0.7677571600000000    0.7854449900000000    0.4985978000000000 Se
   0.7755565500000000    0.6585526500000000    0.4979371500000000 Se
   0.7674394900000000    0.5321781900000000    0.4990154500000000 Se
   0.7740298500000000    0.4053782700000000    0.4997111900000000 Se
   0.7736691700000000    0.2853740000000000    0.4998493200000000 Se
   0.7740052200000000    0.1654541300000000    0.4999438900000000 Se
   0.7674448000000000    0.0386815900000000    0.4995192500000000 Se
   0.6845456599999999    0.4066923900000000    0.4039578200000000 Se
   0.6839740900000000    0.6595478400000000    0.4014802400000000 Se
   0.6840204500000000    0.9113280800000000    0.4018050700000000 Se
