Mo36 Se72                               
   1.00000000000000     
    19.7340000000000018    0.0000000000000000    0.0000000000000012
    -9.8669999999999938   17.0901453182821115    0.0000000000000012
     0.0000000000000000    0.0000000000000000   25.8539999999999992
   Mo   Se
    36    70
Direct
  0.1229999116539275  0.0487080599695631  0.5000266575804204
  0.1269245923540581  0.2162353829464578  0.5003124259460634
  0.1229559505711180  0.3797962889411650  0.4999149861285233
  0.1205644580244964  0.5457471158779157  0.5006457472508075
  0.1200028124297177  0.7127228656403375  0.5011455249492371
  0.1205925939711037  0.8803069056472737  0.5007573734600328
  0.2884949588858703  0.0490001541978984  0.4973869889310478
  0.2958417445052888  0.2185579551639520  0.4921963671439542
  0.2958292303236618  0.3827917740424098  0.4921225287986815
  0.2885019095369117  0.5450137701712734  0.4973235248115202
  0.2872104991912607  0.7125425568420525  0.5003836541242990
  0.2871826322414464  0.8801231057420367  0.5004514714799555
  0.4536116330117679  0.0473224688867262  0.5001118157712483
  0.4499013331799802  0.2151315010138433  0.4946347614273776
  0.4460810635979087  0.3758348652441583  0.4897117457874955
  0.4499150393332130  0.5403277921605962  0.4945613463052325
  0.4536682926004616  0.7118595672713113  0.5000942714247572
  0.4537024263249805  0.8796302316616149  0.5014180445420280
  0.6204552939157892  0.0465771346503843  0.5023398137873656
  0.6186409643535669  0.2129034249299622  0.5008980555069229
  0.6140512449702413  0.3773416538944829  0.4983041129752337
  0.6141045223163886  0.5423456486433977  0.4982514458593315
  0.6187305089983894  0.7113983363924206  0.5008761384254328
  0.6204783816012949  0.8795307931378602  0.5023595298268901
  0.7879767415553331  0.0468325119146940  0.5033305455576595
  0.7871068040085589  0.2131853652836568  0.5028528677968112
  0.7849587561200906  0.3789273667694246  0.5017692812347008
  0.7838700484275947  0.5447170052967181  0.5011500860255609
  0.7850281599761217  0.7116538018905132  0.5017627675155509
  0.7871126420326817  0.8795547260451926  0.5028770647044993
  0.9558876244513712  0.0477928218757526  0.5028163443189797
  0.9559120579572706  0.2137019260114457  0.5027679628600481
  0.9541192730536636  0.3795951582395318  0.5021604204890764
  0.9525535563638456  0.5456695881547731  0.5017572524628235
  0.9525960925652441  0.7123995084166310  0.5018018449692008
  0.9541610511853023  0.8801211916040543  0.5022552303279610
  0.0708142730704964  0.1058419760539024  0.5659413812630376
  0.0708116674873764  0.2705887310109389  0.5658972430101059
  0.0676150576718371  0.4351239333138253  0.5656734805318635
  0.0650231231062008  0.6012935749995805  0.5658664027250495
  0.0650487210947190  0.7690854305733055  0.5659449610076095
  0.0676516571717087  0.9380330855272163  0.5657873687368493
  0.2404097586237057  0.1119614189942553  0.5610248297526894
  0.2541013925754356  0.2798705162021804  0.5605293441238004
  0.2403508314424414  0.4339455449821799  0.5609407875626786
  0.2333680894848129  0.5998826966016253  0.5640109090681946
  0.2319422451935367  0.7686223152508163  0.5653514311854835
  0.2333945047429822  0.9390629944203823  0.5640980546871219
  0.3977261568148194  0.1078790371063505  0.5623394759305640
  0.3977315225409654  0.5953619156556229  0.5622875577609818
  0.3978405509905087  0.7668603875993725  0.5654650756674471
  0.3978157861729770  0.9364947556820198  0.5654942268206824
  0.5632070918946184  0.1024017965625461  0.5661006384258798
  0.5562515053022281  0.2679079970393303  0.5629318811963984
  0.5451291540731873  0.4254373119641883  0.5602983978320069
  0.5563040478319223  0.5939961407756229  0.5628407628478556
  0.5632770364122734  0.7664167259120518  0.5661048829826569
  0.5640792457291255  0.9348819974879348  0.5669696352785110
  0.7312794358434189  0.1021817812510690  0.5677701003277917
  0.7290055076474644  0.2683950925580803  0.5667017880702900
  0.7245806864102349  0.4325753707688449  0.5649139836594159
  0.7246037711520259  0.5976005493538210  0.5648894970185268
  0.7290822305557327  0.7662352075638097  0.5667136130258967
  0.7313315066477131  0.9348460740360167  0.5677792327343738
  0.9003395500439382  0.1030098940954716  0.5679215634675572
  0.8994077056611758  0.2691804136236655  0.5674212410335286
  0.8968451859416220  0.4346616689269780  0.5665944863407404
  0.8954250560073760  0.6004415398565541  0.5661960770845624
  0.8968805368379691  0.7677117992100406  0.5666249073714482
  0.8993865323876804  0.9358469871922637  0.5674727764434664
  0.0657478395419560  0.1034850931373796  0.4368427892764544
  0.0657675540103781  0.2677197115570067  0.4367469120661767
  0.0641418272861287  0.4342617180758452  0.4362967509044395
  0.0635380901240907  0.6011722218077864  0.4365817792539914
  0.0635920382811008  0.7679448122944166  0.4366327333561202
  0.0642258626214556  0.9354414726060156  0.4364470534404603
  0.2309639716536793  0.1021493085395520  0.4319016358940431
  0.2323565458346053  0.2688444977408224  0.4302192447647215
  0.2309550845580972  0.4343145684991612  0.4318316494822554
  0.2307334067349629  0.6019876090234177  0.4349179499255982
  0.2309131037546805  0.7682029642178350  0.4360267796162347
  0.2307607268957597  0.9342026461421540  0.4350027785461705
  0.3998042231496939  0.1020168535204533  0.4326310348240270
  0.4005044089315817  0.2686545871468482  0.4249727476749499
  0.4005188001574922  0.4373396336632069  0.4249081311574230
  0.3998579225258823  0.6033841677415026  0.4325774581547108
  0.3987314276504748  0.7691745282385654  0.4359382436342258
  0.3986809414421302  0.9350535792628989  0.4359681985849804
  0.5657881705007668  0.1017770680656440  0.4364432918662473
  0.5640859527794291  0.2670062865267582  0.4334681387421355
  0.5619939833961496  0.4337773604139628  0.4306754400582307
  0.5641496836847537  0.6027317131002405  0.4334134563209133
  0.5658580881513231  0.7696630171919949  0.4364530697943323
  0.5657750225723746  0.9356838299981405  0.4373791123939341
  0.7324889608664407  0.1021086595192102  0.4382179476000729
  0.7314368453041169  0.2679173660210594  0.4372336551757954
  0.7296322057415665  0.4340365667495618  0.4361427956671378
  0.7297127517711743  0.6012229169537946  0.4361199272921610
  0.7315240460154513  0.7691597893102795  0.4372166289458974
  0.7325046355647231  0.9360479591157826  0.4382336220243204
  0.8991356379454984  0.1023584078495077  0.4383715930982106
  0.8985757199522837  0.2680220899308097  0.4380564440403774
  0.8970881698396767  0.4342246419939499  0.4373630012861653
  0.8965171395012561  0.6010351627654416  0.4370435512175632
  0.8972563350743670  0.7685194928758321  0.4374284765749934
  0.8985918585895689  0.9361258021447654  0.4381264662742126
 
  0.00000000E+00  0.00000000E+00  0.00000000E+00
  0.00000000E+00  0.00000000E+00  0.00000000E+00
  0.00000000E+00  0.00000000E+00  0.00000000E+00
  0.00000000E+00  0.00000000E+00  0.00000000E+00
  0.00000000E+00  0.00000000E+00  0.00000000E+00
  0.00000000E+00  0.00000000E+00  0.00000000E+00
  0.00000000E+00  0.00000000E+00  0.00000000E+00
  0.00000000E+00  0.00000000E+00  0.00000000E+00
  0.00000000E+00  0.00000000E+00  0.00000000E+00
  0.00000000E+00  0.00000000E+00  0.00000000E+00
  0.00000000E+00  0.00000000E+00  0.00000000E+00
  0.00000000E+00  0.00000000E+00  0.00000000E+00
  0.00000000E+00  0.00000000E+00  0.00000000E+00
  0.00000000E+00  0.00000000E+00  0.00000000E+00
  0.00000000E+00  0.00000000E+00  0.00000000E+00
  0.00000000E+00  0.00000000E+00  0.00000000E+00
  0.00000000E+00  0.00000000E+00  0.00000000E+00
  0.00000000E+00  0.00000000E+00  0.00000000E+00
  0.00000000E+00  0.00000000E+00  0.00000000E+00
  0.00000000E+00  0.00000000E+00  0.00000000E+00
  0.00000000E+00  0.00000000E+00  0.00000000E+00
  0.00000000E+00  0.00000000E+00  0.00000000E+00
  0.00000000E+00  0.00000000E+00  0.00000000E+00
  0.00000000E+00  0.00000000E+00  0.00000000E+00
  0.00000000E+00  0.00000000E+00  0.00000000E+00
  0.00000000E+00  0.00000000E+00  0.00000000E+00
  0.00000000E+00  0.00000000E+00  0.00000000E+00
  0.00000000E+00  0.00000000E+00  0.00000000E+00
  0.00000000E+00  0.00000000E+00  0.00000000E+00
  0.00000000E+00  0.00000000E+00  0.00000000E+00
  0.00000000E+00  0.00000000E+00  0.00000000E+00
  0.00000000E+00  0.00000000E+00  0.00000000E+00
  0.00000000E+00  0.00000000E+00  0.00000000E+00
  0.00000000E+00  0.00000000E+00  0.00000000E+00
  0.00000000E+00  0.00000000E+00  0.00000000E+00
  0.00000000E+00  0.00000000E+00  0.00000000E+00
  0.00000000E+00  0.00000000E+00  0.00000000E+00
  0.00000000E+00  0.00000000E+00  0.00000000E+00
  0.00000000E+00  0.00000000E+00  0.00000000E+00
  0.00000000E+00  0.00000000E+00  0.00000000E+00
  0.00000000E+00  0.00000000E+00  0.00000000E+00
  0.00000000E+00  0.00000000E+00  0.00000000E+00
  0.00000000E+00  0.00000000E+00  0.00000000E+00
  0.00000000E+00  0.00000000E+00  0.00000000E+00
  0.00000000E+00  0.00000000E+00  0.00000000E+00
  0.00000000E+00  0.00000000E+00  0.00000000E+00
  0.00000000E+00  0.00000000E+00  0.00000000E+00
  0.00000000E+00  0.00000000E+00  0.00000000E+00
  0.00000000E+00  0.00000000E+00  0.00000000E+00
  0.00000000E+00  0.00000000E+00  0.00000000E+00
  0.00000000E+00  0.00000000E+00  0.00000000E+00
  0.00000000E+00  0.00000000E+00  0.00000000E+00
  0.00000000E+00  0.00000000E+00  0.00000000E+00
  0.00000000E+00  0.00000000E+00  0.00000000E+00
  0.00000000E+00  0.00000000E+00  0.00000000E+00
  0.00000000E+00  0.00000000E+00  0.00000000E+00
  0.00000000E+00  0.00000000E+00  0.00000000E+00
  0.00000000E+00  0.00000000E+00  0.00000000E+00
  0.00000000E+00  0.00000000E+00  0.00000000E+00
  0.00000000E+00  0.00000000E+00  0.00000000E+00
  0.00000000E+00  0.00000000E+00  0.00000000E+00
  0.00000000E+00  0.00000000E+00  0.00000000E+00
  0.00000000E+00  0.00000000E+00  0.00000000E+00
  0.00000000E+00  0.00000000E+00  0.00000000E+00
  0.00000000E+00  0.00000000E+00  0.00000000E+00
  0.00000000E+00  0.00000000E+00  0.00000000E+00
  0.00000000E+00  0.00000000E+00  0.00000000E+00
  0.00000000E+00  0.00000000E+00  0.00000000E+00
  0.00000000E+00  0.00000000E+00  0.00000000E+00
  0.00000000E+00  0.00000000E+00  0.00000000E+00
  0.00000000E+00  0.00000000E+00  0.00000000E+00
  0.00000000E+00  0.00000000E+00  0.00000000E+00
  0.00000000E+00  0.00000000E+00  0.00000000E+00
  0.00000000E+00  0.00000000E+00  0.00000000E+00
  0.00000000E+00  0.00000000E+00  0.00000000E+00
  0.00000000E+00  0.00000000E+00  0.00000000E+00
  0.00000000E+00  0.00000000E+00  0.00000000E+00
  0.00000000E+00  0.00000000E+00  0.00000000E+00
  0.00000000E+00  0.00000000E+00  0.00000000E+00
  0.00000000E+00  0.00000000E+00  0.00000000E+00
  0.00000000E+00  0.00000000E+00  0.00000000E+00
  0.00000000E+00  0.00000000E+00  0.00000000E+00
  0.00000000E+00  0.00000000E+00  0.00000000E+00
  0.00000000E+00  0.00000000E+00  0.00000000E+00
  0.00000000E+00  0.00000000E+00  0.00000000E+00
  0.00000000E+00  0.00000000E+00  0.00000000E+00
  0.00000000E+00  0.00000000E+00  0.00000000E+00
  0.00000000E+00  0.00000000E+00  0.00000000E+00
  0.00000000E+00  0.00000000E+00  0.00000000E+00
  0.00000000E+00  0.00000000E+00  0.00000000E+00
  0.00000000E+00  0.00000000E+00  0.00000000E+00
  0.00000000E+00  0.00000000E+00  0.00000000E+00
  0.00000000E+00  0.00000000E+00  0.00000000E+00
  0.00000000E+00  0.00000000E+00  0.00000000E+00
  0.00000000E+00  0.00000000E+00  0.00000000E+00
  0.00000000E+00  0.00000000E+00  0.00000000E+00
  0.00000000E+00  0.00000000E+00  0.00000000E+00
  0.00000000E+00  0.00000000E+00  0.00000000E+00
  0.00000000E+00  0.00000000E+00  0.00000000E+00
  0.00000000E+00  0.00000000E+00  0.00000000E+00
  0.00000000E+00  0.00000000E+00  0.00000000E+00
  0.00000000E+00  0.00000000E+00  0.00000000E+00
  0.00000000E+00  0.00000000E+00  0.00000000E+00
  0.00000000E+00  0.00000000E+00  0.00000000E+00
  0.00000000E+00  0.00000000E+00  0.00000000E+00
  0.00000000E+00  0.00000000E+00  0.00000000E+00
