W36 S72                                 
   1.00000000000000     
    18.9192008971999996    0.0000000000000000    0.0000000000000000
    -9.4596004485999998   16.3845085963000017    0.0000000000000000
     0.0000000000000000    0.0000000000000000   24.6459999084000003
   W    S    O    C 
    36    70     2     1
Direct
  0.1218212348117759  0.0473279550412700  0.4999998910927917
  0.1215162136129150  0.2127816415057223  0.5001360857221071
  0.1201413320689245  0.3788681768760729  0.4996343535751457
  0.1202576159392557  0.5457816899363839  0.4992421536605466
  0.1204311034495190  0.7128198690073045  0.4993480753058249
  0.1209159710921394  0.8800616788363562  0.4995911743101719
  0.2884764800756604  0.0483037420170701  0.4971557677328489
  0.2927768345219159  0.2152075461265194  0.4959902403441649
  0.2879215332316750  0.3804670975788146  0.5002321113089934
  0.2867002747857933  0.5454327529658032  0.4999515837986050
  0.2869270244128588  0.7126087918245685  0.4996977694571618
  0.2873607556405017  0.8799243933837161  0.4989774731523931
  0.4538629009659437  0.0464426026324697  0.4980903418867222
  0.4522363453607431  0.2135104789472374  0.4932557528807627
  0.4542722238461545  0.3679134190923631  0.4965617659213223
  0.4511122820215198  0.5442163940801882  0.5020294905229689
  0.4532472736941822  0.7122855681929195  0.5009762952249854
  0.4535799015207385  0.8792467886637002  0.4999203572739261
  0.6203284089622288  0.0453861701493274  0.4996075888248017
  0.6199173025082465  0.2118382591493020  0.4973972217175028
  0.6204812557793806  0.3776249395900114  0.4955200256396675
  0.6180790496875834  0.5432030671508050  0.5002676706701388
  0.6191247563431811  0.7106183467805838  0.5022261130442434
  0.6201734912214111  0.8785163690249087  0.5012585472530250
  0.7870829280547842  0.0453206950939614  0.5008077610167905
  0.7869818515913355  0.2120274565454205  0.4992432959492492
  0.7871480378147738  0.3784755255308977  0.4978630569325382
  0.7866568619782525  0.5450160916177383  0.4988424472070722
  0.7863394241035376  0.7115576238921226  0.5011869915130125
  0.7866796153398535  0.8783697921896388  0.5017284808849516
  0.9541453603023594  0.0457967845602229  0.5010107918468711
  0.9540444233132165  0.2122313150348949  0.5001744247366440
  0.9537602373871885  0.3788320460534860  0.4990373814794345
  0.9536305424415827  0.5456915992193945  0.4989087601752690
  0.9536373577608488  0.7124895786295264  0.4999857438596523
  0.9540297458381424  0.8792959368542561  0.5010234169520543
  0.0665090476998322  0.1022854596240253  0.5646998565632320
  0.0656482275690057  0.2682239550914761  0.5642193478348554
  0.0643781431083811  0.4346838838308843  0.5634458399952856
  0.0644959364353037  0.6013122334701286  0.5632984751648142
  0.0654561756955780  0.7686431710161706  0.5637544355306980
  0.0668056273183937  0.9361549209908749  0.5643892139177785
  0.2380967106907180  0.1072277592769138  0.5619617063950481
  0.2364072874645147  0.2683080243817037  0.5624165012664066
  0.2299734360197815  0.4340535609140483  0.5639894434699733
  0.2308308133655366  0.6012257532190882  0.5637748986226415
  0.2315597510950222  0.7689630053703219  0.5634502656814863
  0.2334509411081632  0.9378139936608284  0.5625667736531077
  0.3993120567339311  0.1070932974454484  0.5604075824283808
  0.3966053465389521  0.6017846924671745  0.5651720069525714
  0.3973740210139157  0.7685337608403560  0.5643918588879655
  0.3981940588127230  0.9364671254002827  0.5632254731491030
  0.5643937583035180  0.1022002970066245  0.5626225904827369
  0.5604713041774166  0.2672653790295303  0.5594847085565872
  0.5644033589420561  0.4278890057013632  0.5611359885057793
  0.5621553446621029  0.5970164742599325  0.5657873238792397
  0.5639140367576799  0.7674039649085089  0.5657184096807304
  0.5642840800121379  0.9350670545945059  0.5644944591436317
  0.7311596094248806  0.1016924734228759  0.5640992317870707
  0.7301955615652201  0.2678174341272431  0.5623473932620664
  0.7298958978218840  0.4323816371486350  0.5615105584192701
  0.7301127776278876  0.5984987665039521  0.5641129133290698
  0.7309957555714891  0.7666955350871713  0.5659470922722676
  0.7313140554084397  0.9346226561180044  0.5655290489850017
  0.8985432117274013  0.1016983235576382  0.5648945666741815
  0.8979347175020811  0.2681621982973355  0.5636562046148813
  0.8974274434323081  0.4341207662365567  0.5627344378921985
  0.8974838902885175  0.6002705673238945  0.5633770234132723
  0.8983659955873458  0.7674329448165366  0.5649071809449684
  0.8987232735866826  0.9347358511011220  0.5654745252298061
  0.0647398999272880  0.1014799019365548  0.4363582610217880
  0.0649946900950507  0.2672958879700185  0.4357942714276268
  0.0651569980097502  0.4345002493110444  0.4350377351048315
  0.0650891136079547  0.6017556435167470  0.4349949847718400
  0.0645432083838566  0.7685537662228626  0.4355607177717042
  0.0644534560558841  0.9354135715635694  0.4361998887335164
  0.2308161483305969  0.1031174409976388  0.4337385868810918
  0.2323905580616322  0.2694102880979326  0.4352196922703613
  0.2318913768277906  0.4340352009498535  0.4356695378322727
  0.2318339027821248  0.6014361044380176  0.4354054870549861
  0.2316010740991032  0.7681279981469475  0.4352074565061489
  0.2310784299760245  0.9346993255899189  0.4345700821071135
  0.3987856967393444  0.1005499917152925  0.4317665703723551
  0.3967562928519514  0.2654908352778704  0.4278112335298523
  0.4008169479167352  0.4328843774041680  0.4386631017827005
  0.3991366237004064  0.6008734111542259  0.4367194632938654
  0.3985514900431004  0.7677152103160901  0.4359968473871164
  0.3984177891555169  0.9341245330115815  0.4348535235036203
  0.5651947251419489  0.0998237554863661  0.4342731795447352
  0.5649478815138430  0.2659020122868841  0.4309967987083357
  0.5654044582640873  0.4356817397781108  0.4325966422077890
  0.5619573463987846  0.6000775592024308  0.4378353422509362
  0.5650442661449657  0.7669895171228890  0.4374588693453726
  0.5651442787490888  0.9334753914110349  0.4361468968146979
  0.7318362649190300  0.1000646805927511  0.4357643153409318
  0.7321543217696701  0.2669185097024092  0.4339491294426347
  0.7336452308315848  0.4355250653150506  0.4331024362922592
  0.7300003396910608  0.6014152929289958  0.4362996149781868
  0.7301034744033450  0.7669412905944237  0.4377497845476112
  0.7313756331698519  0.9335358247291873  0.4371928420843030
  0.8981482190444551  0.1004147220980081  0.4365799657017737
  0.8985236833340247  0.2670733033034208  0.4353383478427057
  0.8991163269897569  0.4347414164790433  0.4343933846626405
  0.8983688323798207  0.6021454713120268  0.4351053853536048
  0.8973321717226511  0.7681969658437049  0.4367198304022799
  0.8975629314712483  0.9341359984475641  0.4372447599776495
  0.3827013762142894  0.4481790739439018  0.5593579009702861
  0.4026785888377701  0.3670932812159817  0.6168928926129444
  0.4089334852203215  0.3909751525765485  0.5706347397076349
 
  0.00000000E+00  0.00000000E+00  0.00000000E+00
  0.00000000E+00  0.00000000E+00  0.00000000E+00
  0.00000000E+00  0.00000000E+00  0.00000000E+00
  0.00000000E+00  0.00000000E+00  0.00000000E+00
  0.00000000E+00  0.00000000E+00  0.00000000E+00
  0.00000000E+00  0.00000000E+00  0.00000000E+00
  0.00000000E+00  0.00000000E+00  0.00000000E+00
  0.00000000E+00  0.00000000E+00  0.00000000E+00
  0.00000000E+00  0.00000000E+00  0.00000000E+00
  0.00000000E+00  0.00000000E+00  0.00000000E+00
  0.00000000E+00  0.00000000E+00  0.00000000E+00
  0.00000000E+00  0.00000000E+00  0.00000000E+00
  0.00000000E+00  0.00000000E+00  0.00000000E+00
  0.00000000E+00  0.00000000E+00  0.00000000E+00
  0.00000000E+00  0.00000000E+00  0.00000000E+00
  0.00000000E+00  0.00000000E+00  0.00000000E+00
  0.00000000E+00  0.00000000E+00  0.00000000E+00
  0.00000000E+00  0.00000000E+00  0.00000000E+00
  0.00000000E+00  0.00000000E+00  0.00000000E+00
  0.00000000E+00  0.00000000E+00  0.00000000E+00
  0.00000000E+00  0.00000000E+00  0.00000000E+00
  0.00000000E+00  0.00000000E+00  0.00000000E+00
  0.00000000E+00  0.00000000E+00  0.00000000E+00
  0.00000000E+00  0.00000000E+00  0.00000000E+00
  0.00000000E+00  0.00000000E+00  0.00000000E+00
  0.00000000E+00  0.00000000E+00  0.00000000E+00
  0.00000000E+00  0.00000000E+00  0.00000000E+00
  0.00000000E+00  0.00000000E+00  0.00000000E+00
  0.00000000E+00  0.00000000E+00  0.00000000E+00
  0.00000000E+00  0.00000000E+00  0.00000000E+00
  0.00000000E+00  0.00000000E+00  0.00000000E+00
  0.00000000E+00  0.00000000E+00  0.00000000E+00
  0.00000000E+00  0.00000000E+00  0.00000000E+00
  0.00000000E+00  0.00000000E+00  0.00000000E+00
  0.00000000E+00  0.00000000E+00  0.00000000E+00
  0.00000000E+00  0.00000000E+00  0.00000000E+00
  0.00000000E+00  0.00000000E+00  0.00000000E+00
  0.00000000E+00  0.00000000E+00  0.00000000E+00
  0.00000000E+00  0.00000000E+00  0.00000000E+00
  0.00000000E+00  0.00000000E+00  0.00000000E+00
  0.00000000E+00  0.00000000E+00  0.00000000E+00
  0.00000000E+00  0.00000000E+00  0.00000000E+00
  0.00000000E+00  0.00000000E+00  0.00000000E+00
  0.00000000E+00  0.00000000E+00  0.00000000E+00
  0.00000000E+00  0.00000000E+00  0.00000000E+00
  0.00000000E+00  0.00000000E+00  0.00000000E+00
  0.00000000E+00  0.00000000E+00  0.00000000E+00
  0.00000000E+00  0.00000000E+00  0.00000000E+00
  0.00000000E+00  0.00000000E+00  0.00000000E+00
  0.00000000E+00  0.00000000E+00  0.00000000E+00
  0.00000000E+00  0.00000000E+00  0.00000000E+00
  0.00000000E+00  0.00000000E+00  0.00000000E+00
  0.00000000E+00  0.00000000E+00  0.00000000E+00
  0.00000000E+00  0.00000000E+00  0.00000000E+00
  0.00000000E+00  0.00000000E+00  0.00000000E+00
  0.00000000E+00  0.00000000E+00  0.00000000E+00
  0.00000000E+00  0.00000000E+00  0.00000000E+00
  0.00000000E+00  0.00000000E+00  0.00000000E+00
  0.00000000E+00  0.00000000E+00  0.00000000E+00
  0.00000000E+00  0.00000000E+00  0.00000000E+00
  0.00000000E+00  0.00000000E+00  0.00000000E+00
  0.00000000E+00  0.00000000E+00  0.00000000E+00
  0.00000000E+00  0.00000000E+00  0.00000000E+00
  0.00000000E+00  0.00000000E+00  0.00000000E+00
  0.00000000E+00  0.00000000E+00  0.00000000E+00
  0.00000000E+00  0.00000000E+00  0.00000000E+00
  0.00000000E+00  0.00000000E+00  0.00000000E+00
  0.00000000E+00  0.00000000E+00  0.00000000E+00
  0.00000000E+00  0.00000000E+00  0.00000000E+00
  0.00000000E+00  0.00000000E+00  0.00000000E+00
  0.00000000E+00  0.00000000E+00  0.00000000E+00
  0.00000000E+00  0.00000000E+00  0.00000000E+00
  0.00000000E+00  0.00000000E+00  0.00000000E+00
  0.00000000E+00  0.00000000E+00  0.00000000E+00
  0.00000000E+00  0.00000000E+00  0.00000000E+00
  0.00000000E+00  0.00000000E+00  0.00000000E+00
  0.00000000E+00  0.00000000E+00  0.00000000E+00
  0.00000000E+00  0.00000000E+00  0.00000000E+00
  0.00000000E+00  0.00000000E+00  0.00000000E+00
  0.00000000E+00  0.00000000E+00  0.00000000E+00
  0.00000000E+00  0.00000000E+00  0.00000000E+00
  0.00000000E+00  0.00000000E+00  0.00000000E+00
  0.00000000E+00  0.00000000E+00  0.00000000E+00
  0.00000000E+00  0.00000000E+00  0.00000000E+00
  0.00000000E+00  0.00000000E+00  0.00000000E+00
  0.00000000E+00  0.00000000E+00  0.00000000E+00
  0.00000000E+00  0.00000000E+00  0.00000000E+00
  0.00000000E+00  0.00000000E+00  0.00000000E+00
  0.00000000E+00  0.00000000E+00  0.00000000E+00
  0.00000000E+00  0.00000000E+00  0.00000000E+00
  0.00000000E+00  0.00000000E+00  0.00000000E+00
  0.00000000E+00  0.00000000E+00  0.00000000E+00
  0.00000000E+00  0.00000000E+00  0.00000000E+00
  0.00000000E+00  0.00000000E+00  0.00000000E+00
  0.00000000E+00  0.00000000E+00  0.00000000E+00
  0.00000000E+00  0.00000000E+00  0.00000000E+00
  0.00000000E+00  0.00000000E+00  0.00000000E+00
  0.00000000E+00  0.00000000E+00  0.00000000E+00
  0.00000000E+00  0.00000000E+00  0.00000000E+00
  0.00000000E+00  0.00000000E+00  0.00000000E+00
  0.00000000E+00  0.00000000E+00  0.00000000E+00
  0.00000000E+00  0.00000000E+00  0.00000000E+00
  0.00000000E+00  0.00000000E+00  0.00000000E+00
  0.00000000E+00  0.00000000E+00  0.00000000E+00
  0.00000000E+00  0.00000000E+00  0.00000000E+00
  0.00000000E+00  0.00000000E+00  0.00000000E+00
  0.00000000E+00  0.00000000E+00  0.00000000E+00
  0.00000000E+00  0.00000000E+00  0.00000000E+00
  0.00000000E+00  0.00000000E+00  0.00000000E+00
