W36 S72                                 
1.0
  18.9192008972         0.0000000000         0.0000000000
  -9.4596004486        16.3845085963         0.0000000000
  -0.0000000000        -0.0000000000        24.6459999084
W S O C
36 70 2 1
Cartesian
     1.862304492         0.793730760        12.327683915
     0.331820509         3.529161539        12.334234973
    -1.271889790         6.222315203        12.327683845
    -2.881937630         8.944623682        12.340063560
    -4.471104441        11.679197260        12.349914175
    -6.044731415        14.422742833        12.340063588
     4.993708569         0.796114989        12.262570771
     3.512876727         3.567163157        12.152556010
     1.955259167         6.265036460        12.152555907
     0.295877121         8.932998587        12.262570624
    -1.308108335        11.675934287        12.331358165
    -2.892432437        14.420063558        12.331358209
     8.135284833         0.774273409        12.323831434
     6.491877829         3.524805255        12.188138446
     4.921077340         6.178770306        12.068724019
     3.408076663         8.866106123        12.188138368
     1.847749867        11.664604151        12.323831166
     0.261743130        14.411708123        12.355985123
    11.297649377         0.762096685        12.379529022
     9.693311479         3.489646133        12.341480223
     8.064726218         6.189499340        12.275730160
     6.502193424         8.895885565        12.275730108
     4.978345050        11.656208613        12.341480142
     3.418386582        14.409380401        12.379528999
    14.462337026         0.764413379        12.404392640
    12.874008555         3.492640613        12.392361264
    11.272200882         6.211543548        12.363923944
     9.685398065         8.929452216        12.347132382
     8.125021664        11.662618219        12.363924188
     6.571286579        14.409275592        12.392361495
    17.628022737         0.777064211        12.391571261
    16.056135808         3.499652393        12.391571139
    14.459349575         6.219996633        12.376764539
    12.862958108         8.942963263        12.365445296
    11.285878967        11.674544258        12.365445404
     9.725916448        14.418543090        12.376764867
     0.328201584         1.721720518        13.934800881
    -1.235278868         4.429748262        13.934800786
    -2.843574299         7.133171007        13.928047067
    -4.458606975         9.856051172        13.930939779
    -6.043746394        12.601593445        13.930939808
    -7.594313362        15.361692933        13.928047168
     3.486752173         1.810866829        13.822164912
     2.091431325         4.545073444        13.801058991
     0.421199640         7.120560181        13.822164891
    -1.265122201         9.834884383        13.887895855
    -2.883672956        12.595701139        13.916439969
    -4.465335398        15.377815653        13.887895903
     6.509525721         1.763660663        13.837212503
     1.891704686         9.761961922        13.837212387
     0.270862519        12.566084157        13.918590259
    -1.332054914        15.342417227        13.918590419
     9.686991918         1.679618896        13.932590303
     8.000582408         4.395918886        13.851181312
     6.333974690         6.994506964        13.792870426
     4.916835531         9.737125792        13.851181224
     3.407655382        12.555748992        13.932590181
     1.827712473        15.315820933        13.954925986
    12.867955490         1.673003901        13.975838988
    11.254929187         4.399547850        13.948391066
     9.627944246         7.093941945        13.904585484
     8.067072700         9.797450757        13.904585589
     6.547151196        12.553658058        13.948391406
     4.992408216        15.313851826        13.975839067
    16.054969652         1.683920471        13.980009600
    14.465674329         4.409826198        13.968796466
    12.857575375         7.124831604        13.948069106
    11.265944747         9.841981057        13.937434434
     9.708639515        12.578948438        13.948069485
     8.161425406        15.329105968        13.968796767
     0.259418706         1.687543080        10.781856227
    -1.299268644         4.387269220        10.781856261
    -2.893439747         7.115909549        10.772497392
    -4.482216018         9.851441284        10.775446145
    -6.059543666        12.583452168        10.775446219
    -7.634195704        15.327138604        10.772497465
     3.400956140         1.673166362        10.669442378
     1.842199373         4.401179233        10.638210546
     0.259049621         7.115108807        10.669442299
    -1.329824535         9.864667231        10.734872400
    -2.897885993        12.587495268        10.760399202
    -4.471893959        15.306890281        10.734872500
     6.596828027         1.669458639        10.676894161
     5.024271665         4.401526083        10.500259661
     3.433536205         7.156761460        10.500259552
     1.853774819         9.884668921        10.676893971
     0.267150430        12.602036717        10.759139480
    -1.302774851        15.321226453        10.759139607
     9.742891976         1.667021980        10.771898618
     8.153594752         4.376540479        10.691262219
     6.549623105         7.119011613        10.618083797
     4.976559533         9.879327636        10.691262174
     3.424696782        12.610458678        10.771898381
     1.852271597        15.330000113        10.794800719
    12.891014102         1.671508277        10.815796730
    11.306196602         4.391053613        10.790344590
     9.711099410         7.117181466        10.759080676
     8.128776388         9.857845851        10.759080763
     6.565429448        12.602304541        10.790344617
     5.002642636        15.334569143        10.815796810
    16.038817281         1.674594767        10.820718052
    14.462417496         4.391381306        10.812229830
    12.869437969         7.117264432        10.794123522
    11.282457570         9.851514894        10.784603029
     9.708004989        12.593013506        10.794125425
     8.143823261        15.335507864        10.812230039
     3.433000000         7.157000000        13.830000000
     4.593000000         5.161000000        13.830000000
     4.013000000         6.159000000        13.830000000
     
     
