Mo48 H4 C1 S99 O1                       
   1.00000000000000     
    33.0000000000000000    0.0000000000000000    0.0000000000000000
     0.0000000000000000   25.5199999999999996    0.0000000000000000
     0.0000000000000000    0.0000000000000000   17.4728999999999992
   Mo   S    O    C    H 
    48    99     1     1     4
Direct
  0.2849609373760982  0.1039780316819821  0.4941507218529825
  0.3689961246539386  0.0344639211008848  0.4961312208257824
  0.2850064961731200  0.2143730637471941  0.4939023527169708
  0.3690866605421398  0.1596599659390998  0.4957932793175543
  0.4515749457705603  0.0970612872097361  0.4976672321146366
  0.5344008927766993  0.0345994961051204  0.4995912510956363
  0.2851696183306260  0.3530841464777792  0.4935434293024381
  0.3689746687588979  0.2848399876020596  0.4957482559644039
  0.4515682092967514  0.2222569314271565  0.4974900597914658
  0.5343112007326735  0.1594678132715360  0.4994817146088732
  0.6162997232475561  0.0970397700667059  0.5021947159229345
  0.2855008187612953  0.4631844822326284  0.4942448408562300
  0.3686893807331075  0.4099389111974462  0.4959745299703050
  0.4516065059255783  0.3473975484630914  0.4976180883400281
  0.5344281070352770  0.2848548963863222  0.4994590775911216
  0.2855137938669291  0.6057063965249100  0.4945338301503757
  0.3685328035916210  0.5344461471853408  0.4964083644599094
  0.4516026415175842  0.4721537974968985  0.4979650775102679
  0.5344168871763432  0.4095158944489667  0.4995374880697583
  0.2851733514576568  0.7158079531949774  0.4941544383897998
  0.3686933891413897  0.6589346464137864  0.4966369668791630
  0.4515880303875571  0.5967222189791516  0.4983619287827575
  0.5345854482358486  0.5345769908840325  0.4997302550335833
  0.4516134036297951  0.7214996274070855  0.4985706262241416
  0.5343924276513350  0.6590601540994694  0.4998339469861287
  0.6177255761858244  0.2221081463416705  0.5022313559855033
  0.6996453073999199  0.0361136326703101  0.5014393715605692
  0.6164052275065167  0.3470963443107077  0.5021783012023816
  0.6994481750839296  0.1580848159429612  0.5099556347829189
  0.6179153417393264  0.4719766556180519  0.5011417700634794
  0.6995487211852635  0.2860481905243988  0.5098033376796061
  0.6164749018598716  0.5969090582323227  0.5000630139820719
  0.6998306849089660  0.4080299325248171  0.5015632271918874
  0.6177922880286020  0.7217577778209341  0.5000593324826894
  0.6998304642970459  0.5358916547077782  0.5032444201900103
  0.6997119254420908  0.6578723230302410  0.4953540760904509
  0.2850038376702860  0.8545174820500326  0.4945105112708701
  0.3689751125190020  0.7840793293955010  0.4966829506475335
  0.2849586344337113  0.9649109715296688  0.4944551761987869
  0.3690857546468133  0.9092290943760533  0.4964688274340218
  0.4515544192021734  0.8466513118948570  0.4984499540159585
  0.5344256734649198  0.7843538048195720  0.4998596750130129
  0.4515770261603681  0.9718509923535061  0.4980774325974044
  0.5343192671784941  0.9091509455030299  0.4998025736835940
  0.6163215080721265  0.8468203572117391  0.5001071113562215
  0.6177476712517479  0.9718851867219511  0.5011877283787792
  0.6995669636990320  0.7858047502082822  0.4952311292944187
  0.6996407848856302  0.9077673061659366  0.5035402924943919
  0.3118902066727921  0.0343619082424508  0.4092898320589089
  0.3108529124751907  0.0345348501976892  0.5804888078269048
  0.3150526731827118  0.1592791350088296  0.4007903801168952
  0.3139506976038358  0.1594817338104032  0.5884659255627830
  0.3967603660684014  0.0967173861824612  0.4072306530641265
  0.3956966378835505  0.0969215775274605  0.5858106310869929
  0.4795867658088313  0.0343406877314059  0.4091363742912736
  0.4785081565633527  0.0345259467105758  0.5877101022011960
  0.3121032385392661  0.2843349819986902  0.4084306875505440
  0.3109458039939099  0.2844375295479440  0.5802854142242073
  0.3967451848123285  0.2224734044402630  0.4070357363754129
  0.3956697571838043  0.2225030306377345  0.5856153400277084
  0.4795384590622043  0.1596188063249861  0.4087734602574061
  0.4783536638553556  0.1596964894429723  0.5875700419414194
  0.5622932250643558  0.0971407490954621  0.4105123068976974
  0.5607403032986209  0.0969476675329649  0.5901980696755149
  0.3152820982121751  0.4092263896289515  0.4003668088991119
  0.3138453386393726  0.4088792707599680  0.5889880688632552
  0.3967868685334643  0.3472545324585035  0.4071715204272943
  0.3956955962448001  0.3471215846691644  0.5857189868871511
  0.4796680917351334  0.2847587414739231  0.4088437807205938
  0.4784838566464741  0.2847021540784382  0.5874493813425145
  0.5629814000772908  0.2221031514397349  0.4111962425823881
  0.5611434173793264  0.2221268741377203  0.5893393057329084
  0.6453180138875871  0.0344859124315404  0.4129125739199418
  0.6454974450413861  0.0341994058640472  0.5911625893297735
  0.6475545265026115  0.1595543418994644  0.4152281405294521
  0.6431090999641355  0.1598473257239406  0.5933655831009880
  0.3099161812756911  0.5345117580876301  0.4092948895548143
  0.3094191059978366  0.5343621555096013  0.5808920311326614
  0.3966833715696617  0.4728370495079038  0.4076358744258652
  0.3956129338031579  0.4725970385500929  0.5859378249077963
  0.4796173136363001  0.4098173332101759  0.4088514329617038
  0.4785231301137481  0.4096551032455967  0.5878559729259178
  0.5624190965063445  0.3470484046067012  0.4104376781067590
  0.5608554225346860  0.3472577324317657  0.5902178429844060
  0.3153470131031843  0.6597989122017648  0.4009078379268394
  0.3138027843576340  0.6598865686396092  0.5895332964401138
  0.3967038259508804  0.5962446784527723  0.4079794401329216
  0.3956116734434586  0.5960759792905101  0.5863333671912198
  0.4797448354608205  0.5345107609084674  0.4093123581950052
  0.4788213771221320  0.5343220239015278  0.5881372807907541
  0.5627487333314517  0.4720193909840837  0.4109955723964795
  0.5618457985396745  0.4719494201192047  0.5893050007827709
  0.3968028749985767  0.7217303327390903  0.4080904445969941
  0.3956660603939282  0.7217017537438443  0.5865897308851231
  0.4794602348438091  0.6592447279570522  0.4094798091789099
  0.4786457279022154  0.6591353062008842  0.5884883877778982
  0.5618761041062813  0.5967915856512483  0.4099957004305146
  0.5616090907191585  0.5969689581328551  0.5899194175690538
  0.5621198930967205  0.7217383540559305  0.4109629307330255
  0.5621441187569053  0.7217247572914259  0.5891649986292944
  0.6476045642260086  0.2845700092472934  0.4151727531685695
  0.6432381274116784  0.2843003361001440  0.5933424680287618
  0.7272770064957654  0.0969183565985785  0.4189533170463756
  0.7249991850527510  0.0972341005795666  0.5948980798795737
  0.6455617905050774  0.4094643042071335  0.4128468977795809
  0.6456660504047884  0.4097950282449953  0.5912263277430243
  0.7486326816931942  0.2219955796621550  0.5070055014515629
  0.6464667168723168  0.5341531137433347  0.4119860503917612
  0.6447735679817821  0.5344739662550444  0.5903168001031344
  0.7274806866696696  0.3471382103038142  0.4190344179929122
  0.7251738585466310  0.3468958255628464  0.5948674993300110
  0.6442536092069283  0.6596404028883049  0.4098035202354620
  0.6468490230444000  0.6593665903400043  0.5881575512304951
  0.7490656724321182  0.4719612786642939  0.5027523879026232
  0.7260926112391584  0.5970282549199728  0.4109892761456863
  0.7267028244491400  0.5967392177853792  0.5869203557364046
  0.7487660430062426  0.7219329802934767  0.4996269614999334
  0.2282924005084547  0.1605071910451788  0.4927890983692358
  0.2351136092789453  0.2865521255298759  0.4927123895732188
  0.2284951551012283  0.6557837122805156  0.4894385290138141
  0.2350220980989838  0.0344353865306034  0.4932811763031879
  0.3121796909043629  0.7845769970982061  0.4091869992288443
  0.3108721774160624  0.7844630222128237  0.5810364994983153
  0.3151075990619580  0.9094864488688544  0.4013467450583865
  0.3138920015147479  0.9095306527911382  0.5890244310278797
  0.3967781783150878  0.8463585591852131  0.4079069161286233
  0.3956543180924291  0.8464824027520000  0.5865407632923499
  0.4794756210691283  0.7841169657818843  0.4097209773368215
  0.4786717337950436  0.7841586109415287  0.5883215582171523
  0.3967537128922548  0.9719924870315493  0.4076309517050610
  0.3956707780150234  0.9721977568516790  0.5861659520430481
  0.4793962088791111  0.9092125329744412  0.4094287722918235
  0.4784890468477231  0.9093792059326906  0.5882116304905954
  0.5616828791824233  0.8469193064226229  0.4101200007410567
  0.5614119116421771  0.8466998432924118  0.5898927991845638
  0.5625163216273934  0.9718326852002923  0.4111532763594001
  0.5616222292643582  0.9719030153238745  0.5892679758651487
  0.6440546179492360  0.7840551930669624  0.4098558023156177
  0.6467428949818129  0.7843119518642752  0.5881050772110675
  0.6463211524612537  0.9096344665597577  0.4121137263380338
  0.6445212223250789  0.9093386750951915  0.5903770897182350
  0.7259153986281102  0.8466664378766818  0.4110879189717316
  0.7264886663427177  0.8469578935570236  0.5870655655299729
  0.7486609474989111  0.9719368087294795  0.5032930889717548
  0.2282830408177669  0.9083627269521545  0.4931776225013902
  0.2351234281824725  0.7823323200540370  0.4930744732081513
  0.2284968240460342  0.4130710278088146  0.4888562292729878
  0.2327329087682853  0.5343474148250825  0.4963532716413585
  0.2015278049515070  0.5342864815690859  0.5567557234503820
  0.1832150888742246  0.5699060764200067  0.5514727083636212
  0.2180851974821574  0.5342384829390577  0.6109909450696915
  0.2190001206801629  0.5342818178206669  0.4466725245906831
  0.1832320441344724  0.4986581311118750  0.5513447800249027
 
  0.00000000E+00  0.00000000E+00  0.00000000E+00
  0.00000000E+00  0.00000000E+00  0.00000000E+00
  0.00000000E+00  0.00000000E+00  0.00000000E+00
  0.00000000E+00  0.00000000E+00  0.00000000E+00
  0.00000000E+00  0.00000000E+00  0.00000000E+00
  0.00000000E+00  0.00000000E+00  0.00000000E+00
  0.00000000E+00  0.00000000E+00  0.00000000E+00
  0.00000000E+00  0.00000000E+00  0.00000000E+00
  0.00000000E+00  0.00000000E+00  0.00000000E+00
  0.00000000E+00  0.00000000E+00  0.00000000E+00
  0.00000000E+00  0.00000000E+00  0.00000000E+00
  0.00000000E+00  0.00000000E+00  0.00000000E+00
  0.00000000E+00  0.00000000E+00  0.00000000E+00
  0.00000000E+00  0.00000000E+00  0.00000000E+00
  0.00000000E+00  0.00000000E+00  0.00000000E+00
  0.00000000E+00  0.00000000E+00  0.00000000E+00
  0.00000000E+00  0.00000000E+00  0.00000000E+00
  0.00000000E+00  0.00000000E+00  0.00000000E+00
  0.00000000E+00  0.00000000E+00  0.00000000E+00
  0.00000000E+00  0.00000000E+00  0.00000000E+00
  0.00000000E+00  0.00000000E+00  0.00000000E+00
  0.00000000E+00  0.00000000E+00  0.00000000E+00
  0.00000000E+00  0.00000000E+00  0.00000000E+00
  0.00000000E+00  0.00000000E+00  0.00000000E+00
  0.00000000E+00  0.00000000E+00  0.00000000E+00
  0.00000000E+00  0.00000000E+00  0.00000000E+00
  0.00000000E+00  0.00000000E+00  0.00000000E+00
  0.00000000E+00  0.00000000E+00  0.00000000E+00
  0.00000000E+00  0.00000000E+00  0.00000000E+00
  0.00000000E+00  0.00000000E+00  0.00000000E+00
  0.00000000E+00  0.00000000E+00  0.00000000E+00
  0.00000000E+00  0.00000000E+00  0.00000000E+00
  0.00000000E+00  0.00000000E+00  0.00000000E+00
  0.00000000E+00  0.00000000E+00  0.00000000E+00
  0.00000000E+00  0.00000000E+00  0.00000000E+00
  0.00000000E+00  0.00000000E+00  0.00000000E+00
  0.00000000E+00  0.00000000E+00  0.00000000E+00
  0.00000000E+00  0.00000000E+00  0.00000000E+00
  0.00000000E+00  0.00000000E+00  0.00000000E+00
  0.00000000E+00  0.00000000E+00  0.00000000E+00
  0.00000000E+00  0.00000000E+00  0.00000000E+00
  0.00000000E+00  0.00000000E+00  0.00000000E+00
  0.00000000E+00  0.00000000E+00  0.00000000E+00
  0.00000000E+00  0.00000000E+00  0.00000000E+00
  0.00000000E+00  0.00000000E+00  0.00000000E+00
  0.00000000E+00  0.00000000E+00  0.00000000E+00
  0.00000000E+00  0.00000000E+00  0.00000000E+00
  0.00000000E+00  0.00000000E+00  0.00000000E+00
  0.00000000E+00  0.00000000E+00  0.00000000E+00
  0.00000000E+00  0.00000000E+00  0.00000000E+00
  0.00000000E+00  0.00000000E+00  0.00000000E+00
  0.00000000E+00  0.00000000E+00  0.00000000E+00
  0.00000000E+00  0.00000000E+00  0.00000000E+00
  0.00000000E+00  0.00000000E+00  0.00000000E+00
  0.00000000E+00  0.00000000E+00  0.00000000E+00
  0.00000000E+00  0.00000000E+00  0.00000000E+00
  0.00000000E+00  0.00000000E+00  0.00000000E+00
  0.00000000E+00  0.00000000E+00  0.00000000E+00
  0.00000000E+00  0.00000000E+00  0.00000000E+00
  0.00000000E+00  0.00000000E+00  0.00000000E+00
  0.00000000E+00  0.00000000E+00  0.00000000E+00
  0.00000000E+00  0.00000000E+00  0.00000000E+00
  0.00000000E+00  0.00000000E+00  0.00000000E+00
  0.00000000E+00  0.00000000E+00  0.00000000E+00
  0.00000000E+00  0.00000000E+00  0.00000000E+00
  0.00000000E+00  0.00000000E+00  0.00000000E+00
  0.00000000E+00  0.00000000E+00  0.00000000E+00
  0.00000000E+00  0.00000000E+00  0.00000000E+00
  0.00000000E+00  0.00000000E+00  0.00000000E+00
  0.00000000E+00  0.00000000E+00  0.00000000E+00
  0.00000000E+00  0.00000000E+00  0.00000000E+00
  0.00000000E+00  0.00000000E+00  0.00000000E+00
  0.00000000E+00  0.00000000E+00  0.00000000E+00
  0.00000000E+00  0.00000000E+00  0.00000000E+00
  0.00000000E+00  0.00000000E+00  0.00000000E+00
  0.00000000E+00  0.00000000E+00  0.00000000E+00
  0.00000000E+00  0.00000000E+00  0.00000000E+00
  0.00000000E+00  0.00000000E+00  0.00000000E+00
  0.00000000E+00  0.00000000E+00  0.00000000E+00
  0.00000000E+00  0.00000000E+00  0.00000000E+00
  0.00000000E+00  0.00000000E+00  0.00000000E+00
  0.00000000E+00  0.00000000E+00  0.00000000E+00
  0.00000000E+00  0.00000000E+00  0.00000000E+00
  0.00000000E+00  0.00000000E+00  0.00000000E+00
  0.00000000E+00  0.00000000E+00  0.00000000E+00
  0.00000000E+00  0.00000000E+00  0.00000000E+00
  0.00000000E+00  0.00000000E+00  0.00000000E+00
  0.00000000E+00  0.00000000E+00  0.00000000E+00
  0.00000000E+00  0.00000000E+00  0.00000000E+00
  0.00000000E+00  0.00000000E+00  0.00000000E+00
  0.00000000E+00  0.00000000E+00  0.00000000E+00
  0.00000000E+00  0.00000000E+00  0.00000000E+00
  0.00000000E+00  0.00000000E+00  0.00000000E+00
  0.00000000E+00  0.00000000E+00  0.00000000E+00
  0.00000000E+00  0.00000000E+00  0.00000000E+00
  0.00000000E+00  0.00000000E+00  0.00000000E+00
  0.00000000E+00  0.00000000E+00  0.00000000E+00
  0.00000000E+00  0.00000000E+00  0.00000000E+00
  0.00000000E+00  0.00000000E+00  0.00000000E+00
  0.00000000E+00  0.00000000E+00  0.00000000E+00
  0.00000000E+00  0.00000000E+00  0.00000000E+00
  0.00000000E+00  0.00000000E+00  0.00000000E+00
  0.00000000E+00  0.00000000E+00  0.00000000E+00
  0.00000000E+00  0.00000000E+00  0.00000000E+00
  0.00000000E+00  0.00000000E+00  0.00000000E+00
  0.00000000E+00  0.00000000E+00  0.00000000E+00
  0.00000000E+00  0.00000000E+00  0.00000000E+00
  0.00000000E+00  0.00000000E+00  0.00000000E+00
  0.00000000E+00  0.00000000E+00  0.00000000E+00
  0.00000000E+00  0.00000000E+00  0.00000000E+00
  0.00000000E+00  0.00000000E+00  0.00000000E+00
  0.00000000E+00  0.00000000E+00  0.00000000E+00
  0.00000000E+00  0.00000000E+00  0.00000000E+00
  0.00000000E+00  0.00000000E+00  0.00000000E+00
  0.00000000E+00  0.00000000E+00  0.00000000E+00
  0.00000000E+00  0.00000000E+00  0.00000000E+00
  0.00000000E+00  0.00000000E+00  0.00000000E+00
  0.00000000E+00  0.00000000E+00  0.00000000E+00
  0.00000000E+00  0.00000000E+00  0.00000000E+00
  0.00000000E+00  0.00000000E+00  0.00000000E+00
  0.00000000E+00  0.00000000E+00  0.00000000E+00
  0.00000000E+00  0.00000000E+00  0.00000000E+00
  0.00000000E+00  0.00000000E+00  0.00000000E+00
  0.00000000E+00  0.00000000E+00  0.00000000E+00
  0.00000000E+00  0.00000000E+00  0.00000000E+00
  0.00000000E+00  0.00000000E+00  0.00000000E+00
  0.00000000E+00  0.00000000E+00  0.00000000E+00
  0.00000000E+00  0.00000000E+00  0.00000000E+00
  0.00000000E+00  0.00000000E+00  0.00000000E+00
  0.00000000E+00  0.00000000E+00  0.00000000E+00
  0.00000000E+00  0.00000000E+00  0.00000000E+00
  0.00000000E+00  0.00000000E+00  0.00000000E+00
  0.00000000E+00  0.00000000E+00  0.00000000E+00
  0.00000000E+00  0.00000000E+00  0.00000000E+00
  0.00000000E+00  0.00000000E+00  0.00000000E+00
  0.00000000E+00  0.00000000E+00  0.00000000E+00
  0.00000000E+00  0.00000000E+00  0.00000000E+00
  0.00000000E+00  0.00000000E+00  0.00000000E+00
  0.00000000E+00  0.00000000E+00  0.00000000E+00
  0.00000000E+00  0.00000000E+00  0.00000000E+00
  0.00000000E+00  0.00000000E+00  0.00000000E+00
  0.00000000E+00  0.00000000E+00  0.00000000E+00
  0.00000000E+00  0.00000000E+00  0.00000000E+00
  0.00000000E+00  0.00000000E+00  0.00000000E+00
  0.00000000E+00  0.00000000E+00  0.00000000E+00
  0.00000000E+00  0.00000000E+00  0.00000000E+00
  0.00000000E+00  0.00000000E+00  0.00000000E+00
  0.00000000E+00  0.00000000E+00  0.00000000E+00
  0.00000000E+00  0.00000000E+00  0.00000000E+00
  0.00000000E+00  0.00000000E+00  0.00000000E+00
  0.00000000E+00  0.00000000E+00  0.00000000E+00
  0.00000000E+00  0.00000000E+00  0.00000000E+00
  0.00000000E+00  0.00000000E+00  0.00000000E+00
