Mo48 H4 C1 S99 O1
1.0
  33.0000000000000000    0.0000000000000000    0.0000000000000000
   0.0000000000000000   25.5199999999999996    0.0000000000000000
   0.0000000000000000    0.0000000000000000   17.4728999999999992
Mo S O C H
48 99 1 1 4
direct
   0.2850417867390860    0.1054341930246352    0.4983710532872223 Mo
   0.3693180742017930    0.0348511278293344    0.4988929469362731 Mo
   0.2867843141097097    0.2200350380714369    0.4982200854392929 Mo
   0.3701752194271535    0.1598954377195483    0.4985505465357676 Mo
   0.4522902024548472    0.0968901790251024    0.4990698025094957 Mo
   0.5350251599050324    0.0342282377795655    0.4998430485568619 Mo
   0.2885812005695598    0.3389389150370405    0.4982747267460681 Mo
   0.3711388461948602    0.2837139228846866    0.4984915496856530 Mo
   0.4533665868153136    0.2215909514965517    0.4988242407498831 Mo
   0.5355084893771007    0.1588086539970845    0.4995735678365776 Mo
   0.6172286951918124    0.0964066790569618    0.5012058514141771 Mo
   0.2844747754638988    0.4677782908869546    0.4986290785178724 Mo
   0.3689548046714322    0.4088628246938413    0.4988014122581035 Mo
   0.4525049167825514    0.3466595198620155    0.4989758889452602 Mo
   0.5355638282319291    0.2843901302240397    0.4995133431579433 Mo
   0.2878338187752760    0.6047971564297399    0.4990445762680054 Mo
   0.3683352517099223    0.5326141320323075    0.4992616606222882 Mo
   0.4515505819790988    0.4712659776670236    0.4994478010643846 Mo
   0.5351227935270799    0.4090162918064095    0.4997107466239683 Mo
   0.2854169625708494    0.7146065180423946    0.4991630707771222 Mo
   0.3693968380068497    0.6586774140411080    0.4996442130791152 Mo
   0.4516667122600566    0.5959678261802992    0.4999811673308656 Mo
   0.5347131762356412    0.5339486565439699    0.5001080245165568 Mo
   0.4518844033433425    0.7213171253076709    0.5002330417359744 Mo
   0.5344146930828728    0.6586135460033731    0.5003838943472445 Mo
   0.6188240537539045    0.2215551244388578    0.5010500161950660 Mo
   0.7003980097441129    0.0351802242811914    0.4995376303705612 Mo
   0.6173178279015659    0.3467203674847710    0.5010798212222909 Mo
   0.7004778906926532    0.1573341065758314    0.5078284227571217 Mo
   0.6183773065402605    0.4716514682375035    0.5003318114929911 Mo
   0.7005333763545067    0.2856732329123730    0.5076807403791364 Mo
   0.6165572318615276    0.5965260106961452    0.4996353860457390 Mo
   0.7005229343113299    0.4078471787469624    0.4993083287181079 Mo
   0.6177895797088624    0.7214004890113799    0.4997522472191349 Mo
   0.7001227999744302    0.5359118557911273    0.5017846235039372 Mo
   0.6996371143682296    0.6578396917340754    0.4942141274866998 Mo
   0.2849978763439012    0.8542435824347621    0.4990288069874538 Mo
   0.3691531635840377    0.7839025224623768    0.4996972794733878 Mo
   0.2850722136172550    0.9650053716734206    0.4987452817139371 Mo
   0.3691614682274604    0.9094349358194549    0.4993841221698716 Mo
   0.4516824392154817    0.8466026217828855    0.5000888299611574 Mo
   0.5345415113644520    0.7841408330205368    0.5004437814381077 Mo
   0.4518443581633278    0.9718271885364658    0.4995916830993892 Mo
   0.5345712816176587    0.9089348336812861    0.5002426521200647 Mo
   0.6164960888748965    0.8464232107539544    0.4997248364383324 Mo
   0.6182273397016615    0.9713758543752888    0.5004946199495990 Mo
   0.6995773580666764    0.7851325447326616    0.4941895118782327 Mo
   0.7000017614366740    0.9070688780731047    0.5019687298722246 Mo
   0.3116073982276717    0.0352336556031858    0.4133453822501636 S
   0.3114090651325370    0.0354546184693234    0.5839459457302567 S
   0.3149390057229340    0.1606126166191615    0.4059173450584268 S
   0.3147720837537804    0.1607296664205577    0.5908243071753105 S
   0.3969489072216348    0.0967694381894617    0.4093694644610295 S
   0.3967228995172007    0.0969885287004146    0.5882652754153668 S
   0.4797576232356775    0.0340497786696403    0.4101991969918970 S
   0.4794234675137261    0.0343275176736171    0.5887541686887019 S
   0.3159781070143381    0.2811188839472791    0.4067388288328644 S
   0.3158058483726975    0.2810702169480308    0.5898595041350490 S
   0.3985742253619122    0.2216081167779009    0.4091158681512184 S
   0.3983616461217849    0.2216494286884227    0.5880582708963118 S
   0.4805200230999986    0.1588724250519249    0.4095537369371982 S
   0.4801117383754629    0.1590082510196211    0.5886622360688136 S
   0.5629191085332863    0.0964256878952980    0.4102059194774341 S
   0.5620764265572973    0.0963465710172002    0.5900658255269846 S
   0.3111807748801283    0.4059846168555907    0.4091701303406339 S
   0.3109655148338319    0.4057527583207374    0.5879208405140446 S
   0.3973802525309793    0.3471613857923970    0.4092142780306816 S
   0.3971593623956764    0.3469721043501863    0.5882535162384741 S
   0.4805740094146103    0.2843771110668882    0.4095695917024145 S
   0.4801780942853284    0.2842964422627148    0.5885379884747834 S
   0.5637615985180062    0.2215543605607451    0.4108327537303964 S
   0.5626740161264436    0.2215951149477675    0.5889737212042832 S
   0.6457553159806508    0.0337060193892356    0.4117088574812726 S
   0.6465650543395469    0.0335989764047824    0.5899767537136356 S
   0.6482727873834051    0.1588748336256458    0.4137347179921846 S
   0.6444973663176796    0.1592617268300671    0.5919013825293504 S
   0.3096995838932841    0.5348529018681347    0.4120701906029041 S
   0.3094496577540937    0.5346175301011726    0.5858584219795020 S
   0.3960769815020200    0.4712317047117836    0.4094633593476971 S
   0.3958282453288646    0.4709512279008692    0.5888698809300053 S
   0.4798665406273841    0.4093410641576583    0.4099834540688221 S
   0.4795346059925762    0.4090964509631974    0.5887070045910789 S
   0.5629938984344349    0.3467209763580854    0.4101104852077242 S
   0.5621654218648047    0.3468477080887951    0.5899502195610111 S
   0.3158120204071011    0.6600440425296270    0.4047927023301057 S
   0.3154832544930883    0.6599274906130361    0.5938359150420638 S
   0.3963342102448948    0.5950278729581981    0.4106899292186554 S
   0.3960357365824621    0.5947970889167493    0.5885887062453747 S
   0.4793720304495110    0.5337490075010294    0.4105523927735675 S
   0.4791718652353723    0.5334681491088347    0.5891975046450781 S
   0.5628363638101490    0.4716826250069772    0.4108829723693006 S
   0.5625891847468765    0.4714794625589533    0.5892189915484565 S
   0.3967888483378488    0.7216052826565260    0.4106399821849323 S
   0.3964854781843741    0.7215702801658850    0.5891266406780389 S
   0.4791241433913527    0.6587194842285555    0.4108084988772518 S
   0.4789892392415993    0.6585810074870082    0.5896942347034511 S
   0.5616065135180150    0.5963472185723262    0.4102237886741449 S
   0.5619087530675344    0.5964064103413378    0.5900245776090429 S
   0.5618303671227665    0.7213776807022185    0.4112701460824866 S
   0.5623870758851268    0.7213443384057499    0.5894060839154278 S
   0.6482919453446101    0.2841641028250450    0.4136533467981920 S
   0.6445665729030168    0.2838642578536721    0.5918037937743108 S
   0.7278408886525369    0.0959370428895667    0.4166773223752855 S
   0.7261821477473376    0.0963698098229173    0.5924921528204834 S
   0.6458857417961781    0.4093328805341017    0.4114870087996252 S
   0.6467389662551426    0.4094731639684781    0.5898304055819992 S
   0.7495422345693470    0.2214620497432662    0.5057434169797688 S
   0.6464584200954633    0.5340401903997147    0.4110623655878740 S
   0.6453094274202726    0.5341287023608672    0.5893818628221155 S
   0.7279328353601642    0.3470118588244375    0.4164977762120969 S
   0.7263102985713346    0.3466480077368388    0.5922537287125706 S
   0.6439549825483155    0.6593452935990669    0.4091721865886555 S
   0.6470286557979676    0.6590000191208816    0.5875725539448808 S
   0.7494605481963177    0.4720667200292397    0.5003839171230808 S
   0.7258756972186404    0.5971454642370304    0.4093554991237554 S
   0.7270580011436820    0.5967030809979832    0.5853764120439280 S
   0.7489980706716324    0.7215245439940290    0.4966742765494558 S
   0.2297382004366497    0.1649461226443165    0.4982709400335708 S
   0.2307285827392533    0.2940088747091494    0.4980636290243794 S
   0.2295612420296749    0.6514103705224841    0.4988005212748234 S
   0.2353918601357634    0.0368343855849034    0.4983354706011340 S
   0.3116541405475104    0.7840806519839987    0.4138021912291947 S
   0.3113328489360256    0.7841506874395137    0.5848210981211182 S
   0.3146871632605794    0.9094723255703911    0.4053668316262744 S
   0.3143814980490518    0.9097000547813536    0.5927813796268850 S
   0.3964161041953176    0.8463344279270686    0.4105062187851374 S
   0.3961078636549118    0.8465292913153846    0.5889738221849541 S
   0.4792866517839300    0.7839810477942351    0.4110002386111020 S
   0.4791493888058653    0.7840501423247375    0.5896141030143696 S
   0.3965204126443922    0.9721204345264809    0.4100414275402144 S
   0.3962509965619603    0.9724239103429966    0.5885260717300298 S
   0.4792405287611317    0.9090544318046412    0.4106297591168158 S
   0.4790363973710754    0.9093147179423866    0.5893801432358501 S
   0.5615550690942968    0.8465937331840223    0.4103362938544421 S
   0.5618658099805529    0.8464850833303288    0.5901058347837278 S
   0.5626566718369403    0.9713698820931640    0.4111071417868075 S
   0.5623933816502102    0.9715721302339091    0.5892834092729089 S
   0.6438744384654811    0.7835914580027108    0.4092316710602901 S
   0.6469848436410928    0.7838805071738690    0.5875641532621572 S
   0.6463367524939159    0.9089887030910830    0.4112224163839997 S
   0.6451642320776330    0.9088657510412261    0.5895013628478907 S
   0.7257706690688366    0.8458836149581543    0.4094297707895365 S
   0.7269439155900130    0.8462767869977128    0.5854703281277835 S
   0.7493105818439574    0.9709311329532113    0.5006885976100790 S
   0.2283607351851842    0.9096896657310793    0.4985483435219038 S
   0.2353318274224563    0.7821288936919402    0.4987444480692460 S
   0.2203258811371427    0.4724777216490281    0.4983862127918997 S
   0.2278466348578382    0.5408614255485894    0.4995819260703680 O
   0.1866435727366261    0.5223205826802508    0.5080840779741733 C
   0.1662245427366261    0.5559462021943574    0.5007522515458185 H
   0.1827030100093534    0.5052177880094044    0.5652822751824215 H
   0.2310182445548079    0.5828823989028213    0.5010386001198961 H
   0.1806763024335958    0.4928009090909091    0.4638594100598603 H
