W48 Se99
1.0
  33.0000000000000000    0.0000000000000000    0.0000000000000000
   0.0000000000000000   26.2560005200000006    0.0000000000000000
   0.0000000000000000    0.0000000000000000   18.1299999999999990
W Se
48 99
direct
   0.2807006700000000    0.0420551600000000    0.4999998000000000 W
   0.2861016900000000    0.2774779000000000    0.4999956500000000 W
   0.2806799300000000    0.5421586600000000    0.4999979400000000 W
   0.2861124000000000    0.7773885400000000    0.5000078200000000 W
   0.4540598100000000    0.0356118300000000    0.4999996200000000 W
   0.4548020800000000    0.2856077400000000    0.4999981000000000 W
   0.4541273100000000    0.5356087200000000    0.4999950600000000 W
   0.4547990500000000    0.7859379200000000    0.4999992100000000 W
   0.6277295400000000    0.0354551400000000    0.5000012900000000 W
   0.6270557700000000    0.2849086300000000    0.4999994300000000 W
   0.6293081300000000    0.5354154900000000    0.4999968800000000 W
   0.6270558600000000    0.7861695200000000    0.5000022000000000 W
   0.2860133300000000    0.1685440300000000    0.4999935000000000 W
   0.2807218900000000    0.4038177100000000    0.5000016600000000 W
   0.2861195100000000    0.6684688800000000    0.5000137000000000 W
   0.2806837400000000    0.9037806800000000    0.4999960800000000 W
   0.4547556300000000    0.1601581400000000    0.5000013800000001 W
   0.4544446400000000    0.4103784400000000    0.4999973600000000 W
   0.4550472200000000    0.6600729600000000    0.4999968800000000 W
   0.4541747800000000    0.9102886700000000    0.4999984700000000 W
   0.6276594100000000    0.1597975600000000    0.4999995900000000 W
   0.6282185800000000    0.4102643700000000    0.4999974800000000 W
   0.6282784000000000    0.6606508000000000    0.4999996700000000 W
   0.6276214000000000    0.9111549400000000    0.5000035400000000 W
   0.3687933700000000    0.2229824200000000    0.4999997400000000 W
   0.3667014300000000    0.4729620800000000    0.4999989600000000 W
   0.3688618500000000    0.7229316099999999    0.4999999100000000 W
   0.3665270300000000    0.9729715500000000    0.4999976800000000 W
   0.5416545699999999    0.2224899000000000    0.5000006000000000 W
   0.5411497199999999    0.4729019700000000    0.4999961800000000 W
   0.5409019400000000    0.7230932500000000    0.5000003900000000 W
   0.5405297500000000    0.9732203800000000    0.5000001600000000 W
   0.7155884700000000    0.2136014900000000    0.4999998400000000 W
   0.7092472900000000    0.4630591300000000    0.4999998800000000 W
   0.7137107400000000    0.7157484200000001    0.5000047200000000 W
   0.7142417400000000    0.9767220000000000    0.5000047500000000 W
   0.3684952800000000    0.0986704100000000    0.4999993000000000 W
   0.3686424100000000    0.3473878200000000    0.4999969600000000 W
   0.3686483300000000    0.5986988400000000    0.5000000800000000 W
   0.3685629400000000    0.8473376700000000    0.5000002900000000 W
   0.5406622100000000    0.0976057600000000    0.5000012500000000 W
   0.5407626200000000    0.3479625800000000    0.4999980200000000 W
   0.5412885500000000    0.5979082700000000    0.4999935300000000 W
   0.5415044900000000    0.8485753100000000    0.5000013600000000 W
   0.7142536400000000    0.0941469800000000    0.5000029000000000 W
   0.7137078300000000    0.3552254000000000    0.4999997900000000 W
   0.7092732000000000    0.6078558400000000    0.5000017700000000 W
   0.7155702100000000    0.8573977100000000    0.5000098800000000 W
   0.2526430900000000    0.1036538400000000    0.5891531500000000 Se
   0.2527293200000000    0.3422850100000000    0.5892791600000000 Se
   0.2527079700000000    0.6036821400000000    0.5892969300000001 Se
   0.2527143400000000    0.8421904099999999    0.5892367900000000 Se
   0.4255850600000000    0.0979507800000000    0.5936459900000000 Se
   0.4258174300000000    0.3480496200000000    0.5935593300000001 Se
   0.4257473600000000    0.5979562000000000    0.5936503400000001 Se
   0.4256579800000000    0.8480713600000001    0.5937076000000000 Se
   0.5982634000000000    0.0976507000000000    0.5928705900000000 Se
   0.5983112300000000    0.3475057800000000    0.5928015500000000 Se
   0.5992359900000001    0.5970812500000000    0.5923413100000000 Se
   0.5990979000000000    0.8485540800000000    0.5934918000000000 Se
   0.4263549200000000    0.2229239500000000    0.5933277900000000 Se
   0.4247355800000000    0.4728890900000000    0.5926326300000000 Se
   0.4265030500000000    0.7229401100000000    0.5931719900000000 Se
   0.4245563000000000    0.9728817800000000    0.5925812600000000 Se
   0.5992257200000000    0.2224929500000000    0.5935059499999999 Se
   0.5991412900000000    0.4737645500000000    0.5923315700000000 Se
   0.5984342800000000    0.7235175900000000    0.5927910300000000 Se
   0.5981963700000000    0.9732632400000000    0.5928294900000000 Se
   0.3372376900000000    0.0358248500000000    0.5926216900000000 Se
   0.3398402000000000    0.2846703400000000    0.5954533300000000 Se
   0.3373136800000000    0.5358344900000001    0.5925290800000000 Se
   0.3398365300000000    0.7845779100000000    0.5954713100000000 Se
   0.5115520800000000    0.0353775000000000    0.5934079200000000 Se
   0.5123769100000000    0.2850519000000000    0.5930055400000001 Se
   0.5118808900000000    0.5353748699999999    0.5928688600000001 Se
   0.5123841300000000    0.7860249000000000    0.5930071500000000 Se
   0.6858995000000000    0.0354314400000000    0.5969232100000000 Se
   0.6874408800000000    0.2843347300000000    0.5885699500000000 Se
   0.6921418900000000    0.5354425200000000    0.5906306200000000 Se
   0.6874369400000000    0.7866784600000000    0.5885718900000000 Se
   0.3397029300000000    0.1613897600000000    0.5954892700000000 Se
   0.3372862600000000    0.4102100300000000    0.5926091100000001 Se
   0.3398528800000000    0.6613450400000001    0.5955115800000000 Se
   0.3372001800000000    0.9101643100000000    0.5926264800000000 Se
   0.5122843900000000    0.1603463600000000    0.5931969400000000 Se
   0.5120761800000000    0.4105568100000000    0.5932927700000000 Se
   0.5125063900000000    0.6604034600000001    0.5933867500000000 Se
   0.5118756800000001    0.9106182400000000    0.5931223600000000 Se
   0.6857208299999999    0.1577731100000000    0.5962079100000000 Se
   0.6827652900000000    0.4082120300000000    0.6011395000000000 Se
   0.6828109900000000    0.6627054800000000    0.6011323200000001 Se
   0.6856806100000000    0.9131676800000000    0.5962548100000000 Se
   0.2526489600000000    0.1036567000000000    0.4108314700000000 Se
   0.2527302700000000    0.3422818400000000    0.4107162100000000 Se
   0.2527021100000000    0.6036788700000000    0.4107158700000000 Se
   0.2526978700000000    0.8421995200000000    0.4107835700000000 Se
   0.4255862700000000    0.0979516600000000    0.4063538900000000 Se
   0.4258178500000000    0.3480480900000000    0.4064314100000000 Se
   0.4257450900000000    0.5979570800000000    0.4063411000000000 Se
   0.4256577500000000    0.8480708000000000    0.4062902000000000 Se
   0.5982630100000000    0.0976491800000000    0.4071303000000000 Se
   0.5983121100000000    0.3475042700000000    0.4071945400000000 Se
   0.5992378900000001    0.5970847600000000    0.4076495000000000 Se
   0.5990986200000000    0.8485549400000000    0.4065109400000000 Se
   0.2262207700000000    0.2230756700000000    0.5000082600000000 Se
   0.2308157200000000    0.4729479500000000    0.4999992800000000 Se
   0.2262788300000000    0.7229499100000000    0.4999849400000000 Se
   0.2308017600000000    0.9729022300000000    0.4999990800000000 Se
   0.4263552400000000    0.2229233000000000    0.4066712800000000 Se
   0.4247344300000000    0.4728910300000000    0.4073584200000000 Se
   0.4265008900000000    0.7229421700000001    0.4068246800000000 Se
   0.4245582200000000    0.9728818800000000    0.4074168700000000 Se
   0.5992251700000000    0.2224924600000000    0.4064934100000000 Se
   0.5991423600000000    0.4737640600000000    0.4076614000000000 Se
   0.5984353200000000    0.7235201300000000    0.4072092300000000 Se
   0.5981973300000000    0.9732623300000000    0.4071736900000000 Se
   0.3372369800000000    0.0358266400000000    0.4073757300000000 Se
   0.3398429300000000    0.2846681000000000    0.4045406200000000 Se
   0.3373129800000000    0.5358311000000000    0.4074695900000000 Se
   0.3398288600000000    0.7845811700000000    0.4045342300000000 Se
   0.5115527700000000    0.0353779400000000    0.4065925000000000 Se
   0.5123772800000000    0.2850482200000000    0.4069925900000000 Se
   0.5118832500000000    0.5353743399999999    0.4071111100000000 Se
   0.5123855200000000    0.7860257000000000    0.4069901300000000 Se
   0.6859030600000000    0.0354353800000000    0.4030851800000000 Se
   0.6874412800000000    0.2843347800000000    0.4114279800000000 Se
   0.6921432500000000    0.5354436800000000    0.4093682700000000 Se
   0.6874407900000000    0.7866804900000000    0.4114376200000000 Se
   0.3397089300000000    0.1613927600000000    0.4045077800000000 Se
   0.3372831900000000    0.4102081500000000    0.4073883300000000 Se
   0.3398411500000000    0.6613437500000000    0.4044958100000000 Se
   0.3372003600000000    0.9101643200000000    0.4073712500000000 Se
   0.5122851200000000    0.1603461300000000    0.4068050100000000 Se
   0.5120764000000000    0.4105562400000000    0.4067030500000000 Se
   0.5125078900000000    0.6604054400000000    0.4066073200000000 Se
   0.5118769399999999    0.9106179300000000    0.4068782600000000 Se
   0.6857215300000000    0.1577720600000000    0.4037922300000000 Se
   0.6827665500000000    0.4082121000000000    0.3988593000000000 Se
   0.6828139100000000    0.6627079900000000    0.3988706700000000 Se
   0.6856811100000000    0.9131670000000000    0.4037657000000000 Se
   0.7742804300000000    0.9123206400000000    0.5000061500000000 Se
   0.7682208800000000    0.7828309100000000    0.5000186900000000 Se
   0.7732279800000000    0.6504881300000001    0.5000132100000000 Se
   0.7732421500000000    0.4205516300000000    0.5000007500000000 Se
   0.7682495100000000    0.2882008200000000    0.4999992800000000 Se
   0.7742664600000000    0.1586442600000000    0.4999977900000000 Se
   0.7737229500000000    0.0354310700000000    0.5000066399999999 Se
