H4 W36 Se69 C1 O1                       
   1.00000000000000     
    19.6919994353999996    0.0000000000000000    0.0000000000000000
    -9.8459997176999998   17.0537717624000003    0.0000000000000000
     0.0000000000000000    0.0000000000000000   25.9200000762999991
   W    Se   O    C    H 
    36    69     1     1     4
Direct
  0.1244511829251283  0.0497241199345654  0.4994838526867607
  0.1297191490223932  0.2182168291560452  0.4998558628868118
  0.1295950601588222  0.3840131182735274  0.4997076868770398
  0.1243819562454424  0.5472956726852670  0.4993734388117121
  0.1218174015490718  0.7134349903403423  0.4998574733964580
  0.1218621300332062  0.8810164411177687  0.4998861774466947
  0.2896739292603626  0.0496186294916636  0.4962342133546493
  0.2993978452049951  0.2210231806363019  0.4906289544097552
  0.3015926976809547  0.3871628384555156  0.4885670209740141
  0.2992812857619392  0.5509703606894558  0.4904608522561605
  0.2896348269721772  0.7126699786261836  0.4961475281680539
  0.2886437081181478  0.8806325643259388  0.4984909770078665
  0.4551041530306463  0.0478435760194454  0.4988464192868788
  0.4504911560872616  0.2173138695095736  0.4929008409998007
  0.4478115697611137  0.3768332506468511  0.4857712195366657
  0.4478571790247679  0.5437620650904702  0.4857582128974254
  0.4504241809932570  0.7057689718980872  0.4928347520442711
  0.4550934558039539  0.8798617900538003  0.4987850485813224
  0.6218812951304591  0.0472116031251830  0.5017171232522281
  0.6202833563731968  0.2138975027006113  0.5005559440572651
  0.6154059435383047  0.3785410982971240  0.4973489657646068
  0.6120078831351485  0.5424036440680546  0.4965262171363278
  0.6154673163242532  0.7094917525656955  0.4973494641366126
  0.6202871633735848  0.8789670398803439  0.5005237926848095
  0.7892311381393324  0.0473292127781292  0.5035138345349531
  0.7892132857470506  0.2143747613865894  0.5035014629083424
  0.7870565266241208  0.3800666509403969  0.5022735105035450
  0.7846151822247046  0.5455537414368644  0.5013344837964712
  0.7846367769738737  0.7116501311283279  0.5013836593181509
  0.7870838952879540  0.8795258353880157  0.5023353847052783
  0.9573560478478141  0.0486601350146401  0.5029741829921996
  0.9590572167688993  0.2157375907652853  0.5036123804920872
  0.9572784535053196  0.3811560093103144  0.5028845324011778
  0.9549174299198731  0.5468757865534893  0.5020049095678830
  0.9536370135934951  0.7131006445709728  0.5017488270632271
  0.9549651397920360  0.8805920036152306  0.5020770554468430
  0.0731932066138256  0.1074807462370344  0.5659138844757607
  0.0766417388818138  0.2746524454768519  0.5662225218179243
  0.0731279517341568  0.4382382379486915  0.5657814009113720
  0.0691747836669233  0.6029511107394208  0.5655086029180458
  0.0671832418981169  0.7698775929548670  0.5655216977470879
  0.0692262092869468  0.9388155715278995  0.5655648161991527
  0.2426640737676639  0.1139240882105856  0.5601535627001848
  0.2571600240813018  0.2834535376212482  0.5584275122117950
  0.2567609599252232  0.4463567389221385  0.5582161987742249
  0.2426339685775784  0.6013447646525040  0.5600413704987300
  0.2352051646102936  0.7683892373493851  0.5631168718645461
  0.2352449971457175  0.9394022057887775  0.5631559748175639
  0.3994182176337331  0.1090808639650882  0.5609943719733702
  0.3993751324628327  0.7629304971731985  0.5609210773178216
  0.3990653402214571  0.9357825613204339  0.5639364877817759
  0.5640350452524567  0.1027407123959100  0.5657262353096720
  0.5565266948822578  0.2688921674833312  0.5621038400942873
  0.5444665480984997  0.4258579528051268  0.5586570019891461
  0.5442947829197192  0.5913270599692174  0.5586618577847835
  0.5564586288683682  0.7602192028803918  0.5620343197483147
  0.5639811477959172  0.9337955114679393  0.5656868077087760
  0.7321408912258009  0.1023041495748832  0.5682018971956831
  0.7301422960627004  0.2692131431818647  0.5673842034894049
  0.7251193298799234  0.4333095557984910  0.5651692328107578
  0.7218734920900769  0.5972021389625363  0.5644742175754153
  0.7250726834992598  0.7643217231483570  0.5652278455779631
  0.7300800625649789  0.9334237110693852  0.5674041908727229
  0.9020595178840383  0.1038574170466938  0.5685829948265764
  0.9020727136325636  0.2706319624477165  0.5685351654902813
  0.8994721676858055  0.4361829997074009  0.5674485368202078
  0.8968124904387681  0.6013927652184214  0.5666597545540910
  0.8968158679085753  0.7679143891974541  0.5667126638170601
  0.8995114621866380  0.9357979660675818  0.5675280482903153
  0.0668952008271409  0.1047163248108557  0.4363312034900750
  0.0685152585942041  0.2704223308697232  0.4369869515388864
  0.0667547501728024  0.4346800697178260  0.4362022028811409
  0.0648231004076127  0.6013117123765267  0.4355509346314055
  0.0640191174452644  0.7683404246502411  0.4356165224245245
  0.0648850793156905  0.9361964192394305  0.4356127641194089
  0.2320497705885411  0.1030784246604651  0.4307857314631751
  0.2337559551242801  0.2696147000351730  0.4284734884156715
  0.2336637888487360  0.4367142116056505  0.4283321644356683
  0.2319625240456806  0.6016181086844206  0.4306598235352836
  0.2314283726632960  0.7690987257541044  0.4332585801388946
  0.2314841588935563  0.9350388513359635  0.4332863100935709
  0.4012398804313033  0.1028667723968402  0.4312065407062998
  0.4018248666592412  0.2689946509231616  0.4207154482270112
  0.4034044330234245  0.4380473571925133  0.4183720643603409
  0.4018408757733133  0.6054998419959645  0.4206173091553871
  0.4012147742878084  0.7709991590468257  0.4311390192109693
  0.4001721259691503  0.9364393064603596  0.4336340261853519
  0.5680697348078354  0.1031761188697113  0.4354225576635585
  0.5662505934425358  0.2680150729112999  0.4323185312683293
  0.5657819622747646  0.4356380381381844  0.4281208311864599
  0.5657749779881113  0.6028473514450670  0.4280833661453028
  0.5662533721550272  0.7708363525908268  0.4323035406471145
  0.5680918811164152  0.9374942410145432  0.4353777755069541
  0.7349753690150694  0.1037265588513703  0.4380561121504710
  0.7340673304648837  0.2692596969353865  0.4372397048930666
  0.7322667293243816  0.4351865562229072  0.4358584592433194
  0.7303865196624056  0.6015331939827847  0.4355616975747262
  0.7323495232877831  0.7696718326082167  0.4358907636873772
  0.7341285431729601  0.9373153099392296  0.4372595420721533
  0.9012220769472727  0.1041957601775551  0.4386681973051352
  0.9011776394233109  0.2693967418732248  0.4386451378268558
  0.8995195563898092  0.4350709510051133  0.4376689604282214
  0.8977294400202638  0.6014996838048092  0.4370114655293858
  0.8977239203774284  0.7688068901313505  0.4370568674644008
  0.8996012862703392  0.9370114966260554  0.4377686854414144
  0.3889700270800847  0.4450502824759361  0.6325883629825397
  0.4433072250134206  0.4459418196519206  0.6694557248541098
  0.5034056348145565  0.4951526257966364  0.6630058125757687
  0.4043287390091087  0.4377983866566867  0.5980527417661676
  0.4448161474359945  0.3906488333307940  0.6695002496586275
  0.4233902336448775  0.4534298065958128  0.7074771892821736
 
  0.00000000E+00  0.00000000E+00  0.00000000E+00
  0.00000000E+00  0.00000000E+00  0.00000000E+00
  0.00000000E+00  0.00000000E+00  0.00000000E+00
  0.00000000E+00  0.00000000E+00  0.00000000E+00
  0.00000000E+00  0.00000000E+00  0.00000000E+00
  0.00000000E+00  0.00000000E+00  0.00000000E+00
  0.00000000E+00  0.00000000E+00  0.00000000E+00
  0.00000000E+00  0.00000000E+00  0.00000000E+00
  0.00000000E+00  0.00000000E+00  0.00000000E+00
  0.00000000E+00  0.00000000E+00  0.00000000E+00
  0.00000000E+00  0.00000000E+00  0.00000000E+00
  0.00000000E+00  0.00000000E+00  0.00000000E+00
  0.00000000E+00  0.00000000E+00  0.00000000E+00
  0.00000000E+00  0.00000000E+00  0.00000000E+00
  0.00000000E+00  0.00000000E+00  0.00000000E+00
  0.00000000E+00  0.00000000E+00  0.00000000E+00
  0.00000000E+00  0.00000000E+00  0.00000000E+00
  0.00000000E+00  0.00000000E+00  0.00000000E+00
  0.00000000E+00  0.00000000E+00  0.00000000E+00
  0.00000000E+00  0.00000000E+00  0.00000000E+00
  0.00000000E+00  0.00000000E+00  0.00000000E+00
  0.00000000E+00  0.00000000E+00  0.00000000E+00
  0.00000000E+00  0.00000000E+00  0.00000000E+00
  0.00000000E+00  0.00000000E+00  0.00000000E+00
  0.00000000E+00  0.00000000E+00  0.00000000E+00
  0.00000000E+00  0.00000000E+00  0.00000000E+00
  0.00000000E+00  0.00000000E+00  0.00000000E+00
  0.00000000E+00  0.00000000E+00  0.00000000E+00
  0.00000000E+00  0.00000000E+00  0.00000000E+00
  0.00000000E+00  0.00000000E+00  0.00000000E+00
  0.00000000E+00  0.00000000E+00  0.00000000E+00
  0.00000000E+00  0.00000000E+00  0.00000000E+00
  0.00000000E+00  0.00000000E+00  0.00000000E+00
  0.00000000E+00  0.00000000E+00  0.00000000E+00
  0.00000000E+00  0.00000000E+00  0.00000000E+00
  0.00000000E+00  0.00000000E+00  0.00000000E+00
  0.00000000E+00  0.00000000E+00  0.00000000E+00
  0.00000000E+00  0.00000000E+00  0.00000000E+00
  0.00000000E+00  0.00000000E+00  0.00000000E+00
  0.00000000E+00  0.00000000E+00  0.00000000E+00
  0.00000000E+00  0.00000000E+00  0.00000000E+00
  0.00000000E+00  0.00000000E+00  0.00000000E+00
  0.00000000E+00  0.00000000E+00  0.00000000E+00
  0.00000000E+00  0.00000000E+00  0.00000000E+00
  0.00000000E+00  0.00000000E+00  0.00000000E+00
  0.00000000E+00  0.00000000E+00  0.00000000E+00
  0.00000000E+00  0.00000000E+00  0.00000000E+00
  0.00000000E+00  0.00000000E+00  0.00000000E+00
  0.00000000E+00  0.00000000E+00  0.00000000E+00
  0.00000000E+00  0.00000000E+00  0.00000000E+00
  0.00000000E+00  0.00000000E+00  0.00000000E+00
  0.00000000E+00  0.00000000E+00  0.00000000E+00
  0.00000000E+00  0.00000000E+00  0.00000000E+00
  0.00000000E+00  0.00000000E+00  0.00000000E+00
  0.00000000E+00  0.00000000E+00  0.00000000E+00
  0.00000000E+00  0.00000000E+00  0.00000000E+00
  0.00000000E+00  0.00000000E+00  0.00000000E+00
  0.00000000E+00  0.00000000E+00  0.00000000E+00
  0.00000000E+00  0.00000000E+00  0.00000000E+00
  0.00000000E+00  0.00000000E+00  0.00000000E+00
  0.00000000E+00  0.00000000E+00  0.00000000E+00
  0.00000000E+00  0.00000000E+00  0.00000000E+00
  0.00000000E+00  0.00000000E+00  0.00000000E+00
  0.00000000E+00  0.00000000E+00  0.00000000E+00
  0.00000000E+00  0.00000000E+00  0.00000000E+00
  0.00000000E+00  0.00000000E+00  0.00000000E+00
  0.00000000E+00  0.00000000E+00  0.00000000E+00
  0.00000000E+00  0.00000000E+00  0.00000000E+00
  0.00000000E+00  0.00000000E+00  0.00000000E+00
  0.00000000E+00  0.00000000E+00  0.00000000E+00
  0.00000000E+00  0.00000000E+00  0.00000000E+00
  0.00000000E+00  0.00000000E+00  0.00000000E+00
  0.00000000E+00  0.00000000E+00  0.00000000E+00
  0.00000000E+00  0.00000000E+00  0.00000000E+00
  0.00000000E+00  0.00000000E+00  0.00000000E+00
  0.00000000E+00  0.00000000E+00  0.00000000E+00
  0.00000000E+00  0.00000000E+00  0.00000000E+00
  0.00000000E+00  0.00000000E+00  0.00000000E+00
  0.00000000E+00  0.00000000E+00  0.00000000E+00
  0.00000000E+00  0.00000000E+00  0.00000000E+00
  0.00000000E+00  0.00000000E+00  0.00000000E+00
  0.00000000E+00  0.00000000E+00  0.00000000E+00
  0.00000000E+00  0.00000000E+00  0.00000000E+00
  0.00000000E+00  0.00000000E+00  0.00000000E+00
  0.00000000E+00  0.00000000E+00  0.00000000E+00
  0.00000000E+00  0.00000000E+00  0.00000000E+00
  0.00000000E+00  0.00000000E+00  0.00000000E+00
  0.00000000E+00  0.00000000E+00  0.00000000E+00
  0.00000000E+00  0.00000000E+00  0.00000000E+00
  0.00000000E+00  0.00000000E+00  0.00000000E+00
  0.00000000E+00  0.00000000E+00  0.00000000E+00
  0.00000000E+00  0.00000000E+00  0.00000000E+00
  0.00000000E+00  0.00000000E+00  0.00000000E+00
  0.00000000E+00  0.00000000E+00  0.00000000E+00
  0.00000000E+00  0.00000000E+00  0.00000000E+00
  0.00000000E+00  0.00000000E+00  0.00000000E+00
  0.00000000E+00  0.00000000E+00  0.00000000E+00
  0.00000000E+00  0.00000000E+00  0.00000000E+00
  0.00000000E+00  0.00000000E+00  0.00000000E+00
  0.00000000E+00  0.00000000E+00  0.00000000E+00
  0.00000000E+00  0.00000000E+00  0.00000000E+00
  0.00000000E+00  0.00000000E+00  0.00000000E+00
  0.00000000E+00  0.00000000E+00  0.00000000E+00
  0.00000000E+00  0.00000000E+00  0.00000000E+00
  0.00000000E+00  0.00000000E+00  0.00000000E+00
  0.00000000E+00  0.00000000E+00  0.00000000E+00
  0.00000000E+00  0.00000000E+00  0.00000000E+00
  0.00000000E+00  0.00000000E+00  0.00000000E+00
  0.00000000E+00  0.00000000E+00  0.00000000E+00
  0.00000000E+00  0.00000000E+00  0.00000000E+00
  0.00000000E+00  0.00000000E+00  0.00000000E+00
