H4 W36 Se69 C1 O1
1.0
  19.6919994353999996    0.0000000000000000    0.0000000000000000
  -9.8459997176999998   17.0537717624000003    0.0000000000000000
   0.0000000000000000    0.0000000000000000   25.9200000762999991
W Se O C H
36 69 1 1 4
direct
   0.1228298713791445    0.0486885381467746    0.5008772684715689 W
   0.1281700551598693    0.2173151011772685    0.5013100604841838 W
   0.1281837966542522    0.3831561642807177    0.5013175928529887 W
   0.1227876748322513    0.5463845807145173    0.5008568830549622 W
   0.1202684308415472    0.7124968544958413    0.5012335857544705 W
   0.1203197878747144    0.8800439403141100    0.5012454750677072 W
   0.2881188884993999    0.0485763410899207    0.4975444525477376 W
   0.2978774232022605    0.2198852744861806    0.4917788636372405 W
   0.3003488564371304    0.3862893385570270    0.4895333376407641 W
   0.2978586783458586    0.5502213374104328    0.4917525323487377 W
   0.2881302100849155    0.7117643260455929    0.4974889262361726 W
   0.2871563363093035    0.8796745317699022    0.4998125863373573 W
   0.4535829858036113    0.0468562034916987    0.5002380092913519 W
   0.4487854554929078    0.2162128978487683    0.4942858763227619 W
   0.4460021905803391    0.3758139133848738    0.4868300822089069 W
   0.4460065982933981    0.5423431950926013    0.4868296857968710 W
   0.4488284492451304    0.7047713460373266    0.4942674449570754 W
   0.4535901116505838    0.8788828696562009    0.5002189977559139 W
   0.6203257728349556    0.0462647337487859    0.5031805739431837 W
   0.6186490998087730    0.2129090627919262    0.5021056421176443 W
   0.6136098449561136    0.3776027926090734    0.4990024378443717 W
   0.6101490744775429    0.5411971418750315    0.4979608685958946 W
   0.6136431946884243    0.7082525715296775    0.4989488266948381 W
   0.6187501316222586    0.8779699587050690    0.5020384601733976 W
   0.7876641055459110    0.0464211294738584    0.5050379458898767 W
   0.7876149638192657    0.2134751975528761    0.5050930432662578 W
   0.7853602359192839    0.3791558157976677    0.5039573347433663 W
   0.7829356680860713    0.5446049776200915    0.5029539298080484 W
   0.7829391221634350    0.7106286752189119    0.5029149119840892 W
   0.7854507802255901    0.8785031633900319    0.5038736550368226 W
   0.9557699703594238    0.0476660485624795    0.5044724924193190 W
   0.9574887507038602    0.2148540231480353    0.5052176562288540 W
   0.9557436910383436    0.3802788144085805    0.5045161489006720 W
   0.9533245235882073    0.5459919760700268    0.5035926797675879 W
   0.9520146092530948    0.7121331506134148    0.5032250467825591 W
   0.9533243236349122    0.8795441349854851    0.5035337843973909 W
   0.0717057059669044    0.1065563411025893    0.5673755410381655 Se
   0.0751165201707475    0.2737139534898458    0.5677998570091386 Se
   0.0716956534442556    0.4374126562691965    0.5673783819717990 Se
   0.0677038503495220    0.6021527921841282    0.5670149753756466 Se
   0.0657116981921174    0.7689873967888984    0.5669074408080618 Se
   0.0676619027690461    0.9377730605179241    0.5669762551982913 Se
   0.2411481626528471    0.1129307855665219    0.5614473971512949 Se
   0.2561939652223414    0.2827967747658708    0.5595245418714614 Se
   0.2562684749653830    0.4457173714356242    0.5595312640165033 Se
   0.2410990742018813    0.6004750808016478    0.5613916754307799 Se
   0.2337220994079481    0.7674606319557132    0.5644140914712656 Se
   0.2337731058660646    0.9384549429872109    0.5644598014634150 Se
   0.3977590474118228    0.1079494832960589    0.5623797141624394 Se
   0.3977487045823265    0.7619475012354291    0.5623614980745301 Se
   0.3975030549308968    0.9348141730821690    0.5653180337911357 Se
   0.5623930956015064    0.1017088403179086    0.5672117103287712 Se
   0.5546522757999012    0.2677991206068119    0.5636246141973550 Se
   0.5417671612306753    0.4246142759436652    0.5600651578420922 Se
   0.5417721704753803    0.5894241240616546    0.5600604519779084 Se
   0.5547823811401786    0.7591644503853736    0.5635744194058361 Se
   0.5624343359933334    0.9328466098083377    0.5671491487163010 Se
   0.7304916801508157    0.1013434014527221    0.5697227169571820 Se
   0.7283712877937887    0.2681705969633776    0.5690001559253584 Se
   0.7233070400188459    0.4324073706825675    0.5668550166184013 Se
   0.7200053998587059    0.5961946636002786    0.5659677787737909 Se
   0.7233334557580173    0.7632519063435732    0.5667897349442108 Se
   0.7285126154121693    0.9325143428424755    0.5689277620984110 Se
   0.9004945595629281    0.1028821154314008    0.5701099019869065 Se
   0.9004778192781294    0.2697621463507009    0.5701612766781132 Se
   0.8979180214547733    0.4353310174097935    0.5690571435795116 Se
   0.8951870583764285    0.6005430461770586    0.5682437847856096 Se
   0.8951554161376990    0.7669127513384411    0.5682114149168777 Se
   0.8979461212553771    0.9347609479650133    0.5690232635641792 Se
   0.0652497669238922    0.1037493653985083    0.4377958006017045 Se
   0.0669247952453039    0.2696338184341268    0.4385837911086441 Se
   0.0651847097506764    0.4337252531025464    0.4377967986341090 Se
   0.0630820723358690    0.6002922180869681    0.4370231990993492 Se
   0.0623572931633530    0.7673282451129985    0.4370229378724981 Se
   0.0631595243502958    0.9350877082898047    0.4370231362135469 Se
   0.2303103256414612    0.1018277818651663    0.4320777807882896 Se
   0.2320209318823600    0.2684157260209399    0.4297334507025979 Se
   0.2320245510050596    0.4358031024190318    0.4297321135498241 Se
   0.2302746759739734    0.6006985537115177    0.4320291133887414 Se
   0.2298838799487051    0.7681493637016075    0.4345914721003345 Se
   0.2299485724222313    0.9339925014194290    0.4345981681265494 Se
   0.3997491860019443    0.1018672208824917    0.4325582057482951 Se
   0.4003192481108995    0.2678054611396574    0.4218562988739338 Se
   0.4018934178646590    0.4370082556418112    0.4191868769682115 Se
   0.4003668244410774    0.6046884182967831    0.4218643457103299 Se
   0.3998088801557371    0.7700636061023398    0.4325439861881518 Se
   0.3987683619145204    0.9354642999957028    0.4350168369910577 Se
   0.5666150315357009    0.1022933300799902    0.4368593918467449 Se
   0.5647583222356181    0.2671589239305510    0.4339339790081342 Se
   0.5642342544380023    0.4345533326732568    0.4294970298699605 Se
   0.5642350003616885    0.6018545239141602    0.4294827068375953 Se
   0.5647624278409547    0.7697581676296916    0.4338665715237647 Se
   0.5666565449542516    0.9364885752260371    0.4368530971322573 Se
   0.7334751192071357    0.1028920624977955    0.4395726831967826 Se
   0.7325050681083669    0.2684366889495508    0.4388796638315386 Se
   0.7305591223934960    0.4342547082357450    0.4375471996765103 Se
   0.7287584043024100    0.6005079195195457    0.4370922521855656 Se
   0.7305844004464621    0.7685737603160829    0.4374648911890984 Se
   0.7326238404196503    0.9363919551338394    0.4388053737083005 Se
   0.8996722030740166    0.1033293717396397    0.4402350174540922 Se
   0.8995979498870466    0.2685254816237519    0.4402853274462280 Se
   0.8978307491396831    0.4340994710227177    0.4393578018702546 Se
   0.8960134855883930    0.6004345337010044    0.4385755602444709 Se
   0.8960021205138577    0.7677408141386678    0.4385245374051149 Se
   0.8979143557466793    0.9359586919177637    0.4392507863227302 Se
   0.4434298304160842    0.4366000820074397    0.5927979875682683 O
   0.4714379943837861    0.4797350090047550    0.6407605352665885 C
   0.5238013569835818    0.4791999731119844    0.6549585406260288 H
   0.4271253333154975    0.3811870875586968    0.5975347572302507 H
   0.4241838375135943    0.4543966799816868    0.6695676979904316 H
   0.4862269127438724    0.5401662733818363    0.6322840669273428 H
