W36 S72
1.0
  18.9192000000000000    0.0000000000000000    0.0000000000000012
  -9.4595999999999947   16.3845078192785536    0.0000000000000012
   0.0000000000000000    0.0000000000000000   24.6460000000000008
W S
36 72
direct
   0.1203703703703706    0.0462962962962962    0.5000000000000000 W
   0.1203703703703706    0.2129629629629628    0.5000000000000000 W
   0.1203703703703706    0.3796296296296295    0.5000000000000000 W
   0.1203703703703707    0.5462962962962962    0.4999999999999999 W
   0.1203703703703707    0.7129629629629628    0.4999999999999999 W
   0.1203703703703707    0.8796296296296294    0.5000000000000000 W
   0.2870370370370373    0.0462962962962962    0.5000000000000000 W
   0.2870370370370373    0.2129629629629628    0.5000000000000000 W
   0.2870370370370373    0.3796296296296295    0.4999999999999999 W
   0.2870370370370373    0.5462962962962962    0.4999999999999999 W
   0.2870370370370373    0.7129629629629628    0.5000000000000000 W
   0.2870370370370373    0.8796296296296294    0.5000000000000000 W
   0.4537037037037040    0.0462962962962962    0.5000000000000000 W
   0.4537037037037040    0.2129629629629628    0.4999999999999999 W
   0.4537037037037040    0.3796296296296295    0.4999999999999999 W
   0.4537037037037040    0.5462962962962962    0.5000000000000000 W
   0.4537037037037040    0.7129629629629628    0.5000000000000000 W
   0.4537037037037040    0.8796296296296294    0.5000000000000000 W
   0.6203703703703707    0.0462962962962962    0.4999999999999999 W
   0.6203703703703707    0.2129629629629628    0.4999999999999999 W
   0.6203703703703707    0.3796296296296295    0.5000000000000000 W
   0.6203703703703707    0.5462962962962962    0.5000000000000000 W
   0.6203703703703707    0.7129629629629628    0.5000000000000000 W
   0.6203703703703707    0.8796296296296294    0.5000000000000000 W
   0.7870370370370373    0.0462962962962962    0.4999999999999999 W
   0.7870370370370373    0.2129629629629628    0.5000000000000000 W
   0.7870370370370373    0.3796296296296295    0.5000000000000000 W
   0.7870370370370374    0.5462962962962962    0.5000000000000000 W
   0.7870370370370373    0.7129629629629628    0.5000000000000000 W
   0.7870370370370373    0.8796296296296294    0.5000000000000000 W
   0.9537037037037038    0.0462962962962962    0.5000000000000000 W
   0.9537037037037039    0.2129629629629628    0.5000000000000000 W
   0.9537037037037038    0.3796296296296295    0.5000000000000000 W
   0.9537037037037039    0.5462962962962962    0.5000000000000000 W
   0.9537037037037039    0.7129629629629628    0.5000000000000000 W
   0.9537037037037039    0.8796296296296294    0.5000000000000000 W
   0.0648148148148151    0.1018518518518517    0.5637500000000000 S
   0.0648148148148151    0.2685185185185184    0.5637500000000000 S
   0.0648148148148151    0.4351851851851850    0.5637500000000000 S
   0.0648148148148151    0.6018518518518517    0.5637500000000000 S
   0.0648148148148151    0.7685185185185184    0.5637500000000000 S
   0.0648148148148151    0.9351851851851850    0.5637500000000000 S
   0.2314814814814817    0.1018518518518517    0.5637500000000000 S
   0.2314814814814817    0.2685185185185184    0.5637500000000000 S
   0.2314814814814817    0.4351851851851850    0.5637500000000000 S
   0.2314814814814818    0.6018518518518517    0.5637500000000000 S
   0.2314814814814817    0.7685185185185184    0.5637500000000000 S
   0.2314814814814817    0.9351851851851850    0.5637500000000000 S
   0.3981481481481483    0.1018518518518517    0.5637500000000000 S
   0.3981481481481484    0.2685185185185184    0.5637500000000000 S
   0.3981481481481483    0.4351851851851850    0.5637500000000000 S
   0.3981481481481484    0.6018518518518517    0.5637500000000000 S
   0.3981481481481484    0.7685185185185184    0.5637500000000000 S
   0.3981481481481485    0.9351851851851850    0.5637500000000000 S
   0.5648148148148151    0.1018518518518517    0.5637500000000000 S
   0.5648148148148150    0.2685185185185184    0.5637500000000000 S
   0.5648148148148150    0.4351851851851850    0.5637500000000000 S
   0.5648148148148151    0.6018518518518517    0.5637500000000000 S
   0.5648148148148151    0.7685185185185184    0.5637500000000000 S
   0.5648148148148151    0.9351851851851850    0.5637500000000000 S
   0.7314814814814817    0.1018518518518517    0.5637500000000000 S
   0.7314814814814817    0.2685185185185184    0.5637500000000000 S
   0.7314814814814817    0.4351851851851850    0.5637500000000000 S
   0.7314814814814817    0.6018518518518517    0.5637500000000000 S
   0.7314814814814817    0.7685185185185184    0.5637500000000000 S
   0.7314814814814817    0.9351851851851850    0.5637500000000001 S
   0.8981481481481484    0.1018518518518517    0.5637500000000000 S
   0.8981481481481483    0.2685185185185184    0.5637500000000000 S
   0.8981481481481483    0.4351851851851850    0.5637500000000000 S
   0.8981481481481484    0.6018518518518517    0.5637500000000000 S
   0.8981481481481484    0.7685185185185184    0.5637500000000001 S
   0.8981481481481484    0.9351851851851850    0.5637500000000001 S
   0.0648148148148151    0.1018518518518517    0.4362500000000000 S
   0.0648148148148151    0.2685185185185184    0.4362500000000000 S
   0.0648148148148151    0.4351851851851850    0.4362500000000000 S
   0.0648148148148151    0.6018518518518517    0.4362500000000000 S
   0.0648148148148151    0.7685185185185184    0.4362500000000000 S
   0.0648148148148151    0.9351851851851850    0.4362500000000000 S
   0.2314814814814817    0.1018518518518517    0.4362500000000000 S
   0.2314814814814817    0.2685185185185184    0.4362500000000000 S
   0.2314814814814817    0.4351851851851850    0.4362500000000000 S
   0.2314814814814818    0.6018518518518517    0.4362500000000000 S
   0.2314814814814817    0.7685185185185184    0.4362500000000000 S
   0.2314814814814817    0.9351851851851850    0.4362500000000000 S
   0.3981481481481483    0.1018518518518517    0.4362500000000000 S
   0.3981481481481484    0.2685185185185184    0.4362500000000000 S
   0.3981481481481483    0.4351851851851850    0.4362500000000000 S
   0.3981481481481484    0.6018518518518517    0.4362500000000000 S
   0.3981481481481484    0.7685185185185184    0.4362500000000000 S
   0.3981481481481485    0.9351851851851850    0.4362500000000000 S
   0.5648148148148151    0.1018518518518517    0.4362500000000000 S
   0.5648148148148150    0.2685185185185184    0.4362500000000000 S
   0.5648148148148150    0.4351851851851850    0.4362500000000000 S
   0.5648148148148151    0.6018518518518517    0.4362500000000000 S
   0.5648148148148151    0.7685185185185184    0.4362500000000000 S
   0.5648148148148151    0.9351851851851850    0.4362500000000000 S
   0.7314814814814817    0.1018518518518517    0.4362500000000000 S
   0.7314814814814817    0.2685185185185184    0.4362500000000000 S
   0.7314814814814817    0.4351851851851850    0.4362500000000000 S
   0.7314814814814817    0.6018518518518517    0.4362500000000000 S
   0.7314814814814817    0.7685185185185184    0.4362500000000000 S
   0.7314814814814817    0.9351851851851850    0.4362500000000000 S
   0.8981481481481484    0.1018518518518517    0.4362500000000000 S
   0.8981481481481483    0.2685185185185184    0.4362500000000000 S
   0.8981481481481483    0.4351851851851850    0.4362500000000000 S
   0.8981481481481484    0.6018518518518517    0.4362500000000000 S
   0.8981481481481484    0.7685185185185184    0.4362500000000000 S
   0.8981481481481484    0.9351851851851850    0.4362500000000000 S
