Mo36 H4 Se70 C1 O1                      
   1.00000000000000     
    19.7339992522999985    0.0000000000000000    0.0000000000000000
    -9.8669996262000002   17.0901446708000009    0.0000000000000000
     0.0000000000000000    0.0000000000000000   25.8540000915999997
   Mo   Se   O    C    H 
    36    70     1     1     4
Direct
  0.1245319421987667  0.0496830016363446  0.4977747209232025
  0.1284302324145678  0.2171467174801857  0.4982484910141704
  0.1245193482876784  0.3807835236012213  0.4977340114643871
  0.1221821522758293  0.5467163847247267  0.4982652101053695
  0.1216853936169819  0.7137733825534431  0.4985736259785268
  0.1222092826681887  0.8813541721178850  0.4982064370348925
  0.2900952942655955  0.0501443962266741  0.4949668823922254
  0.2974148723806581  0.2197181557307116  0.4900476233892639
  0.2971713818491374  0.3836928920909971  0.4902042779048389
  0.2901392746892191  0.5458457535491444  0.4950628713935811
  0.2888234689781030  0.7135443163532339  0.4979550654456511
  0.2888101714807420  0.8811782377354436  0.4979214868833927
  0.4552160569845980  0.0483417259202767  0.4976847981073542
  0.4516352369438067  0.2162644673165426  0.4920610746646008
  0.4480234249773114  0.3768303779637905  0.4873216401500817
  0.4517948039528631  0.5417231611293116  0.4921284837663767
  0.4551772461382420  0.7127538720898440  0.4975789381685649
  0.4552578310838381  0.8805543872915220  0.4989906582024707
  0.6220321981860508  0.0474298485163448  0.4999745724522626
  0.6203255918758631  0.2139045917801077  0.4983844255261123
  0.6158010531246819  0.3783583184831565  0.4956160989911791
  0.6158024231206218  0.5433586745263675  0.4956932379686755
  0.6204587410429934  0.7123830599547033  0.4983609238361331
  0.6220412432126693  0.8803858891809382  0.4999354702373413
  0.7895019422649586  0.0476204583754631  0.5010668833657931
  0.7886571561747763  0.2140187411021418  0.5005030910312224
  0.7867193325453726  0.3798757467960698  0.4992465136292541
  0.7856628980844003  0.5457636789018309  0.4985511465909570
  0.7867698346532317  0.7126778014122497  0.4992818931315298
  0.7887324844154109  0.8804686843112109  0.5005189884937195
  0.9574324182315732  0.0487083803211444  0.5006426705341237
  0.9573949730641134  0.2145006910526100  0.5006251326211321
  0.9557454593121586  0.3804790261000843  0.4998614497391053
  0.9543177297451113  0.5466832920617181  0.4992524387892912
  0.9543467465963341  0.7134360943127629  0.4992376460869617
  0.9558090069558923  0.8810852140005556  0.4998528849376679
  0.0723571060605350  0.1066707502748054  0.5638331894510977
  0.0723376358481500  0.2716179316682710  0.5638236849856617
  0.0692084220089904  0.4362526638003670  0.5634356125975283
  0.0667129148816449  0.6024786923973728  0.5633996643459392
  0.0667564631820416  0.7701266047509694  0.5633609718910925
  0.0692503250520723  0.9388118436876298  0.5634086625690770
  0.2419860245503639  0.1129374693616510  0.5587927571646960
  0.2552375624760285  0.2805713837706351  0.5584957229567722
  0.2416208038650043  0.4349489680747326  0.5589173052738817
  0.2349732675414211  0.6008515822681967  0.5616097509110676
  0.2335219337603272  0.7697173095808511  0.5628302273615725
  0.2349898254279250  0.9400232595258649  0.5615322660471556
  0.3994256647910994  0.1091073067966639  0.5598340781945252
  0.3995540337612158  0.5965268836723695  0.5599255307540639
  0.3994167050727729  0.7677258945259289  0.5630469641148789
  0.3993535751632263  0.9374526769721609  0.5630430559327546
  0.5648432541336069  0.1034579775832316  0.5636553012602954
  0.5579679716927531  0.2690067251156570  0.5603104427363567
  0.5472459750870877  0.4263976852174833  0.5578458975436036
  0.5582003581085978  0.5951665684863869  0.5602990546919098
  0.5648014278784341  0.7671856985418738  0.5636158992632719
  0.5655857794984602  0.9356522627520109  0.5645508209231184
  0.7328151496086254  0.1030296157479321  0.5654331031189499
  0.7306069560143448  0.2694236566078880  0.5642637260556596
  0.7262663174130806  0.4335800717785627  0.5622144434422608
  0.7262691629376925  0.5985141710586657  0.5622977540281320
  0.7307171338834463  0.7670806883831062  0.5643006617424975
  0.7327624059855132  0.9355039465634996  0.5654371411266956
  0.9017318138708844  0.1037537721615348  0.5657718861557534
  0.9008477969081591  0.2700350818089782  0.5651367544553298
  0.8985550115111748  0.4357651352171373  0.5641405811343240
  0.8972172508710354  0.6015219895754985  0.5636430392581705
  0.8986333966456590  0.7686068026576620  0.5641499140961181
  0.9009305301085659  0.9365797111490284  0.5651507971502768
  0.0672752432599511  0.1045687237206942  0.4346836989001898
  0.0672335567347350  0.2685558699525086  0.4346720088010509
  0.0657562040427531  0.4350826238691639  0.4340285993691242
  0.0653193449807001  0.6020926430342932  0.4340811516329674
  0.0653057206903143  0.7690108801012205  0.4340265897638072
  0.0658036460849995  0.9366256817068733  0.4340014073033845
  0.2324951129677336  0.1034106484411642  0.4296569528171861
  0.2338145785787620  0.2699613804231090  0.4281723732858883
  0.2324726293189242  0.4350563039854629  0.4296600035169342
  0.2324157664637921  0.6028667603595411  0.4325772863895657
  0.2326418632548155  0.7692406094138694  0.4334991566088687
  0.2324110660758278  0.9354187164206651  0.4324935494906935
  0.4013405648771953  0.1029543057938589  0.4301633181760114
  0.4018760138862128  0.2697161705042883  0.4225908969462025
  0.4018722668676327  0.4382112481752358  0.4228523495766966
  0.4012368768800346  0.6042882540494562  0.4300988064203264
  0.4002520072766814  0.7701301275731598  0.4334810560953229
  0.4003391296382475  0.9361128038903822  0.4335260859505924
  0.5674132917708991  0.1026297138797205  0.4340641895187681
  0.5657829541535513  0.2678993034194135  0.4308080373945124
  0.5637391292891125  0.4348939737989880  0.4280931632863041
  0.5658843352284142  0.6038465463815765  0.4308368169908101
  0.5674586019896576  0.7705986543489411  0.4339771062008083
  0.5673234955909870  0.9365655883845294  0.4349551710389499
  0.7340836600193674  0.1028654012311258  0.4358596889216828
  0.7331743100381889  0.2687455429947557  0.4347612457560865
  0.7315316982893255  0.4350550343997125  0.4335380956726361
  0.7314797585774093  0.6023219201331541  0.4335718641780655
  0.7333262481978310  0.7702891969429206  0.4347609584339224
  0.7341326552694227  0.9369744080096691  0.4358498145970192
  0.9006919108765549  0.1032182270953048  0.4361606895056988
  0.9002269215087630  0.2687905227406212  0.4357956934161848
  0.8989557921022168  0.4350978069402930  0.4349207344999683
  0.8983765550792879  0.6020421842491029  0.4344771288741803
  0.8989946313379757  0.7696192207240961  0.4349284169379977
  0.9002875937218393  0.9372542612243497  0.4358062702248251
  0.3851070232613716  0.4405250939422629  0.6326559304853818
  0.4408748475456875  0.4468172457846920  0.6704097164643253
  0.4987476643177488  0.4993965166079108  0.6644601317923411
  0.4036769154825941  0.4367995513793666  0.5982851671094954
  0.4480824242186801  0.3948429832728367  0.6707494823975904
  0.4182933609071608  0.4515982985251096  0.7082012664116798
 
  0.00000000E+00  0.00000000E+00  0.00000000E+00
  0.00000000E+00  0.00000000E+00  0.00000000E+00
  0.00000000E+00  0.00000000E+00  0.00000000E+00
  0.00000000E+00  0.00000000E+00  0.00000000E+00
  0.00000000E+00  0.00000000E+00  0.00000000E+00
  0.00000000E+00  0.00000000E+00  0.00000000E+00
  0.00000000E+00  0.00000000E+00  0.00000000E+00
  0.00000000E+00  0.00000000E+00  0.00000000E+00
  0.00000000E+00  0.00000000E+00  0.00000000E+00
  0.00000000E+00  0.00000000E+00  0.00000000E+00
  0.00000000E+00  0.00000000E+00  0.00000000E+00
  0.00000000E+00  0.00000000E+00  0.00000000E+00
  0.00000000E+00  0.00000000E+00  0.00000000E+00
  0.00000000E+00  0.00000000E+00  0.00000000E+00
  0.00000000E+00  0.00000000E+00  0.00000000E+00
  0.00000000E+00  0.00000000E+00  0.00000000E+00
  0.00000000E+00  0.00000000E+00  0.00000000E+00
  0.00000000E+00  0.00000000E+00  0.00000000E+00
  0.00000000E+00  0.00000000E+00  0.00000000E+00
  0.00000000E+00  0.00000000E+00  0.00000000E+00
  0.00000000E+00  0.00000000E+00  0.00000000E+00
  0.00000000E+00  0.00000000E+00  0.00000000E+00
  0.00000000E+00  0.00000000E+00  0.00000000E+00
  0.00000000E+00  0.00000000E+00  0.00000000E+00
  0.00000000E+00  0.00000000E+00  0.00000000E+00
  0.00000000E+00  0.00000000E+00  0.00000000E+00
  0.00000000E+00  0.00000000E+00  0.00000000E+00
  0.00000000E+00  0.00000000E+00  0.00000000E+00
  0.00000000E+00  0.00000000E+00  0.00000000E+00
  0.00000000E+00  0.00000000E+00  0.00000000E+00
  0.00000000E+00  0.00000000E+00  0.00000000E+00
  0.00000000E+00  0.00000000E+00  0.00000000E+00
  0.00000000E+00  0.00000000E+00  0.00000000E+00
  0.00000000E+00  0.00000000E+00  0.00000000E+00
  0.00000000E+00  0.00000000E+00  0.00000000E+00
  0.00000000E+00  0.00000000E+00  0.00000000E+00
  0.00000000E+00  0.00000000E+00  0.00000000E+00
  0.00000000E+00  0.00000000E+00  0.00000000E+00
  0.00000000E+00  0.00000000E+00  0.00000000E+00
  0.00000000E+00  0.00000000E+00  0.00000000E+00
  0.00000000E+00  0.00000000E+00  0.00000000E+00
  0.00000000E+00  0.00000000E+00  0.00000000E+00
  0.00000000E+00  0.00000000E+00  0.00000000E+00
  0.00000000E+00  0.00000000E+00  0.00000000E+00
  0.00000000E+00  0.00000000E+00  0.00000000E+00
  0.00000000E+00  0.00000000E+00  0.00000000E+00
  0.00000000E+00  0.00000000E+00  0.00000000E+00
  0.00000000E+00  0.00000000E+00  0.00000000E+00
  0.00000000E+00  0.00000000E+00  0.00000000E+00
  0.00000000E+00  0.00000000E+00  0.00000000E+00
  0.00000000E+00  0.00000000E+00  0.00000000E+00
  0.00000000E+00  0.00000000E+00  0.00000000E+00
  0.00000000E+00  0.00000000E+00  0.00000000E+00
  0.00000000E+00  0.00000000E+00  0.00000000E+00
  0.00000000E+00  0.00000000E+00  0.00000000E+00
  0.00000000E+00  0.00000000E+00  0.00000000E+00
  0.00000000E+00  0.00000000E+00  0.00000000E+00
  0.00000000E+00  0.00000000E+00  0.00000000E+00
  0.00000000E+00  0.00000000E+00  0.00000000E+00
  0.00000000E+00  0.00000000E+00  0.00000000E+00
  0.00000000E+00  0.00000000E+00  0.00000000E+00
  0.00000000E+00  0.00000000E+00  0.00000000E+00
  0.00000000E+00  0.00000000E+00  0.00000000E+00
  0.00000000E+00  0.00000000E+00  0.00000000E+00
  0.00000000E+00  0.00000000E+00  0.00000000E+00
  0.00000000E+00  0.00000000E+00  0.00000000E+00
  0.00000000E+00  0.00000000E+00  0.00000000E+00
  0.00000000E+00  0.00000000E+00  0.00000000E+00
  0.00000000E+00  0.00000000E+00  0.00000000E+00
  0.00000000E+00  0.00000000E+00  0.00000000E+00
  0.00000000E+00  0.00000000E+00  0.00000000E+00
  0.00000000E+00  0.00000000E+00  0.00000000E+00
  0.00000000E+00  0.00000000E+00  0.00000000E+00
  0.00000000E+00  0.00000000E+00  0.00000000E+00
  0.00000000E+00  0.00000000E+00  0.00000000E+00
  0.00000000E+00  0.00000000E+00  0.00000000E+00
  0.00000000E+00  0.00000000E+00  0.00000000E+00
  0.00000000E+00  0.00000000E+00  0.00000000E+00
  0.00000000E+00  0.00000000E+00  0.00000000E+00
  0.00000000E+00  0.00000000E+00  0.00000000E+00
  0.00000000E+00  0.00000000E+00  0.00000000E+00
  0.00000000E+00  0.00000000E+00  0.00000000E+00
  0.00000000E+00  0.00000000E+00  0.00000000E+00
  0.00000000E+00  0.00000000E+00  0.00000000E+00
  0.00000000E+00  0.00000000E+00  0.00000000E+00
  0.00000000E+00  0.00000000E+00  0.00000000E+00
  0.00000000E+00  0.00000000E+00  0.00000000E+00
  0.00000000E+00  0.00000000E+00  0.00000000E+00
  0.00000000E+00  0.00000000E+00  0.00000000E+00
  0.00000000E+00  0.00000000E+00  0.00000000E+00
  0.00000000E+00  0.00000000E+00  0.00000000E+00
  0.00000000E+00  0.00000000E+00  0.00000000E+00
  0.00000000E+00  0.00000000E+00  0.00000000E+00
  0.00000000E+00  0.00000000E+00  0.00000000E+00
  0.00000000E+00  0.00000000E+00  0.00000000E+00
  0.00000000E+00  0.00000000E+00  0.00000000E+00
  0.00000000E+00  0.00000000E+00  0.00000000E+00
  0.00000000E+00  0.00000000E+00  0.00000000E+00
  0.00000000E+00  0.00000000E+00  0.00000000E+00
  0.00000000E+00  0.00000000E+00  0.00000000E+00
  0.00000000E+00  0.00000000E+00  0.00000000E+00
  0.00000000E+00  0.00000000E+00  0.00000000E+00
  0.00000000E+00  0.00000000E+00  0.00000000E+00
  0.00000000E+00  0.00000000E+00  0.00000000E+00
  0.00000000E+00  0.00000000E+00  0.00000000E+00
  0.00000000E+00  0.00000000E+00  0.00000000E+00
  0.00000000E+00  0.00000000E+00  0.00000000E+00
  0.00000000E+00  0.00000000E+00  0.00000000E+00
  0.00000000E+00  0.00000000E+00  0.00000000E+00
  0.00000000E+00  0.00000000E+00  0.00000000E+00
  0.00000000E+00  0.00000000E+00  0.00000000E+00
  0.00000000E+00  0.00000000E+00  0.00000000E+00
