Mo36 H4 Se70 C1 O1
1.0
  19.7339992522999985    0.0000000000000000    0.0000000000000000
  -9.8669996262000002   17.0901446708000009    0.0000000000000000
   0.0000000000000000    0.0000000000000000   25.8540000915999997
Mo Se O C H
36 70 1 1 4
direct
   0.1229999116631361    0.0487080599980102    0.5000266575848054 Mo
   0.1269245923439896    0.2162353829171542    0.5003124259368524 Mo
   0.1229559505774913    0.3797962889155673    0.4999149861223713 Mo
   0.1205644580165443    0.5457471158764277    0.5006457472399184 Mo
   0.1200028124351248    0.7127228656414775    0.5011455249514609 Mo
   0.1205925939497918    0.8803069056346234    0.5007573734482333 Mo
   0.2884949588925184    0.0490001541900815    0.4973869889161968 Mo
   0.2958417445158747    0.2185579551811456    0.4921963671352523 Mo
   0.2958292303373992    0.3827917740320548    0.4921225288126238 Mo
   0.2885019095661879    0.5450137701826715    0.4973235248102872 Mo
   0.2872104991907053    0.7125425568694127    0.5003836541411332 Mo
   0.2871826322565896    0.8801231057276885    0.5004514714612301 Mo
   0.4536116330049524    0.0473224688601856    0.5001118157805274 Mo
   0.4499013332180616    0.2151315010388320    0.4946347614176319 Mo
   0.4460810636063585    0.3758348652234862    0.4897117457701866 Mo
   0.4499150393666334    0.5403277921794057    0.4945613463177141 Mo
   0.4536682926119346    0.7118595672736638    0.5000942714160812 Mo
   0.4537024263345883    0.8796302316670966    0.5014180445219349 Mo
   0.6204552939278740    0.0465771346780962    0.5023398138000182 Mo
   0.6186409643650809    0.2129034249321938    0.5008980555085378 Mo
   0.6140512449496192    0.3773416538725021    0.4983041129556487 Mo
   0.6141045223301127    0.5423456486495689    0.4982514458637026 Mo
   0.6187305089992899    0.7113983363624083    0.5008761384358221 Mo
   0.6204783816240007    0.8795307931291125    0.5023595298206802 Mo
   0.7879767415512933    0.0468325119194286    0.5033305455594849 Mo
   0.7871068039858535    0.2131853652605418    0.5028528677937137 Mo
   0.7849587561209828    0.3789273667802637    0.5017692812345452 Mo
   0.7838700484266439    0.5447170052870142    0.5011500860251663 Mo
   0.7850281599928582    0.7116538019002432    0.5017627675036176 Mo
   0.7871126420206507    0.8795547260452978    0.5028770647070651 Mo
   0.9558876244680605    0.0477928218709319    0.5028163443158513 Mo
   0.9559120579623629    0.2137019260135402    0.5027679628663438 Mo
   0.9541192730847536    0.3795951582600806    0.5021604204766035 Mo
   0.9525535563780312    0.5456695881535486    0.5017572524576095 Mo
   0.9525960925491761    0.7123995084021767    0.5018018449769842 Mo
   0.9541610511701606    0.8801211915835645    0.5022552303316090 Mo
   0.0708142730873282    0.1058419760536367    0.5659413812624650 Se
   0.0708116675043922    0.2705887309954251    0.5658972430248245 Se
   0.0676150576608321    0.4351239333102673    0.5656734805130467 Se
   0.0650231230953770    0.6012935749782020    0.5658664027294281 Se
   0.0650487210799370    0.7690854305907249    0.5659449610180026 Se
   0.0676516571927349    0.9380330855472842    0.5657873687311007 Se
   0.2404097586412896    0.1119614189849003    0.5610248297598098 Se
   0.2541013925585580    0.2798705162029563    0.5605293441113759 Se
   0.2403508314504792    0.4339455449824957    0.5609407875616084 Se
   0.2333680894584137    0.5998826965763827    0.5640109090793146 Se
   0.2319422452003343    0.7686223152600792    0.5653514311988013 Se
   0.2333945047451945    0.9390629944415064    0.5640980547044410 Se
   0.3977261567917644    0.1078790371008426    0.5623394759220895 Se
   0.3977315225290849    0.5953619156533279    0.5622875577664755 Se
   0.3978405509798894    0.7668603875771937    0.5654650756634717 Se
   0.3978157861898268    0.9364947556790227    0.5654942268198626 Se
   0.5632070919037248    0.1024017965740297    0.5661006384368059 Se
   0.5562515053019885    0.2679079970471469    0.5629318811957700 Se
   0.5451291540902360    0.4254373119744720    0.5602983978369562 Se
   0.5563040478407253    0.5939961407901179    0.5628407628391655 Se
   0.5632770363978020    0.7664167259145189    0.5661048829637499 Se
   0.5640792457385154    0.9348819974765078    0.5669696352620709 Se
   0.7312794358474061    0.1021817812334677    0.5677701003323377 Se
   0.7290055076601829    0.2683950925726882    0.5667017880826996 Se
   0.7245806863879759    0.4325753707416650    0.5649139836487150 Se
   0.7246037711558280    0.5976005493651516    0.5648894970316439 Se
   0.7290822305500884    0.7662352075564386    0.5667136130227056 Se
   0.7313315066264399    0.9348460740240254    0.5677792327296133 Se
   0.9003395500628789    0.1030098941179760    0.5679215634709671 Se
   0.8994077056286690    0.2691804136017683    0.5674212410468095 Se
   0.8968451859483543    0.4346616689378950    0.5665944863502724 Se
   0.8954250559712423    0.6004415398269209    0.5661960770919950 Se
   0.8968805368624742    0.7677117992112252    0.5666249073681890 Se
   0.8993865323991828    0.9358469872011517    0.5674727764376689 Se
   0.0657478395393630    0.1034850931380215    0.4368427892776824 Se
   0.0657675540279355    0.2677197115725659    0.4367469120830038 Se
   0.0641418273001035    0.4342617180813245    0.4362967509103124 Se
   0.0635380901238712    0.6011722218217515    0.4365817792608149 Se
   0.0635920382702282    0.7679448122767497    0.4366327333489766 Se
   0.0642258626032843    0.9354414726116913    0.4364470534548406 Se
   0.2309639716676496    0.1021493085417094    0.4319016358953280 Se
   0.2323565458220210    0.2688444977209736    0.4302192447819261 Se
   0.2309550845522451    0.4343145684823830    0.4318316494718117 Se
   0.2307334067392501    0.6019876090094216    0.4349179499172861 Se
   0.2309131037511491    0.7682029642166532    0.4360267796108899 Se
   0.2307607268967616    0.9342026461179535    0.4350027785315133 Se
   0.3998042231560070    0.1020168535482846    0.4326310348252107 Se
   0.4005044089145426    0.2686545871577503    0.4249727476627406 Se
   0.4005188001717011    0.4373396336878480    0.4249081311626214 Se
   0.3998579225532330    0.6033841677548124    0.4325774581641488 Se
   0.3987314276843079    0.7691745282566212    0.4359382436399805 Se
   0.3986809414419893    0.9350535792890954    0.4359681985791488 Se
   0.5657881704855353    0.1017770680415532    0.4364432918705730 Se
   0.5640859527850854    0.2670062865410721    0.4334681387520042 Se
   0.5619939833807113    0.4337773603910035    0.4306754400692400 Se
   0.5641496836893901    0.6027317131258558    0.4334134563046076 Se
   0.5658580881864035    0.7696630172168267    0.4364530697772452 Se
   0.5657750225996016    0.9356838300100505    0.4373791123979296 Se
   0.7324889608696831    0.1021086595002073    0.4382179475848703 Se
   0.7314368453029579    0.2679173660140623    0.4372336551771253 Se
   0.7296322057527334    0.4340365667397695    0.4361427956621536 Se
   0.7297127517670490    0.6012229169455604    0.4361199272859679 Se
   0.7315240460329642    0.7691597892942045    0.4372166289530036 Se
   0.7325046355700365    0.9360479591101765    0.4382336220259070 Se
   0.8991356379360630    0.1023584078248832    0.4383715930937248 Se
   0.8985757199802646    0.2680220899373804    0.4380564440269989 Se
   0.8970881698499571    0.4342246419762238    0.4373630012739827 Se
   0.8965171394914219    0.6010351627713384    0.4370435512093606 Se
   0.8972563351097373    0.7685194929005351    0.4374284765580395 Se
   0.8985918586133468    0.9361258021609888    0.4381264662670231 Se
   0.4419668108893389    0.4369323287683120    0.5765110605396296 O
   0.4699153651579924    0.4799754518178703    0.6245960468317089 C
   0.5221672829556795    0.4794415546405346    0.6388302968006168 H
   0.4256970146054330    0.3816372696448736    0.5812599222076502 H
   0.4227617791812026    0.4546910502915156    0.6534767483616279 H
   0.4846728083035177    0.5402781004994136    0.6160979397990806 H
