H4 W48 Se98 C1 O1                       
    1.000000000000000     
    33.0000000000000000    0.0000000000000000    0.0000000000000000
     0.0000000000000000   26.2560005200000006    0.0000000000000000
     0.0000000000000000    0.0000000000000000   18.1299999999999990
   W    Se   O    C    H 
    48    98     1     1     4
Direct
  0.2788393347632194  0.0426733687333893  0.5002907402305610
  0.2857361590436724  0.2772302937719218  0.4958563059743568
  0.2854866964382978  0.5234961428050795  0.5016434619013168
  0.2867890437341885  0.7782546273825162  0.5016929083695629
  0.4540122303331273  0.0356307252030916  0.5003655876845698
  0.4546917569449320  0.2856073961448473  0.4980056921393015
  0.4532672427321245  0.5357062725172028  0.4988272502818063
  0.4543063687672486  0.7856662705948807  0.5013758621524929
  0.6271352520890190  0.0354610984644026  0.5007178082200596
  0.6269259432063805  0.2856311716121098  0.4995365286048923
  0.6264653451326225  0.5356014540210836  0.5007227897542563
  0.6266963003772119  0.7854401346046771  0.5008823826776734
  0.2866207273434114  0.1689661328472880  0.4972134285979308
  0.2881824387172927  0.4152657237838255  0.4894095021551408
  0.2859583469176883  0.6745339012297364  0.5004308191679883
  0.2788225457535418  0.9044291120615142  0.5013803891242787
  0.4545675760734866  0.1604504909607058  0.4989385831500144
  0.4540149861837932  0.4104137166310480  0.4976159581034238
  0.4534491537829766  0.6604484493680900  0.5006276270972876
  0.4541329687918036  0.9103880828692468  0.5011130191367812
  0.6274100909110487  0.1600543081079380  0.4996517444092348
  0.6270429666134021  0.4111127663431517  0.4993704947126503
  0.6268879069343356  0.6600489491962165  0.5004252154249755
  0.6272504670671069  0.9108814467503876  0.5005351061155991
  0.3686581604772954  0.2236366248214452  0.4969037220786774
  0.3673088880285462  0.4724189362977000  0.4958561632238982
  0.3683642781905974  0.7227765714327603  0.5015515873627621
  0.3673029819510703  0.9733018595948053  0.5010116509280778
  0.5415520493947454  0.2227516916468133  0.4991622882576223
  0.5398768114864438  0.4733116454974748  0.4991018707679302
  0.5409302202734096  0.7227064091136981  0.5009093658086385
  0.5403706328210873  0.9731501292622582  0.5006470543986055
  0.7150121702414012  0.2142526818798629  0.4997166315326069
  0.7133293812874655  0.4759607306429317  0.5010146767763999
  0.7146107949043241  0.7138798163051234  0.5004302566834724
  0.7138771246007636  0.9761967960543245  0.5009247376514949
  0.3687180264966159  0.0992995235104317  0.4996558088234124
  0.3680335977172859  0.3479849043371317  0.4967668217913186
  0.3653712099897461  0.5968401365282290  0.5004458009291639
  0.3688346063770993  0.8470835821610621  0.5014138277193467
  0.5404710222230378  0.0978115675698916  0.4999208065921081
  0.5412977223139421  0.3483951245479915  0.4987702810594996
  0.5398511906445904  0.5978585054383245  0.5001432355784416
  0.5412316818540077  0.8482686418663477  0.5010643591782795
  0.7139288179035788  0.0947510116064620  0.5006156979274294
  0.7147531448752673  0.3572294921144561  0.4996565172476366
  0.7132620797375324  0.5951673365317731  0.5013543179251840
  0.7148664331896484  0.8567066463599460  0.5004625754690579
  0.2522781030248211  0.1059542181012745  0.5883569033342440
  0.2428771598616919  0.3489486849188310  0.5415595872522232
  0.2404748500054055  0.5984815766450069  0.4860550899625622
  0.2527649206007325  0.8436337743592830  0.5922204229356822
  0.4255819669787329  0.0985421108179381  0.5933930186104490
  0.4251098296143709  0.3479816437573220  0.5908252105427607
  0.4237039262194102  0.5974517324828454  0.5924815382170578
  0.4257274715597319  0.8482218141253526  0.5951568435397476
  0.5979341191894036  0.0981140562052190  0.5930151822941383
  0.5986699171678680  0.3481942980822836  0.5926751149862497
  0.5972839350898127  0.5979179879973273  0.5934107416778929
  0.5989586042136494  0.8481517083822609  0.5943060659191985
  0.4257653283377749  0.2235302955453093  0.5913436170171167
  0.4244409978510504  0.4724069996903424  0.5906368352339442
  0.4256943176944858  0.7227210045408867  0.5948756209994102
  0.4248860285213141  0.9732538767460426  0.5938891781900040
  0.5990138205020372  0.2230164520682862  0.5929031711999215
  0.5971926962812617  0.4728689887251960  0.5926479789545098
  0.5986584004797706  0.7228105601396635  0.5941472628457589
  0.5979206194428244  0.9731434802451204  0.5935326467856825
  0.3367108435035107  0.0366905197467204  0.5917340186907225
  0.3369104491751926  0.2850948622946845  0.5924123133094668
  0.3375990441647900  0.5330957590276952  0.5966073497202089
  0.3400863168541193  0.7849564473680815  0.5974560027290750
  0.5115030412686963  0.0357187827528307  0.5936905899279736
  0.5122241284007742  0.2856765870924178  0.5914001042259187
  0.5105499859885114  0.5352640118895664  0.5926435230373670
  0.5121896652556188  0.7854997955271017  0.5939760513954369
  0.6848885916226877  0.0355963943236901  0.5974975700313720
  0.6872613727828139  0.2856633634096823  0.5881785213756672
  0.6839220760028368  0.5354164103213606  0.5976968297347085
  0.6872123156045333  0.7853921438309825  0.5891424878216185
  0.3400467423709941  0.1628303130681914  0.5938700550674696
  0.3373674540552045  0.4105185386203161  0.5915879924232783
  0.3354412203218189  0.6599965329393243  0.5967850160060024
  0.3368834919239845  0.9107463482935856  0.5925427941545607
  0.5119592677385540  0.1608680026868257  0.5925379132975266
  0.5112814656704359  0.4103509670637706  0.5915932304856568
  0.5112697797368924  0.6602742101119006  0.5935513876372198
  0.5118497203578514  0.9105903667341408  0.5940265631928625
  0.6854150382790962  0.1582225495804224  0.5960006550508297
  0.6848911175087338  0.4128920439460728  0.5960796180853478
  0.6849137021675418  0.6580716799279784  0.5968246897737259
  0.6853792075420060  0.9129120469966381  0.5966507721025494
  0.2533440089620171  0.1033006424104670  0.4077015014935839
  0.2525462980267292  0.8431453575234400  0.4112048128141126
  0.4257156277571141  0.0975851636336884  0.4059448309873233
  0.4261316420514873  0.3475725180269293  0.4040984963012946
  0.4233041517948095  0.5985428730774984  0.4073566365508228
  0.4256321203144253  0.8480561321896118  0.4074854325199695
  0.5981196537311249  0.0975707889229938  0.4071594517833361
  0.5991033634141303  0.3482298666021322  0.4057980407426101
  0.5976008368308712  0.5980427095466041  0.4074394238508461
  0.5987151959527566  0.8480198751377515  0.4074237095348963
  0.2270882912861296  0.2224812199261876  0.4755025203005232
  0.2376844667991023  0.4675950703957241  0.4297941169099531
  0.2248286642896034  0.7270236092748803  0.5053435280817524
  0.2288436172548103  0.9739102920766243  0.5010426371704924
  0.4265050059933841  0.2228885517774017  0.4044300530159362
  0.4255633277051274  0.4736417453262902  0.4040246268016077
  0.4254852005266798  0.7232290677260735  0.4076331790418664
  0.4247395038044885  0.9726977023592838  0.4078569716568268
  0.5992769242683522  0.2228212832508660  0.4060301059717446
  0.5977869885742138  0.4735399236764124  0.4067845123672811
  0.5984918592769901  0.7230130412546529  0.4073865356838269
  0.5979453802499179  0.9730558680449306  0.4077059031562627
  0.3367131628971052  0.0354233964468520  0.4089681908067817
  0.3374135687126412  0.2858904950096672  0.4007705732793525
  0.3352165577388462  0.5362347580605018  0.4032184563108814
  0.3400471051178116  0.7848084957832526  0.4055879480465236
  0.5114470284203492  0.0351720473998967  0.4070049087613867
  0.5128385863653548  0.2853783110714119  0.4058564827742188
  0.5110562249351744  0.5360840718523860  0.4060459047094582
  0.5120032227657418  0.7856066399007204  0.4083718686891373
  0.6857078756161741  0.0353392577543659  0.4048095197113071
  0.6874830563882028  0.2856828551593580  0.4112949230500931
  0.6853583990328005  0.5357042468693507  0.4055170464794386
  0.6871022690485447  0.7853388996370683  0.4122442657866898
  0.3403844236904732  0.1606379102215172  0.4027348848756489
  0.3411755832715357  0.4092656570844539  0.3973714852598746
  0.3362708964351953  0.6611816033648878  0.4048096847399520
  0.3368173885687895  0.9103108108144369  0.4101166820880948
  0.5123296856019692  0.1603319743404938  0.4061813317194165
  0.5120602137636681  0.4106013889807798  0.4053548732199914
  0.5112277629078079  0.6607772917312715  0.4075710985777974
  0.5117297028483918  0.9103287999942609  0.4078177123822897
  0.6852484518656681  0.1580529510068516  0.4034288830047359
  0.6848669033525212  0.4131318719046533  0.4031155368022041
  0.6845407906162109  0.6582041278910609  0.4039231036115964
  0.6849856849156808  0.9127195774956220  0.4041407064764684
  0.7735285693977616  0.9132030019992996  0.4933711382414572
  0.7676785215190165  0.7852968147171211  0.5031911635662141
  0.7732040342086606  0.6574644964557521  0.4909793453571822
  0.7720307272633420  0.5355795313331697  0.5170535102997036
  0.7733250129728475  0.4136955420317676  0.4908082307276445
  0.7678024477255008  0.2857120069972723  0.5025836376175334
  0.7736350870045356  0.1576603702908272  0.4930032965126259
  0.7729670919254019  0.0354464367820668  0.5117482763545098
  0.2416026519561782  0.5058562607047605  0.6048841841298582
  0.1976559840956966  0.5078887666436600  0.6037887951867660
  0.1858614031403718  0.4943250616859345  0.6568793836504838
  0.1895645100792223  0.5478971904527725  0.5953435111576724
  0.2500395400100643  0.4709170753944250  0.6159415990691031
  0.1854940329411860  0.4848604231797324  0.5581039355082424
 
  0.00000000E+00  0.00000000E+00  0.00000000E+00
  0.00000000E+00  0.00000000E+00  0.00000000E+00
  0.00000000E+00  0.00000000E+00  0.00000000E+00
  0.00000000E+00  0.00000000E+00  0.00000000E+00
  0.00000000E+00  0.00000000E+00  0.00000000E+00
  0.00000000E+00  0.00000000E+00  0.00000000E+00
  0.00000000E+00  0.00000000E+00  0.00000000E+00
  0.00000000E+00  0.00000000E+00  0.00000000E+00
  0.00000000E+00  0.00000000E+00  0.00000000E+00
  0.00000000E+00  0.00000000E+00  0.00000000E+00
  0.00000000E+00  0.00000000E+00  0.00000000E+00
  0.00000000E+00  0.00000000E+00  0.00000000E+00
  0.00000000E+00  0.00000000E+00  0.00000000E+00
  0.00000000E+00  0.00000000E+00  0.00000000E+00
  0.00000000E+00  0.00000000E+00  0.00000000E+00
  0.00000000E+00  0.00000000E+00  0.00000000E+00
  0.00000000E+00  0.00000000E+00  0.00000000E+00
  0.00000000E+00  0.00000000E+00  0.00000000E+00
  0.00000000E+00  0.00000000E+00  0.00000000E+00
  0.00000000E+00  0.00000000E+00  0.00000000E+00
  0.00000000E+00  0.00000000E+00  0.00000000E+00
  0.00000000E+00  0.00000000E+00  0.00000000E+00
  0.00000000E+00  0.00000000E+00  0.00000000E+00
  0.00000000E+00  0.00000000E+00  0.00000000E+00
  0.00000000E+00  0.00000000E+00  0.00000000E+00
  0.00000000E+00  0.00000000E+00  0.00000000E+00
  0.00000000E+00  0.00000000E+00  0.00000000E+00
  0.00000000E+00  0.00000000E+00  0.00000000E+00
  0.00000000E+00  0.00000000E+00  0.00000000E+00
  0.00000000E+00  0.00000000E+00  0.00000000E+00
  0.00000000E+00  0.00000000E+00  0.00000000E+00
  0.00000000E+00  0.00000000E+00  0.00000000E+00
  0.00000000E+00  0.00000000E+00  0.00000000E+00
  0.00000000E+00  0.00000000E+00  0.00000000E+00
  0.00000000E+00  0.00000000E+00  0.00000000E+00
  0.00000000E+00  0.00000000E+00  0.00000000E+00
  0.00000000E+00  0.00000000E+00  0.00000000E+00
  0.00000000E+00  0.00000000E+00  0.00000000E+00
  0.00000000E+00  0.00000000E+00  0.00000000E+00
  0.00000000E+00  0.00000000E+00  0.00000000E+00
  0.00000000E+00  0.00000000E+00  0.00000000E+00
  0.00000000E+00  0.00000000E+00  0.00000000E+00
  0.00000000E+00  0.00000000E+00  0.00000000E+00
  0.00000000E+00  0.00000000E+00  0.00000000E+00
  0.00000000E+00  0.00000000E+00  0.00000000E+00
  0.00000000E+00  0.00000000E+00  0.00000000E+00
  0.00000000E+00  0.00000000E+00  0.00000000E+00
  0.00000000E+00  0.00000000E+00  0.00000000E+00
  0.00000000E+00  0.00000000E+00  0.00000000E+00
  0.00000000E+00  0.00000000E+00  0.00000000E+00
  0.00000000E+00  0.00000000E+00  0.00000000E+00
  0.00000000E+00  0.00000000E+00  0.00000000E+00
  0.00000000E+00  0.00000000E+00  0.00000000E+00
  0.00000000E+00  0.00000000E+00  0.00000000E+00
  0.00000000E+00  0.00000000E+00  0.00000000E+00
  0.00000000E+00  0.00000000E+00  0.00000000E+00
  0.00000000E+00  0.00000000E+00  0.00000000E+00
  0.00000000E+00  0.00000000E+00  0.00000000E+00
  0.00000000E+00  0.00000000E+00  0.00000000E+00
  0.00000000E+00  0.00000000E+00  0.00000000E+00
  0.00000000E+00  0.00000000E+00  0.00000000E+00
  0.00000000E+00  0.00000000E+00  0.00000000E+00
  0.00000000E+00  0.00000000E+00  0.00000000E+00
  0.00000000E+00  0.00000000E+00  0.00000000E+00
  0.00000000E+00  0.00000000E+00  0.00000000E+00
  0.00000000E+00  0.00000000E+00  0.00000000E+00
  0.00000000E+00  0.00000000E+00  0.00000000E+00
  0.00000000E+00  0.00000000E+00  0.00000000E+00
  0.00000000E+00  0.00000000E+00  0.00000000E+00
  0.00000000E+00  0.00000000E+00  0.00000000E+00
  0.00000000E+00  0.00000000E+00  0.00000000E+00
  0.00000000E+00  0.00000000E+00  0.00000000E+00
  0.00000000E+00  0.00000000E+00  0.00000000E+00
  0.00000000E+00  0.00000000E+00  0.00000000E+00
  0.00000000E+00  0.00000000E+00  0.00000000E+00
  0.00000000E+00  0.00000000E+00  0.00000000E+00
  0.00000000E+00  0.00000000E+00  0.00000000E+00
  0.00000000E+00  0.00000000E+00  0.00000000E+00
  0.00000000E+00  0.00000000E+00  0.00000000E+00
  0.00000000E+00  0.00000000E+00  0.00000000E+00
  0.00000000E+00  0.00000000E+00  0.00000000E+00
  0.00000000E+00  0.00000000E+00  0.00000000E+00
  0.00000000E+00  0.00000000E+00  0.00000000E+00
  0.00000000E+00  0.00000000E+00  0.00000000E+00
  0.00000000E+00  0.00000000E+00  0.00000000E+00
  0.00000000E+00  0.00000000E+00  0.00000000E+00
  0.00000000E+00  0.00000000E+00  0.00000000E+00
  0.00000000E+00  0.00000000E+00  0.00000000E+00
  0.00000000E+00  0.00000000E+00  0.00000000E+00
  0.00000000E+00  0.00000000E+00  0.00000000E+00
  0.00000000E+00  0.00000000E+00  0.00000000E+00
  0.00000000E+00  0.00000000E+00  0.00000000E+00
  0.00000000E+00  0.00000000E+00  0.00000000E+00
  0.00000000E+00  0.00000000E+00  0.00000000E+00
  0.00000000E+00  0.00000000E+00  0.00000000E+00
  0.00000000E+00  0.00000000E+00  0.00000000E+00
  0.00000000E+00  0.00000000E+00  0.00000000E+00
  0.00000000E+00  0.00000000E+00  0.00000000E+00
  0.00000000E+00  0.00000000E+00  0.00000000E+00
  0.00000000E+00  0.00000000E+00  0.00000000E+00
  0.00000000E+00  0.00000000E+00  0.00000000E+00
  0.00000000E+00  0.00000000E+00  0.00000000E+00
  0.00000000E+00  0.00000000E+00  0.00000000E+00
  0.00000000E+00  0.00000000E+00  0.00000000E+00
  0.00000000E+00  0.00000000E+00  0.00000000E+00
  0.00000000E+00  0.00000000E+00  0.00000000E+00
  0.00000000E+00  0.00000000E+00  0.00000000E+00
  0.00000000E+00  0.00000000E+00  0.00000000E+00
  0.00000000E+00  0.00000000E+00  0.00000000E+00
  0.00000000E+00  0.00000000E+00  0.00000000E+00
  0.00000000E+00  0.00000000E+00  0.00000000E+00
  0.00000000E+00  0.00000000E+00  0.00000000E+00
  0.00000000E+00  0.00000000E+00  0.00000000E+00
  0.00000000E+00  0.00000000E+00  0.00000000E+00
  0.00000000E+00  0.00000000E+00  0.00000000E+00
  0.00000000E+00  0.00000000E+00  0.00000000E+00
  0.00000000E+00  0.00000000E+00  0.00000000E+00
  0.00000000E+00  0.00000000E+00  0.00000000E+00
  0.00000000E+00  0.00000000E+00  0.00000000E+00
  0.00000000E+00  0.00000000E+00  0.00000000E+00
  0.00000000E+00  0.00000000E+00  0.00000000E+00
  0.00000000E+00  0.00000000E+00  0.00000000E+00
  0.00000000E+00  0.00000000E+00  0.00000000E+00
  0.00000000E+00  0.00000000E+00  0.00000000E+00
  0.00000000E+00  0.00000000E+00  0.00000000E+00
  0.00000000E+00  0.00000000E+00  0.00000000E+00
  0.00000000E+00  0.00000000E+00  0.00000000E+00
  0.00000000E+00  0.00000000E+00  0.00000000E+00
  0.00000000E+00  0.00000000E+00  0.00000000E+00
  0.00000000E+00  0.00000000E+00  0.00000000E+00
  0.00000000E+00  0.00000000E+00  0.00000000E+00
  0.00000000E+00  0.00000000E+00  0.00000000E+00
  0.00000000E+00  0.00000000E+00  0.00000000E+00
  0.00000000E+00  0.00000000E+00  0.00000000E+00
  0.00000000E+00  0.00000000E+00  0.00000000E+00
  0.00000000E+00  0.00000000E+00  0.00000000E+00
  0.00000000E+00  0.00000000E+00  0.00000000E+00
  0.00000000E+00  0.00000000E+00  0.00000000E+00
  0.00000000E+00  0.00000000E+00  0.00000000E+00
  0.00000000E+00  0.00000000E+00  0.00000000E+00
  0.00000000E+00  0.00000000E+00  0.00000000E+00
  0.00000000E+00  0.00000000E+00  0.00000000E+00
  0.00000000E+00  0.00000000E+00  0.00000000E+00
  0.00000000E+00  0.00000000E+00  0.00000000E+00
  0.00000000E+00  0.00000000E+00  0.00000000E+00
  0.00000000E+00  0.00000000E+00  0.00000000E+00
  0.00000000E+00  0.00000000E+00  0.00000000E+00
  0.00000000E+00  0.00000000E+00  0.00000000E+00
  0.00000000E+00  0.00000000E+00  0.00000000E+00
  0.00000000E+00  0.00000000E+00  0.00000000E+00
  0.00000000E+00  0.00000000E+00  0.00000000E+00
  0.00000000E+00  0.00000000E+00  0.00000000E+00
