H4 W48 Se98 C1 O1                       
   1.00000000000000     
    33.0000000000000000    0.0000000000000000    0.0000000000000000
     0.0000000000000000   26.2560005200000006    0.0000000000000000
     0.0000000000000000    0.0000000000000000   18.1299999999999990
   W    Se   O    C    H 
    48    98     1     1     4
Direct
  0.2789093819757851  0.0428471824671552  0.5007645092602107
  0.2857035825019563  0.2772483593632050  0.4951474845604548
  0.2853243986489579  0.5237299399040117  0.5000126506862004
  0.2868583314746473  0.7787686135933618  0.5018362471390984
  0.4540974274658517  0.0358042150105876  0.5009591880295408
  0.4547566442606542  0.2857542604524423  0.4978338444491862
  0.4532020349822741  0.5358592116756404  0.4983286689558787
  0.4543391783301252  0.7858332810323402  0.5016784061612694
  0.6272352548189007  0.0355502888480751  0.5013803252308505
  0.6269643464578980  0.2857298912850903  0.4998281821611557
  0.6265246627740299  0.5357340984353807  0.5008741537225539
  0.6267296376002572  0.7855450498468082  0.5013842508209706
  0.2867733729683130  0.1692145825861653  0.4972103907031832
  0.2882655087584708  0.4147798789619875  0.4878358753482394
  0.2858820862703190  0.6754649199938468  0.5001391805459069
  0.2788612133004661  0.9047786389457320  0.5018977819596010
  0.4546230212205495  0.1605807692649891  0.4991763986042669
  0.4540425527857693  0.4105621356024599  0.4970743641551595
  0.4533758812905140  0.6605811542021620  0.5005301659783954
  0.4542124527304515  0.9105685698757978  0.5017160895114827
  0.6275042916941012  0.1601431271497515  0.5001568083098551
  0.6270512174583514  0.4112489604897948  0.4996142732604936
  0.6268685173103279  0.6601736724297269  0.5006644861219938
  0.6273392528553638  0.9109941216571296  0.5011627561500506
  0.3687134637691936  0.2237847743011057  0.4966856908381737
  0.3672730751825211  0.4725612002420089  0.4948150127390939
  0.3683467935069351  0.7230388795944364  0.5014032716765084
  0.3673770966656902  0.9735321351936960  0.5016659264663418
  0.5416304345641576  0.2228558771288876  0.4994154888925212
  0.5398426091017381  0.4734891013203874  0.4989686790706121
  0.5408995866634384  0.7228332075125602  0.5011559639507734
  0.5404856797414587  0.9732491429873475  0.5013144701542832
  0.7150686042529500  0.2143222095302221  0.5002847977340457
  0.7134048765133795  0.4761797388806503  0.5014985112476251
  0.7146547345716832  0.7140087817582585  0.5010582205013222
  0.7139853614085153  0.9762627277749349  0.5015479942627731
  0.3688127107943066  0.0994414399115767  0.4999686688983183
  0.3681350237320885  0.3480906661572399  0.4960149602299286
  0.3651649257954037  0.5970433298816840  0.4997820997246936
  0.3689283324482795  0.8472897164501614  0.5018582737290016
  0.5405590586082106  0.0979698949865328  0.5004228359295959
  0.5413261462225091  0.3485209792813552  0.4988078107506804
  0.5398304891047930  0.5979778288368160  0.5001024619670422
  0.5412993340003417  0.8483568313302972  0.5016089909155705
  0.7140748962693305  0.0948290252588494  0.5012744146398213
  0.7148030408101727  0.3572792803682205  0.5002019726231389
  0.7133305919951540  0.5951372774796615  0.5018357064847835
  0.7149526773418294  0.8568348993178900  0.5010234609752744
  0.2523589468445022  0.1062244547470227  0.5885930261316453
  0.2426494418633173  0.3491224103161432  0.5401916747657399
  0.2404059315808088  0.5985448043452982  0.4918744552791287
  0.2527449124767866  0.8438812492904487  0.5925632871422988
  0.4256549627493749  0.0988147539470824  0.5938056949363104
  0.4250429332671616  0.3482311355320166  0.5902995349822322
  0.4234088044257063  0.5974307307832962  0.5920229689384447
  0.4258138172566444  0.8483014045397815  0.5956575411257758
  0.5979839769623388  0.0982638963252063  0.5935474877292031
  0.5986150251132389  0.3483595693034733  0.5927933031286968
  0.5972130419247198  0.5979944782157044  0.5934129064621106
  0.5990134105288814  0.8482209534105283  0.5948464225471106
  0.4257370335577936  0.2238396152306203  0.5912337161818003
  0.4241930888361834  0.4725443666449808  0.5898737011809509
  0.4255970091641780  0.7227296774971819  0.5948760128806097
  0.4249795009780128  0.9734507043004712  0.5945649999962885
  0.5990345523300268  0.2231789633702572  0.5932222963889611
  0.5970561965818615  0.4730446653816487  0.5926242546294178
  0.5985966670367339  0.7228521218001289  0.5944367302568839
  0.5980231956695558  0.9732346328256655  0.5942033065487672
  0.3367655462246270  0.0369902338776241  0.5922441681489576
  0.3367647853818929  0.2853490802321027  0.5917064238808344
  0.3371913239939187  0.5330492292168486  0.5954627230880570
  0.3401481044004931  0.7850173359308049  0.5977244409813581
  0.5116165942637363  0.0359029380583584  0.5942475612313446
  0.5121906611376541  0.2858721865553923  0.5914050043000293
  0.5103855738827444  0.5354106131073749  0.5923753708644972
  0.5121933391930145  0.7855214608891343  0.5943340551717815
  0.6849932910384282  0.0356802639276811  0.5981454628898243
  0.6872120712463383  0.2857584343992590  0.5885410908044427
  0.6839040953539910  0.5355323963254174  0.5980566444366522
  0.6872092685881035  0.7855358162004221  0.5896373994559844
  0.3400987793498623  0.1631238055915574  0.5938681298939213
  0.3372552234769469  0.4106114344950899  0.5904225875179907
  0.3353639945981043  0.6601402926183775  0.5963879786520581
  0.3369634386738448  0.9108597567013150  0.5930352201410429
  0.5119908707326353  0.1610937529776280  0.5928566484094944
  0.5111494497970489  0.4105651082377162  0.5913410317829929
  0.5111463835064824  0.6602824681555488  0.5935193251148383
  0.5119408290281793  0.9106401989945333  0.5946191647942934
  0.6854724840460540  0.1583001186977776  0.5965410227514542
  0.6848144133321949  0.4130061387912164  0.5963935632709669
  0.6848017843950057  0.6581623408097208  0.5971638421355691
  0.6854794057472107  0.9130315624196880  0.5972178762053698
  0.2533391056465546  0.1033148006839943  0.4080563818632889
  0.2526680617598359  0.8437367260309373  0.4113876367803100
  0.4258249125349363  0.0976155008045068  0.4062737666300639
  0.4263172517870853  0.3475728037115156  0.4035889990383528
  0.4232839159397426  0.5988598434678378  0.4069846521689976
  0.4257060651700602  0.8483493118651391  0.4079340902816299
  0.5982262127959651  0.0976064946112206  0.4077077076242796
  0.5991978367896933  0.3482859355309409  0.4059682186223443
  0.5976547380977498  0.5981849791156536  0.4075150301630378
  0.5988081234152931  0.8481681379948562  0.4079856142564938
  0.2269799404993728  0.2223393704269479  0.4763017498591475
  0.2389254511475440  0.4674844780701197  0.4257357652274854
  0.2246836653324660  0.7277048635301360  0.5039172277469730
  0.2287657819209603  0.9741767510425883  0.5018734336598557
  0.4266071242691306  0.2228858040357708  0.4044146449267267
  0.4256914089795558  0.4737954234285848  0.4032996709483650
  0.4255133542360564  0.7235455807042649  0.4076663322654755
  0.4248359439908657  0.9729019497986339  0.4084662698706720
  0.5994155202395878  0.2228087429193035  0.4063685415341163
  0.5978781153396385  0.4736529190546440  0.4068534484876090
  0.5985106208686055  0.7232200391818843  0.4076728163843944
  0.5980399425203254  0.9731600688108244  0.4083289651555939
  0.3367847068010708  0.0355695341381148  0.4095347505362998
  0.3374556052612844  0.2858128293867844  0.4002554928240986
  0.3352499366192875  0.5366126814556571  0.4021599890893625
  0.3400770278104386  0.7853122381590596  0.4057024431301940
  0.5115716075796025  0.0352544374903613  0.4076606850112336
  0.5129786058775987  0.2853929895970245  0.4058954125172867
  0.5111179987641116  0.5362748631977731  0.4057529070414556
  0.5120321533115281  0.7858570278099912  0.4086926331038264
  0.6858357358881242  0.0354210308380702  0.4054853333465657
  0.6876201542238800  0.2857161248879939  0.4117628181588143
  0.6854845534623845  0.5358197610858183  0.4057592064606411
  0.6871929933812511  0.7854648085193700  0.4128348726450334
  0.3404824371458242  0.1605986577802724  0.4027552574570819
  0.3415550279205923  0.4091944293654690  0.3963377325489870
  0.3360584005630281  0.6616135858242246  0.4043965367423427
  0.3369438147693801  0.9106203912015364  0.4107407543405501
  0.5124348502565346  0.1603710767434185  0.4064635462270645
  0.5122328338510789  0.4106956685816133  0.4051231174887160
  0.5112276676818704  0.6609859097956585  0.4076084342738872
  0.5118152428551712  0.9104821631766022  0.4083977513155982
  0.6853763811385348  0.1580522893692461  0.4040272615815738
  0.6850066452400676  0.4132301840890382  0.4036381656883551
  0.6847134873419924  0.6582934844472009  0.4044528206614744
  0.6850414266403960  0.9128410178897991  0.4047110336174634
  0.7736366961619316  0.9132695261037193  0.4935341235547523
  0.7677166063033074  0.7853304211130715  0.5038000449777956
  0.7732747578557038  0.6575517529122119  0.4925464182717538
  0.7721568491000340  0.5356721383262046  0.5167346159275039
  0.7734002054886988  0.4137787821618110  0.4924305770236196
  0.7678414675905540  0.2858068497116426  0.5032349866137099
  0.7737237695624670  0.1578076259455738  0.4933787581032431
  0.7731045728660539  0.0354853665807571  0.5126930588925986
  0.2407918827949860  0.5016931098207441  0.6021486647472050
  0.1968714919464147  0.5048960001448496  0.6006205820958423
  0.1840462313189267  0.4791996811551954  0.6421411652189174
  0.1890576290442860  0.5444730163395798  0.6135872751817456
  0.2485728932198885  0.4657737978824498  0.6065901068257092
  0.1851888200914295  0.4951088614353215  0.5454279258299580
 
  0.00000000E+00  0.00000000E+00  0.00000000E+00
  0.00000000E+00  0.00000000E+00  0.00000000E+00
  0.00000000E+00  0.00000000E+00  0.00000000E+00
  0.00000000E+00  0.00000000E+00  0.00000000E+00
  0.00000000E+00  0.00000000E+00  0.00000000E+00
  0.00000000E+00  0.00000000E+00  0.00000000E+00
  0.00000000E+00  0.00000000E+00  0.00000000E+00
  0.00000000E+00  0.00000000E+00  0.00000000E+00
  0.00000000E+00  0.00000000E+00  0.00000000E+00
  0.00000000E+00  0.00000000E+00  0.00000000E+00
  0.00000000E+00  0.00000000E+00  0.00000000E+00
  0.00000000E+00  0.00000000E+00  0.00000000E+00
  0.00000000E+00  0.00000000E+00  0.00000000E+00
  0.00000000E+00  0.00000000E+00  0.00000000E+00
  0.00000000E+00  0.00000000E+00  0.00000000E+00
  0.00000000E+00  0.00000000E+00  0.00000000E+00
  0.00000000E+00  0.00000000E+00  0.00000000E+00
  0.00000000E+00  0.00000000E+00  0.00000000E+00
  0.00000000E+00  0.00000000E+00  0.00000000E+00
  0.00000000E+00  0.00000000E+00  0.00000000E+00
  0.00000000E+00  0.00000000E+00  0.00000000E+00
  0.00000000E+00  0.00000000E+00  0.00000000E+00
  0.00000000E+00  0.00000000E+00  0.00000000E+00
  0.00000000E+00  0.00000000E+00  0.00000000E+00
  0.00000000E+00  0.00000000E+00  0.00000000E+00
  0.00000000E+00  0.00000000E+00  0.00000000E+00
  0.00000000E+00  0.00000000E+00  0.00000000E+00
  0.00000000E+00  0.00000000E+00  0.00000000E+00
  0.00000000E+00  0.00000000E+00  0.00000000E+00
  0.00000000E+00  0.00000000E+00  0.00000000E+00
  0.00000000E+00  0.00000000E+00  0.00000000E+00
  0.00000000E+00  0.00000000E+00  0.00000000E+00
  0.00000000E+00  0.00000000E+00  0.00000000E+00
  0.00000000E+00  0.00000000E+00  0.00000000E+00
  0.00000000E+00  0.00000000E+00  0.00000000E+00
  0.00000000E+00  0.00000000E+00  0.00000000E+00
  0.00000000E+00  0.00000000E+00  0.00000000E+00
  0.00000000E+00  0.00000000E+00  0.00000000E+00
  0.00000000E+00  0.00000000E+00  0.00000000E+00
  0.00000000E+00  0.00000000E+00  0.00000000E+00
  0.00000000E+00  0.00000000E+00  0.00000000E+00
  0.00000000E+00  0.00000000E+00  0.00000000E+00
  0.00000000E+00  0.00000000E+00  0.00000000E+00
  0.00000000E+00  0.00000000E+00  0.00000000E+00
  0.00000000E+00  0.00000000E+00  0.00000000E+00
  0.00000000E+00  0.00000000E+00  0.00000000E+00
  0.00000000E+00  0.00000000E+00  0.00000000E+00
  0.00000000E+00  0.00000000E+00  0.00000000E+00
  0.00000000E+00  0.00000000E+00  0.00000000E+00
  0.00000000E+00  0.00000000E+00  0.00000000E+00
  0.00000000E+00  0.00000000E+00  0.00000000E+00
  0.00000000E+00  0.00000000E+00  0.00000000E+00
  0.00000000E+00  0.00000000E+00  0.00000000E+00
  0.00000000E+00  0.00000000E+00  0.00000000E+00
  0.00000000E+00  0.00000000E+00  0.00000000E+00
  0.00000000E+00  0.00000000E+00  0.00000000E+00
  0.00000000E+00  0.00000000E+00  0.00000000E+00
  0.00000000E+00  0.00000000E+00  0.00000000E+00
  0.00000000E+00  0.00000000E+00  0.00000000E+00
  0.00000000E+00  0.00000000E+00  0.00000000E+00
  0.00000000E+00  0.00000000E+00  0.00000000E+00
  0.00000000E+00  0.00000000E+00  0.00000000E+00
  0.00000000E+00  0.00000000E+00  0.00000000E+00
  0.00000000E+00  0.00000000E+00  0.00000000E+00
  0.00000000E+00  0.00000000E+00  0.00000000E+00
  0.00000000E+00  0.00000000E+00  0.00000000E+00
  0.00000000E+00  0.00000000E+00  0.00000000E+00
  0.00000000E+00  0.00000000E+00  0.00000000E+00
  0.00000000E+00  0.00000000E+00  0.00000000E+00
  0.00000000E+00  0.00000000E+00  0.00000000E+00
  0.00000000E+00  0.00000000E+00  0.00000000E+00
  0.00000000E+00  0.00000000E+00  0.00000000E+00
  0.00000000E+00  0.00000000E+00  0.00000000E+00
  0.00000000E+00  0.00000000E+00  0.00000000E+00
  0.00000000E+00  0.00000000E+00  0.00000000E+00
  0.00000000E+00  0.00000000E+00  0.00000000E+00
  0.00000000E+00  0.00000000E+00  0.00000000E+00
  0.00000000E+00  0.00000000E+00  0.00000000E+00
  0.00000000E+00  0.00000000E+00  0.00000000E+00
  0.00000000E+00  0.00000000E+00  0.00000000E+00
  0.00000000E+00  0.00000000E+00  0.00000000E+00
  0.00000000E+00  0.00000000E+00  0.00000000E+00
  0.00000000E+00  0.00000000E+00  0.00000000E+00
  0.00000000E+00  0.00000000E+00  0.00000000E+00
  0.00000000E+00  0.00000000E+00  0.00000000E+00
  0.00000000E+00  0.00000000E+00  0.00000000E+00
  0.00000000E+00  0.00000000E+00  0.00000000E+00
  0.00000000E+00  0.00000000E+00  0.00000000E+00
  0.00000000E+00  0.00000000E+00  0.00000000E+00
  0.00000000E+00  0.00000000E+00  0.00000000E+00
  0.00000000E+00  0.00000000E+00  0.00000000E+00
  0.00000000E+00  0.00000000E+00  0.00000000E+00
  0.00000000E+00  0.00000000E+00  0.00000000E+00
  0.00000000E+00  0.00000000E+00  0.00000000E+00
  0.00000000E+00  0.00000000E+00  0.00000000E+00
  0.00000000E+00  0.00000000E+00  0.00000000E+00
  0.00000000E+00  0.00000000E+00  0.00000000E+00
  0.00000000E+00  0.00000000E+00  0.00000000E+00
  0.00000000E+00  0.00000000E+00  0.00000000E+00
  0.00000000E+00  0.00000000E+00  0.00000000E+00
  0.00000000E+00  0.00000000E+00  0.00000000E+00
  0.00000000E+00  0.00000000E+00  0.00000000E+00
  0.00000000E+00  0.00000000E+00  0.00000000E+00
  0.00000000E+00  0.00000000E+00  0.00000000E+00
  0.00000000E+00  0.00000000E+00  0.00000000E+00
  0.00000000E+00  0.00000000E+00  0.00000000E+00
  0.00000000E+00  0.00000000E+00  0.00000000E+00
  0.00000000E+00  0.00000000E+00  0.00000000E+00
  0.00000000E+00  0.00000000E+00  0.00000000E+00
  0.00000000E+00  0.00000000E+00  0.00000000E+00
  0.00000000E+00  0.00000000E+00  0.00000000E+00
  0.00000000E+00  0.00000000E+00  0.00000000E+00
  0.00000000E+00  0.00000000E+00  0.00000000E+00
  0.00000000E+00  0.00000000E+00  0.00000000E+00
  0.00000000E+00  0.00000000E+00  0.00000000E+00
  0.00000000E+00  0.00000000E+00  0.00000000E+00
  0.00000000E+00  0.00000000E+00  0.00000000E+00
  0.00000000E+00  0.00000000E+00  0.00000000E+00
  0.00000000E+00  0.00000000E+00  0.00000000E+00
  0.00000000E+00  0.00000000E+00  0.00000000E+00
  0.00000000E+00  0.00000000E+00  0.00000000E+00
  0.00000000E+00  0.00000000E+00  0.00000000E+00
  0.00000000E+00  0.00000000E+00  0.00000000E+00
  0.00000000E+00  0.00000000E+00  0.00000000E+00
  0.00000000E+00  0.00000000E+00  0.00000000E+00
  0.00000000E+00  0.00000000E+00  0.00000000E+00
  0.00000000E+00  0.00000000E+00  0.00000000E+00
  0.00000000E+00  0.00000000E+00  0.00000000E+00
  0.00000000E+00  0.00000000E+00  0.00000000E+00
  0.00000000E+00  0.00000000E+00  0.00000000E+00
  0.00000000E+00  0.00000000E+00  0.00000000E+00
  0.00000000E+00  0.00000000E+00  0.00000000E+00
  0.00000000E+00  0.00000000E+00  0.00000000E+00
  0.00000000E+00  0.00000000E+00  0.00000000E+00
  0.00000000E+00  0.00000000E+00  0.00000000E+00
  0.00000000E+00  0.00000000E+00  0.00000000E+00
  0.00000000E+00  0.00000000E+00  0.00000000E+00
  0.00000000E+00  0.00000000E+00  0.00000000E+00
  0.00000000E+00  0.00000000E+00  0.00000000E+00
  0.00000000E+00  0.00000000E+00  0.00000000E+00
  0.00000000E+00  0.00000000E+00  0.00000000E+00
  0.00000000E+00  0.00000000E+00  0.00000000E+00
  0.00000000E+00  0.00000000E+00  0.00000000E+00
  0.00000000E+00  0.00000000E+00  0.00000000E+00
  0.00000000E+00  0.00000000E+00  0.00000000E+00
  0.00000000E+00  0.00000000E+00  0.00000000E+00
  0.00000000E+00  0.00000000E+00  0.00000000E+00
  0.00000000E+00  0.00000000E+00  0.00000000E+00
  0.00000000E+00  0.00000000E+00  0.00000000E+00
  0.00000000E+00  0.00000000E+00  0.00000000E+00
  0.00000000E+00  0.00000000E+00  0.00000000E+00
  0.00000000E+00  0.00000000E+00  0.00000000E+00
