H4 W36 Se71 C1 O1                       
   1.00000000000000     
    19.6919994353999996    0.0000000000000000    0.0000000000000000
    -9.8459997176999998   17.0537717624000003    0.0000000000000000
     0.0000000000000000    0.0000000000000000   25.9200000762999991
   W    Se   O    C    H 
    36    71     1     1     4
Direct
  0.1224621580857288  0.0469816115139633  0.4986245074468061
  0.1233455803445768  0.2140805552232166  0.4981488849638509
  0.1233555064936596  0.3794812449495034  0.4981709811916185
  0.1224226145852025  0.5456478394951617  0.4986196258237684
  0.1220435047077519  0.7125516084364493  0.4990028370608536
  0.1220593392222737  0.8796469793598245  0.4990133643119056
  0.2888556004482519  0.0470078644483322  0.4987228946279885
  0.2898398991691816  0.2154338532489106  0.4965726196198925
  0.2957419538209496  0.3830272044384767  0.4938653958800421
  0.2896957896681888  0.5446224608487805  0.4965661802552387
  0.2888809733413912  0.7120883070926253  0.4986686685278488
  0.2886272004640682  0.8794286079328154  0.4992609920936096
  0.4550559328178660  0.0465430014660954  0.4995391306878212
  0.4551022635053540  0.2141782648887576  0.4982838469366652
  0.4516212418115794  0.3831669477759913  0.4938871994442560
  0.4515855212307301  0.5386978378382615  0.4938791390323453
  0.4551932806995449  0.7112655482454134  0.4982167657332064
  0.4551232942573217  0.8788562744251274  0.4994839115005454
  0.6217799998536839  0.0460377125576851  0.4999184189107501
  0.6216012901854833  0.2130044936379473  0.4995328659346949
  0.6206041051681709  0.3795003095461596  0.4982500428679286
  0.6195411471546740  0.5448864113847492  0.4963694480052632
  0.6207067059906778  0.7114787832496593  0.4979989677157677
  0.6216747547790580  0.8789190140036744  0.4993830330693951
  0.7886133606774767  0.0460450432605590  0.4997973489161806
  0.7885762425255325  0.2128114171025202  0.4998669907331199
  0.7881453139111356  0.3795189457659933  0.4994425129697205
  0.7877535901194618  0.5457548325828658  0.4985712762225164
  0.7878083574993060  0.7122382051540797  0.4984606683170246
  0.7882392618603616  0.8789013052260434  0.4992731679108028
  0.9558072407970083  0.0464970742538539  0.4993214220898222
  0.9557296423313281  0.2129681083818172  0.4993620339721160
  0.9557354178879038  0.3794616909003287  0.4993690057190686
  0.9552112757373837  0.5459509932753999  0.4991410294299172
  0.9550792743240338  0.7126241456972960  0.4989410006925162
  0.9552909890407113  0.8794845874357198  0.4990845686739048
  0.0682476860283623  0.1034782140246099  0.5639926582576591
  0.0682543800748320  0.2691820118568162  0.5639276397866726
  0.0681782234369196  0.4348728313111707  0.5639962474917025
  0.0668714006613738  0.6011845084542418  0.5640837844678827
  0.0663854987755886  0.7682143909447217  0.5641799088804302
  0.0669193371653696  0.9358060622253564  0.5640867853787881
  0.2345753751738801  0.1050037876487859  0.5630702202209847
  0.2390068966233027  0.2748010510721532  0.5614421582838998
  0.2390497323007103  0.4344676137291245  0.5614811292060706
  0.2344990780539915  0.5998700980960435  0.5630854533320381
  0.2333069160093638  0.7675868978969231  0.5641228031857412
  0.2332653025500618  0.9357947780926174  0.5641717700705082
  0.3995279215069496  0.1036106072977211  0.5641390276961163
  0.4000087489270438  0.2749519949500119  0.5614714539531797
  0.3998957881639649  0.5954080378190904  0.5614354240885372
  0.3996309563365065  0.7663046828150577  0.5640474811906226
  0.3995490331468724  0.9348679167901492  0.5645995521744033
  0.5659440458730044  0.1019282457020676  0.5649349345480976
  0.5653462825269280  0.2693139967446588  0.5640747045280073
  0.5600495070622626  0.4348105652011943  0.5613327193376817
  0.5603604092614997  0.5959127126862710  0.5611628119498362
  0.5655888714642676  0.7664008523126287  0.5638979273430164
  0.5660540162323474  0.9342418738438312  0.5648541555601178
  0.7330428266842107  0.1015979619503443  0.5651471896616799
  0.7326951042712833  0.2686420937293276  0.5648799222880155
  0.7312619587061511  0.4351023958428185  0.5640553979207235
  0.7299336659183319  0.6001416058482820  0.5629083166293829
  0.7313409242864417  0.7664244853025191  0.5638580639762395
  0.7328052185625739  0.9342737460861484  0.5647203761393724
  0.9003760887149819  0.1019019560580856  0.5647425020352425
  0.9003623278777932  0.2685801849425597  0.5647864640916431
  0.8997720816007074  0.4350261705310592  0.5645069710221667
  0.8988952489003142  0.6013302164696713  0.5640619112385710
  0.8989114260969944  0.7677497603250328  0.5640014523900350
  0.8997923791107425  0.9348805797924036  0.5644156334736626
  0.0663034828277102  0.1019298479903506  0.4335219945359579
  0.0660061926846869  0.2681286002620817  0.4334306039978778
  0.0662094656938966  0.4345003933461711  0.4335445744061483
  0.0663096058975086  0.6013952130341561  0.4337853389233923
  0.0664903590163268  0.7683306687547431  0.4338217788680949
  0.0664290989051163  0.9351440787320093  0.4337574692818427
  0.2330726261660913  0.1017243553461986  0.4328984164700153
  0.2328573263433927  0.2694865934545224  0.4311872650463832
  0.2328714925107816  0.4335851545520989  0.4311809829827747
  0.2330075411706380  0.6015770925058209  0.4328652516428728
  0.2332675913983552  0.7684158964113876  0.4338496759739099
  0.2332831909801606  0.9351383990057675  0.4338636156575487
  0.4000234773060433  0.1019533126275639  0.4336920220247640
  0.4010001859858863  0.2695158239364898  0.4312729040137746
  0.3996361804743859  0.4349285321947671  0.4248033412037500
  0.4008965914004048  0.6016343933178873  0.4312922828296998
  0.4000661923310582  0.7684068494423617  0.4336565220946491
  0.3999857802145655  0.9351598054840791  0.4343588650415582
  0.5663811897230729  0.1016172583680282  0.4345407070618457
  0.5664799302337538  0.2680956524324198  0.4335682372522059
  0.5652190855577153  0.4335514652386936  0.4312159531056149
  0.5651522653381351  0.6017306772717094  0.4311476854516340
  0.5664547641222637  0.7687118216686940  0.4333991991397659
  0.5664320907742848  0.9351704534364161  0.4344692735517363
  0.7329212789668460  0.1016376047513877  0.4347044204912086
  0.7329574725957086  0.2681490126502868  0.4344853988694157
  0.7327304386290316  0.4344836918438875  0.4335828814089317
  0.7331553178354491  0.6016196566078396  0.4326987651442422
  0.7328844724790351  0.7685252777933128  0.4333796124844924
  0.7330425893921899  0.9351697792664235  0.4343622117912113
  0.8995189572925575  0.1016084607372996  0.4343627652432430
  0.8994572324098818  0.2681218276441114  0.4343979726001043
  0.8994773413281538  0.4345933921901842  0.4342083757521357
  0.8996780819356432  0.6014437225657077  0.4337439715256513
  0.8997935635593874  0.7684692096141993  0.4336826784646360
  0.8996403542875480  0.9351736424076560  0.4341106092969167
  0.3820448688922718  0.4209317224950051  0.6315293873264726
  0.4399740680859443  0.4715182332878281  0.6677318956909631
  0.4952446504253390  0.4703809317781798  0.6637745299896741
  0.4019092273861676  0.4378354241006280  0.5964319942252049
  0.4158339775639050  0.4500574007336619  0.7063326516103021
  0.4531879181742864  0.5328413707778767  0.6641462312935772
 
  0.00000000E+00  0.00000000E+00  0.00000000E+00
  0.00000000E+00  0.00000000E+00  0.00000000E+00
  0.00000000E+00  0.00000000E+00  0.00000000E+00
  0.00000000E+00  0.00000000E+00  0.00000000E+00
  0.00000000E+00  0.00000000E+00  0.00000000E+00
  0.00000000E+00  0.00000000E+00  0.00000000E+00
  0.00000000E+00  0.00000000E+00  0.00000000E+00
  0.00000000E+00  0.00000000E+00  0.00000000E+00
  0.00000000E+00  0.00000000E+00  0.00000000E+00
  0.00000000E+00  0.00000000E+00  0.00000000E+00
  0.00000000E+00  0.00000000E+00  0.00000000E+00
  0.00000000E+00  0.00000000E+00  0.00000000E+00
  0.00000000E+00  0.00000000E+00  0.00000000E+00
  0.00000000E+00  0.00000000E+00  0.00000000E+00
  0.00000000E+00  0.00000000E+00  0.00000000E+00
  0.00000000E+00  0.00000000E+00  0.00000000E+00
  0.00000000E+00  0.00000000E+00  0.00000000E+00
  0.00000000E+00  0.00000000E+00  0.00000000E+00
  0.00000000E+00  0.00000000E+00  0.00000000E+00
  0.00000000E+00  0.00000000E+00  0.00000000E+00
  0.00000000E+00  0.00000000E+00  0.00000000E+00
  0.00000000E+00  0.00000000E+00  0.00000000E+00
  0.00000000E+00  0.00000000E+00  0.00000000E+00
  0.00000000E+00  0.00000000E+00  0.00000000E+00
  0.00000000E+00  0.00000000E+00  0.00000000E+00
  0.00000000E+00  0.00000000E+00  0.00000000E+00
  0.00000000E+00  0.00000000E+00  0.00000000E+00
  0.00000000E+00  0.00000000E+00  0.00000000E+00
  0.00000000E+00  0.00000000E+00  0.00000000E+00
  0.00000000E+00  0.00000000E+00  0.00000000E+00
  0.00000000E+00  0.00000000E+00  0.00000000E+00
  0.00000000E+00  0.00000000E+00  0.00000000E+00
  0.00000000E+00  0.00000000E+00  0.00000000E+00
  0.00000000E+00  0.00000000E+00  0.00000000E+00
  0.00000000E+00  0.00000000E+00  0.00000000E+00
  0.00000000E+00  0.00000000E+00  0.00000000E+00
  0.00000000E+00  0.00000000E+00  0.00000000E+00
  0.00000000E+00  0.00000000E+00  0.00000000E+00
  0.00000000E+00  0.00000000E+00  0.00000000E+00
  0.00000000E+00  0.00000000E+00  0.00000000E+00
  0.00000000E+00  0.00000000E+00  0.00000000E+00
  0.00000000E+00  0.00000000E+00  0.00000000E+00
  0.00000000E+00  0.00000000E+00  0.00000000E+00
  0.00000000E+00  0.00000000E+00  0.00000000E+00
  0.00000000E+00  0.00000000E+00  0.00000000E+00
  0.00000000E+00  0.00000000E+00  0.00000000E+00
  0.00000000E+00  0.00000000E+00  0.00000000E+00
  0.00000000E+00  0.00000000E+00  0.00000000E+00
  0.00000000E+00  0.00000000E+00  0.00000000E+00
  0.00000000E+00  0.00000000E+00  0.00000000E+00
  0.00000000E+00  0.00000000E+00  0.00000000E+00
  0.00000000E+00  0.00000000E+00  0.00000000E+00
  0.00000000E+00  0.00000000E+00  0.00000000E+00
  0.00000000E+00  0.00000000E+00  0.00000000E+00
  0.00000000E+00  0.00000000E+00  0.00000000E+00
  0.00000000E+00  0.00000000E+00  0.00000000E+00
  0.00000000E+00  0.00000000E+00  0.00000000E+00
  0.00000000E+00  0.00000000E+00  0.00000000E+00
  0.00000000E+00  0.00000000E+00  0.00000000E+00
  0.00000000E+00  0.00000000E+00  0.00000000E+00
  0.00000000E+00  0.00000000E+00  0.00000000E+00
  0.00000000E+00  0.00000000E+00  0.00000000E+00
  0.00000000E+00  0.00000000E+00  0.00000000E+00
  0.00000000E+00  0.00000000E+00  0.00000000E+00
  0.00000000E+00  0.00000000E+00  0.00000000E+00
  0.00000000E+00  0.00000000E+00  0.00000000E+00
  0.00000000E+00  0.00000000E+00  0.00000000E+00
  0.00000000E+00  0.00000000E+00  0.00000000E+00
  0.00000000E+00  0.00000000E+00  0.00000000E+00
  0.00000000E+00  0.00000000E+00  0.00000000E+00
  0.00000000E+00  0.00000000E+00  0.00000000E+00
  0.00000000E+00  0.00000000E+00  0.00000000E+00
  0.00000000E+00  0.00000000E+00  0.00000000E+00
  0.00000000E+00  0.00000000E+00  0.00000000E+00
  0.00000000E+00  0.00000000E+00  0.00000000E+00
  0.00000000E+00  0.00000000E+00  0.00000000E+00
  0.00000000E+00  0.00000000E+00  0.00000000E+00
  0.00000000E+00  0.00000000E+00  0.00000000E+00
  0.00000000E+00  0.00000000E+00  0.00000000E+00
  0.00000000E+00  0.00000000E+00  0.00000000E+00
  0.00000000E+00  0.00000000E+00  0.00000000E+00
  0.00000000E+00  0.00000000E+00  0.00000000E+00
  0.00000000E+00  0.00000000E+00  0.00000000E+00
  0.00000000E+00  0.00000000E+00  0.00000000E+00
  0.00000000E+00  0.00000000E+00  0.00000000E+00
  0.00000000E+00  0.00000000E+00  0.00000000E+00
  0.00000000E+00  0.00000000E+00  0.00000000E+00
  0.00000000E+00  0.00000000E+00  0.00000000E+00
  0.00000000E+00  0.00000000E+00  0.00000000E+00
  0.00000000E+00  0.00000000E+00  0.00000000E+00
  0.00000000E+00  0.00000000E+00  0.00000000E+00
  0.00000000E+00  0.00000000E+00  0.00000000E+00
  0.00000000E+00  0.00000000E+00  0.00000000E+00
  0.00000000E+00  0.00000000E+00  0.00000000E+00
  0.00000000E+00  0.00000000E+00  0.00000000E+00
  0.00000000E+00  0.00000000E+00  0.00000000E+00
  0.00000000E+00  0.00000000E+00  0.00000000E+00
  0.00000000E+00  0.00000000E+00  0.00000000E+00
  0.00000000E+00  0.00000000E+00  0.00000000E+00
  0.00000000E+00  0.00000000E+00  0.00000000E+00
  0.00000000E+00  0.00000000E+00  0.00000000E+00
  0.00000000E+00  0.00000000E+00  0.00000000E+00
  0.00000000E+00  0.00000000E+00  0.00000000E+00
  0.00000000E+00  0.00000000E+00  0.00000000E+00
  0.00000000E+00  0.00000000E+00  0.00000000E+00
  0.00000000E+00  0.00000000E+00  0.00000000E+00
  0.00000000E+00  0.00000000E+00  0.00000000E+00
  0.00000000E+00  0.00000000E+00  0.00000000E+00
  0.00000000E+00  0.00000000E+00  0.00000000E+00
  0.00000000E+00  0.00000000E+00  0.00000000E+00
  0.00000000E+00  0.00000000E+00  0.00000000E+00
  0.00000000E+00  0.00000000E+00  0.00000000E+00
  0.00000000E+00  0.00000000E+00  0.00000000E+00
