H4 W36 Se71 C1 O1
1.0
  19.6919994353999996    0.0000000000000000    0.0000000000000000
  -9.8459997176999998   17.0537717624000003    0.0000000000000000
   0.0000000000000000    0.0000000000000000   25.9200000762999991
W Se O C H
36 71 1 1 4
direct
   0.1208877556750688    0.0471804621998041    0.5002439496848530 W
   0.1217976105264616    0.2143528089815102    0.4998316788913134 W
   0.1218362745980989    0.3796663185838721    0.4998086697092824 W
   0.1209644721865311    0.5459610941626495    0.5001987291988749 W
   0.1204963908400166    0.7128354220620339    0.5006234445911432 W
   0.1204659445721313    0.8798599839410737    0.5006450099845983 W
   0.2873145390238657    0.0471444211404676    0.5002216887667086 W
   0.2882682567185053    0.2154156030221787    0.4979503878860489 W
   0.2948284477772132    0.3835070553963825    0.4952247643601215 W
   0.2882888775989022    0.5450448138102613    0.4979150111500419 W
   0.2873718102601637    0.7123688838609339    0.5001982822467157 W
   0.2871298684165818    0.8796640366722490    0.5007900268051590 W
   0.4535603292929217    0.0467175623140788    0.5010276523060028 W
   0.4536574921162305    0.2143332453914348    0.4997869702108895 W
   0.4498455196353627    0.3834871215656302    0.4952584104634176 W
   0.4498269865066443    0.5385050919496760    0.4952256658647485 W
   0.4536669688213366    0.7114969147618290    0.4998086323250233 W
   0.4535645960331279    0.8790695767990173    0.5010641124139201 W
   0.6202486026593841    0.0462379335191143    0.5015014621811512 W
   0.6201279895055335    0.2132052988428354    0.5010473423136609 W
   0.6190000489103541    0.3796752962459478    0.4997869354115069 W
   0.6179180778164565    0.5450635870766367    0.4979513056329598 W
   0.6189810479827129    0.7115356983816180    0.4998317564376095 W
   0.6200994994833637    0.8791354139648738    0.5011312663103273 W
   0.7870609060859369    0.0462725252216549    0.5015638489865231 W
   0.7870941000481875    0.2130843638949110    0.5015010858308436 W
   0.7866152520286005    0.3797725180818619    0.5010274621053861 W
   0.7861888223265523    0.5460181941410922    0.5002221471000405 W
   0.7861536279968103    0.7124477350979936    0.5002446641138631 W
   0.7865680768657528    0.8790892324508386    0.5011243889183723 W
   0.9542444648132963    0.0467656601197390    0.5011251303921356 W
   0.9541982486910251    0.2132342556042416    0.5011314817810057 W
   0.9542634394455098    0.3797687958554311    0.5010641427765743 W
   0.9536688079213614    0.5462029888623954    0.5007899089039248 W
   0.9534722428844585    0.7128668406248870    0.5006456458642260 W
   0.9536360428814424    0.8796987040765183    0.5008601509561872 W
   0.0668346419892425    0.1037870083908588    0.5656888139597972 Se
   0.0667949677082484    0.2695395738867977    0.5656502516913922 Se
   0.0668507964457305    0.4353062355019617    0.5656175575171057 Se
   0.0653994289146199    0.6015197235497863    0.5656847431650561 Se
   0.0648100068003786    0.7685224165422715    0.5658494194377195 Se
   0.0653725463612292    0.9360793442302647    0.5657612405027939 Se
   0.2331181110506409    0.1051725903799469    0.5645363979138068 Se
   0.2379797782873418    0.2752460971331429    0.5628237808277988 Se
   0.2379955936953971    0.4349308511536081    0.5628242304034148 Se
   0.2331694087734968    0.6001646131776074    0.5644948501901637 Se
   0.2318124599537562    0.7679327488640532    0.5656843534659832 Se
   0.2317751035815522    0.9360347895704167    0.5657347851016372 Se
   0.3980232950375192    0.1037418738006506    0.5656128813982924 Se
   0.3984193713226182    0.2751907171261181    0.5628425569851510 Se
   0.3984029011352713    0.5953378499168556    0.5628243989219328 Se
   0.3980262785910237    0.7664820588733178    0.5656173146930324 Se
   0.3979922912874670    0.9351636547149149    0.5661694419676417 Se
   0.5644245194573106    0.1021774324927856    0.5664574007245101 Se
   0.5638396140971433    0.2694965761259378    0.5655825846005420 Se
   0.5581426932445167    0.4349132746312894    0.5628425826024348 Se
   0.5580885428691766    0.5953533158796744    0.5628244449095871 Se
   0.5637939528731006    0.7665380922255469    0.5656503746080586 Se
   0.5644008477809264    0.9345299095733370    0.5665118958632385 Se
   0.7314184420754368    0.1019143277636668    0.5667898376062476 Se
   0.7311555165166542    0.2689089941446841    0.5664576173140156 Se
   0.7295912175949373    0.4353096526345945    0.5656126867609472 Se
   0.7281612877024202    0.6002161837047760    0.5645362984539306 Se
   0.7295472844796027    0.7664999839988711    0.5656889232962167 Se
   0.7311144108210824    0.9345322787852957    0.5665575507242152 Se
   0.8988008742962621    0.1022195154413555    0.5665578772674241 Se
   0.8987984469451590    0.2689316850194883    0.5665122549295956 Se
   0.8981689815540630    0.4353404541491989    0.5661692971373952 Se
   0.8972979225203134    0.6015582853418147    0.5657349000321924 Se
   0.8972552498624385    0.7679635988723288    0.5657616785043359 Se
   0.8981466107304465    0.9351868480005711    0.5662407752621849 Se
   0.0646197225434156    0.1021538885515629    0.4352290430861120 Se
   0.0643998360781730    0.2682935698182521    0.4351365334799029 Se
   0.0647103333663601    0.4347154280758759    0.4352053789272312 Se
   0.0647237551145002    0.6016445262051551    0.4353980315501207 Se
   0.0648280660850503    0.7685035428289085    0.4354808998754942 Se
   0.0646542698438289    0.9352362530243827    0.4354368053540190 Se
   0.2313590523173661    0.1016870962131342    0.4343779046241114 Se
   0.2312758829023634    0.2697010835538893    0.4327596577538750 Se
   0.2313028383163767    0.4337736389383309    0.4327251266197173 Se
   0.2314256715982951    0.6019074036531742    0.4343149750332472 Se
   0.2316878174310771    0.7686092450761953    0.4353980192816023 Se
   0.2316362399013860    0.9351942317044083    0.4354128412337192 Se
   0.3985276045981177    0.1021084928460975    0.4351890440507360 Se
   0.3995304359525199    0.2697009006031589    0.4327636864961470 Se
   0.3982016181278342    0.4351319609167610    0.4258340665319777 Se
   0.3995602364541970    0.6020305216958718    0.4327251701768159 Se
   0.3986178623324899    0.7686230596154821    0.4352052744133426 Se
   0.3985053947149679    0.9353216375962117    0.4358442906923257 Se
   0.5649516609737300    0.1017914335424236    0.4360367515328085 Se
   0.5650241606339308    0.2683083361704414    0.4350950798534817 Se
   0.5636321171901573    0.4338020720032713    0.4327636801689865 Se
   0.5636355001092810    0.6020571230839004    0.4327609564035625 Se
   0.5650421770052279    0.7689354398369499    0.4351375464042826 Se
   0.5649539351220889    0.9353013210935148    0.4360714358691262 Se
   0.7314900316948625    0.1018435016134856    0.4363574981753828 Se
   0.7315411321816759    0.2683811613505425    0.4360357690482435 Se
   0.7312246182823744    0.4348050854268304    0.4351887377235764 Se
   0.7316481804032271    0.6019758560176284    0.4343804937058939 Se
   0.7311789073139598    0.7687133596395151    0.4352286417743849 Se
   0.7315070312893879    0.9353605871616951    0.4361253210155724 Se
   0.8979733778947266    0.1018258085773524    0.4361262697810018 Se
   0.8980317019459009    0.2683792750816016    0.4360714277672744 Se
   0.8980114001344704    0.4348275895980687    0.4358439423126970 Se
   0.8981390729814678    0.6016973365753504    0.4354128555084105 Se
   0.8980965539694414    0.7686790708611647    0.4354375592120415 Se
   0.8979643018563952    0.9353704839752769    0.4359438070500574 Se
   0.4397380306792593    0.4347237872823896    0.5878711030920307 O
   0.4677461946469612    0.4778587142797048    0.6358336507903509 C
   0.5201095572467569    0.4773236783869342    0.6500316561497912 H
   0.4234335335786726    0.3793107928336467    0.5926078727540132 H
   0.4204920377767695    0.4525203852566366    0.6646408135141940 H
   0.4825351130070475    0.5382899786567862    0.6273571824511053 H
