H4 W48 Se97 C1 O1                       
   1.00000000000000     
    33.0000000000000000    0.0000000000000000    0.0000000000000000
     0.0000000000000000   26.2560005200000006    0.0000000000000000
     0.0000000000000000    0.0000000000000000   18.1299999999999990
   W    Se   O    C    H 
    48    97     1     1     4
Direct
  0.2797167171706288  0.0438437074350209  0.5077902111044137
  0.2870200260904887  0.2742361425016036  0.5077855111965632
  0.2880358247730714  0.5171440896229742  0.5045123038137905
  0.2864911788505302  0.7772562840385279  0.5051347333924490
  0.4540315468464748  0.0359270219325156  0.5034775645230919
  0.4555313682423237  0.2858530209064689  0.5043235320527611
  0.4553474405924981  0.5353723348295317  0.5025879979602688
  0.4546645426141147  0.7854649669966862  0.5015097574276460
  0.6273167707108560  0.0354294083359509  0.4998748892502836
  0.6279645445272535  0.2853262244432396  0.4997548685512989
  0.6279626751058527  0.5355839385857003  0.4994967286335354
  0.6272576189774037  0.7856023898466367  0.4987386945327211
  0.2871668499066047  0.1716096712439466  0.5080663390003707
  0.2926101703546096  0.4183383095264332  0.5104338082552022
  0.2866405667617873  0.6684058508472370  0.5055328839925866
  0.2793393920919385  0.9037601634124784  0.5069992358520093
  0.4547749443611354  0.1608227320723663  0.5040401291032234
  0.4555679704730509  0.4105442364933748  0.5039140259009599
  0.4545688200206860  0.6600167158420001  0.5012942664104927
  0.4541503808094851  0.9103559478379256  0.5026472152302286
  0.6279091567256115  0.1598738554591344  0.4994535417980621
  0.6284254947771193  0.4108969993190145  0.4992922889839208
  0.6279731234957492  0.6602126280468642  0.4983676019776319
  0.6274861342607010  0.9109631520378177  0.4988002792263945
  0.3687791678142455  0.2251889447516758  0.5064456014118327
  0.3715507917560646  0.4737209352343575  0.5053461422967189
  0.3684200353902091  0.7215700198039534  0.5023801665079882
  0.3670944338288545  0.9733951009132532  0.5055293493470711
  0.5421720674628420  0.2228012813062806  0.5018868401564517
  0.5415464013739588  0.4732176471063448  0.5012561215646549
  0.5417335333347199  0.7227112555240043  0.4999416875781026
  0.5404607783731566  0.9731894618075029  0.5009685889515990
  0.7157388022387640  0.2137042426253378  0.4973615034320956
  0.7147827988155089  0.4761987071720313  0.4978988281371490
  0.7154891095845518  0.7143043778351228  0.4967945700377181
  0.7140730648223718  0.9760528284402595  0.4980662801179780
  0.3687150560836622  0.0999159184176146  0.5059885069386614
  0.3688471946949243  0.3489845291132148  0.5069946108473952
  0.3670873412970014  0.5969068738392725  0.5041160325749703
  0.3687246812048731  0.8467388197917958  0.5045047751845767
  0.5406933211557339  0.0979172034008674  0.5014984250886391
  0.5426366085716041  0.3481725552118796  0.5018985989837469
  0.5412711878340615  0.5980488370781994  0.5003068175434825
  0.5414800586229274  0.8483107712047481  0.5003536255094957
  0.7142608837264179  0.0945532332320091  0.4982584262449043
  0.7159823070709471  0.3567030716885105  0.4972332468207043
  0.7146004639297634  0.5949738010815171  0.4976904033307211
  0.7152460814971799  0.8570200782496550  0.4969797324336918
  0.2539550154822762  0.1053614034987641  0.5983998176064707
  0.2380942265431207  0.3584103712517737  0.4993471869902077
  0.2451945734785648  0.5951085960555446  0.5455397891042600
  0.2537506539660273  0.8405111963917518  0.5969684870449526
  0.4263553236904222  0.0983179698460413  0.5981592987845968
  0.4273140758098824  0.3481961512800680  0.5982162305972154
  0.4256948482548829  0.5979368202760321  0.5953706513007170
  0.4264256917379960  0.8475017830497221  0.5964861316408444
  0.5988068907756734  0.0978661820715480  0.5931789720010696
  0.6010048811435895  0.3480943418179158  0.5937965784278478
  0.5992384505343246  0.5982918794674768  0.5923315390054625
  0.5996625224300313  0.8480811280286780  0.5926847591715237
  0.4271084804882068  0.2237130144269547  0.5982279098991335
  0.4287139866533206  0.4736957252360266  0.5984983421620252
  0.4265176232945259  0.7224875555249771  0.5947869079372496
  0.4255070695568965  0.9728556859613863  0.5966782233223058
  0.6005698203484232  0.2227514939390162  0.5937840513048486
  0.5996092534124743  0.4731135358958717  0.5929776608818095
  0.5999018740546523  0.7228760858914189  0.5924212218932228
  0.5985525082162106  0.9728579167008139  0.5927693531545682
  0.3376587384991976  0.0362762020909690  0.5981888733037691
  0.3373109990951970  0.2874436444272024  0.6034021120583775
  0.3383503855329372  0.5340644903661645  0.6000465079528159
  0.3410586018181099  0.7828774705341958  0.5996946077671707
  0.5122497942110953  0.0353972170230460  0.5952262715475958
  0.5141308693991314  0.2856232725467403  0.5955152995858336
  0.5133841726058977  0.5360602768743983  0.5947206295075014
  0.5130377274335167  0.7853204596619245  0.5933103739889997
  0.6855887973242887  0.0352725099723216  0.5954651417508134
  0.6890963242254191  0.2852551732894288  0.5866197055599531
  0.6862427434940589  0.5356589416338043  0.5951077235618326
  0.6882113166105808  0.7855714118167219  0.5860448621240822
  0.3409588944829086  0.1627803378095943  0.6024984767011886
  0.3429113619325911  0.4124477670327099  0.6062767752443448
  0.3384843192619897  0.6605265925078623  0.6004516271312571
  0.3375805146679914  0.9097294806268609  0.5972357202983479
  0.5131441672748508  0.1606550323702206  0.5955542713464692
  0.5139696167712070  0.4104987477704976  0.5954526028354498
  0.5127322911459455  0.6606438899104907  0.5935213385639346
  0.5124879857886675  0.9102709252625842  0.5943357900827807
  0.6866074737072456  0.1578424712179634  0.5943971880611985
  0.6871274733635296  0.4128635692162888  0.5941752122615661
  0.6865009089747449  0.6582946746917562  0.5936059272980952
  0.6860885905982189  0.9127617245761706  0.5939548003317318
  0.2527730061305495  0.1056740713883112  0.4187357411051498
  0.2525642383292901  0.8432967930896331  0.4160873921062079
  0.4249158437460880  0.0987328744502741  0.4109145845639372
  0.4255657405083584  0.3479506929125161  0.4120087932033711
  0.4245452479387544  0.5970875075800218  0.4098499612728805
  0.4250148735374480  0.8482432960685200  0.4092124588974778
  0.5976909360290040  0.0978285022310001  0.4073329096957635
  0.5994108821946125  0.3479313688836687  0.4069047108190141
  0.5983347141358183  0.5977552812844518  0.4064314473561429
  0.5985821630522397  0.8482164722894648  0.4059268999481611
  0.2250385285606973  0.2234798950452073  0.5102009506364664
  0.2283173775920907  0.7223589045634162  0.4791228572721132
  0.2301747623690260  0.9736401647608316  0.5075497283303062
  0.4256803099895125  0.2238973424390415  0.4117197239662664
  0.4272857936544820  0.4726526498173532  0.4094312414984490
  0.4255779001819497  0.7225464921484183  0.4082721540421681
  0.4239791304352731  0.9734144774056693  0.4110737633199920
  0.5990376581994367  0.2228569968869252  0.4069997062161809
  0.5984413300856628  0.4730349111668384  0.4070597900938338
  0.5989232451989537  0.7230193747119726  0.4056166804037500
  0.5975519284915892  0.9733510301124134  0.4069665116527774
  0.3363888096942162  0.0367474184412303  0.4148758423779514
  0.3364215684680227  0.2874115476644800  0.4109264840486000
  0.3377420481249974  0.5325912766219160  0.4090367932399673
  0.3393542894745927  0.7847564435413014  0.4090781993130674
  0.5108286817207178  0.0357719998020025  0.4087443622560658
  0.5126014060468161  0.2856268533320636  0.4099365181534060
  0.5121383797362365  0.5353901762576523  0.4080464307735510
  0.5120430987329991  0.7855968629202357  0.4079015135117359
  0.6853581221751802  0.0354351377185734  0.4028760711249575
  0.6876804616584771  0.2852090877874723  0.4097277553990865
  0.6859749610794570  0.5354774360746271  0.4024870383882548
  0.6872332989019087  0.7856798023115660  0.4091800753220503
  0.3396464201436017  0.1631174159580338  0.4112028032798999
  0.3402601354609544  0.4112774941397442  0.4103712267075805
  0.3361608520330767  0.6582442840797679  0.4081596167820478
  0.3362294956539359  0.9108148231523250  0.4142997010619692
  0.5116712837418249  0.1609087658137340  0.4093458272904791
  0.5125379885212331  0.4100414538162523  0.4093106239511924
  0.5118913683693300  0.6603948692884992  0.4074092735443868
  0.5112166062716111  0.9106863325657693  0.4082292269473258
  0.6849593065966567  0.1578697985183901  0.4017721834282555
  0.6854548845904017  0.4127240091906331  0.4015499864643962
  0.6852181043676503  0.6582141382672958  0.4009932709023652
  0.6846483104877583  0.9129528964744745  0.4013691414755302
  0.7738314442210233  0.9133868486725147  0.4880187534084221
  0.7683359125079946  0.7857417283090984  0.4985389531558923
  0.7741523119968523  0.6579363456753717  0.4881602933100746
  0.7737533219153083  0.5356827694519487  0.5088674273579477
  0.7744772001063240  0.4132991215755759  0.4882913982024331
  0.7688204904510468  0.2851228740924504  0.4984478717791795
  0.7741648386399251  0.1571024818648266  0.4883663387185174
  0.7732609679175124  0.0351883175099987  0.5098058801382589
  0.2257097988195821  0.4918530158720200  0.4723921821113830
  0.1853472980166635  0.5016013729650274  0.5037022003204776
  0.1662529711773975  0.4684968274297977  0.4915827204498242
  0.1880825649583300  0.5069994613072430  0.5633733673195880
  0.2263003907019595  0.4570959799200323  0.4522688367541448
  0.1732352535879377  0.5360270189550937  0.4778009723890375
 
  0.00000000E+00  0.00000000E+00  0.00000000E+00
  0.00000000E+00  0.00000000E+00  0.00000000E+00
  0.00000000E+00  0.00000000E+00  0.00000000E+00
  0.00000000E+00  0.00000000E+00  0.00000000E+00
  0.00000000E+00  0.00000000E+00  0.00000000E+00
  0.00000000E+00  0.00000000E+00  0.00000000E+00
  0.00000000E+00  0.00000000E+00  0.00000000E+00
  0.00000000E+00  0.00000000E+00  0.00000000E+00
  0.00000000E+00  0.00000000E+00  0.00000000E+00
  0.00000000E+00  0.00000000E+00  0.00000000E+00
  0.00000000E+00  0.00000000E+00  0.00000000E+00
  0.00000000E+00  0.00000000E+00  0.00000000E+00
  0.00000000E+00  0.00000000E+00  0.00000000E+00
  0.00000000E+00  0.00000000E+00  0.00000000E+00
  0.00000000E+00  0.00000000E+00  0.00000000E+00
  0.00000000E+00  0.00000000E+00  0.00000000E+00
  0.00000000E+00  0.00000000E+00  0.00000000E+00
  0.00000000E+00  0.00000000E+00  0.00000000E+00
  0.00000000E+00  0.00000000E+00  0.00000000E+00
  0.00000000E+00  0.00000000E+00  0.00000000E+00
  0.00000000E+00  0.00000000E+00  0.00000000E+00
  0.00000000E+00  0.00000000E+00  0.00000000E+00
  0.00000000E+00  0.00000000E+00  0.00000000E+00
  0.00000000E+00  0.00000000E+00  0.00000000E+00
  0.00000000E+00  0.00000000E+00  0.00000000E+00
  0.00000000E+00  0.00000000E+00  0.00000000E+00
  0.00000000E+00  0.00000000E+00  0.00000000E+00
  0.00000000E+00  0.00000000E+00  0.00000000E+00
  0.00000000E+00  0.00000000E+00  0.00000000E+00
  0.00000000E+00  0.00000000E+00  0.00000000E+00
  0.00000000E+00  0.00000000E+00  0.00000000E+00
  0.00000000E+00  0.00000000E+00  0.00000000E+00
  0.00000000E+00  0.00000000E+00  0.00000000E+00
  0.00000000E+00  0.00000000E+00  0.00000000E+00
  0.00000000E+00  0.00000000E+00  0.00000000E+00
  0.00000000E+00  0.00000000E+00  0.00000000E+00
  0.00000000E+00  0.00000000E+00  0.00000000E+00
  0.00000000E+00  0.00000000E+00  0.00000000E+00
  0.00000000E+00  0.00000000E+00  0.00000000E+00
  0.00000000E+00  0.00000000E+00  0.00000000E+00
  0.00000000E+00  0.00000000E+00  0.00000000E+00
  0.00000000E+00  0.00000000E+00  0.00000000E+00
  0.00000000E+00  0.00000000E+00  0.00000000E+00
  0.00000000E+00  0.00000000E+00  0.00000000E+00
  0.00000000E+00  0.00000000E+00  0.00000000E+00
  0.00000000E+00  0.00000000E+00  0.00000000E+00
  0.00000000E+00  0.00000000E+00  0.00000000E+00
  0.00000000E+00  0.00000000E+00  0.00000000E+00
  0.00000000E+00  0.00000000E+00  0.00000000E+00
  0.00000000E+00  0.00000000E+00  0.00000000E+00
  0.00000000E+00  0.00000000E+00  0.00000000E+00
  0.00000000E+00  0.00000000E+00  0.00000000E+00
  0.00000000E+00  0.00000000E+00  0.00000000E+00
  0.00000000E+00  0.00000000E+00  0.00000000E+00
  0.00000000E+00  0.00000000E+00  0.00000000E+00
  0.00000000E+00  0.00000000E+00  0.00000000E+00
  0.00000000E+00  0.00000000E+00  0.00000000E+00
  0.00000000E+00  0.00000000E+00  0.00000000E+00
  0.00000000E+00  0.00000000E+00  0.00000000E+00
  0.00000000E+00  0.00000000E+00  0.00000000E+00
  0.00000000E+00  0.00000000E+00  0.00000000E+00
  0.00000000E+00  0.00000000E+00  0.00000000E+00
  0.00000000E+00  0.00000000E+00  0.00000000E+00
  0.00000000E+00  0.00000000E+00  0.00000000E+00
  0.00000000E+00  0.00000000E+00  0.00000000E+00
  0.00000000E+00  0.00000000E+00  0.00000000E+00
  0.00000000E+00  0.00000000E+00  0.00000000E+00
  0.00000000E+00  0.00000000E+00  0.00000000E+00
  0.00000000E+00  0.00000000E+00  0.00000000E+00
  0.00000000E+00  0.00000000E+00  0.00000000E+00
  0.00000000E+00  0.00000000E+00  0.00000000E+00
  0.00000000E+00  0.00000000E+00  0.00000000E+00
  0.00000000E+00  0.00000000E+00  0.00000000E+00
  0.00000000E+00  0.00000000E+00  0.00000000E+00
  0.00000000E+00  0.00000000E+00  0.00000000E+00
  0.00000000E+00  0.00000000E+00  0.00000000E+00
  0.00000000E+00  0.00000000E+00  0.00000000E+00
  0.00000000E+00  0.00000000E+00  0.00000000E+00
  0.00000000E+00  0.00000000E+00  0.00000000E+00
  0.00000000E+00  0.00000000E+00  0.00000000E+00
  0.00000000E+00  0.00000000E+00  0.00000000E+00
  0.00000000E+00  0.00000000E+00  0.00000000E+00
  0.00000000E+00  0.00000000E+00  0.00000000E+00
  0.00000000E+00  0.00000000E+00  0.00000000E+00
  0.00000000E+00  0.00000000E+00  0.00000000E+00
  0.00000000E+00  0.00000000E+00  0.00000000E+00
  0.00000000E+00  0.00000000E+00  0.00000000E+00
  0.00000000E+00  0.00000000E+00  0.00000000E+00
  0.00000000E+00  0.00000000E+00  0.00000000E+00
  0.00000000E+00  0.00000000E+00  0.00000000E+00
  0.00000000E+00  0.00000000E+00  0.00000000E+00
  0.00000000E+00  0.00000000E+00  0.00000000E+00
  0.00000000E+00  0.00000000E+00  0.00000000E+00
  0.00000000E+00  0.00000000E+00  0.00000000E+00
  0.00000000E+00  0.00000000E+00  0.00000000E+00
  0.00000000E+00  0.00000000E+00  0.00000000E+00
  0.00000000E+00  0.00000000E+00  0.00000000E+00
  0.00000000E+00  0.00000000E+00  0.00000000E+00
  0.00000000E+00  0.00000000E+00  0.00000000E+00
  0.00000000E+00  0.00000000E+00  0.00000000E+00
  0.00000000E+00  0.00000000E+00  0.00000000E+00
  0.00000000E+00  0.00000000E+00  0.00000000E+00
  0.00000000E+00  0.00000000E+00  0.00000000E+00
  0.00000000E+00  0.00000000E+00  0.00000000E+00
  0.00000000E+00  0.00000000E+00  0.00000000E+00
  0.00000000E+00  0.00000000E+00  0.00000000E+00
  0.00000000E+00  0.00000000E+00  0.00000000E+00
  0.00000000E+00  0.00000000E+00  0.00000000E+00
  0.00000000E+00  0.00000000E+00  0.00000000E+00
  0.00000000E+00  0.00000000E+00  0.00000000E+00
  0.00000000E+00  0.00000000E+00  0.00000000E+00
  0.00000000E+00  0.00000000E+00  0.00000000E+00
  0.00000000E+00  0.00000000E+00  0.00000000E+00
  0.00000000E+00  0.00000000E+00  0.00000000E+00
  0.00000000E+00  0.00000000E+00  0.00000000E+00
  0.00000000E+00  0.00000000E+00  0.00000000E+00
  0.00000000E+00  0.00000000E+00  0.00000000E+00
  0.00000000E+00  0.00000000E+00  0.00000000E+00
  0.00000000E+00  0.00000000E+00  0.00000000E+00
  0.00000000E+00  0.00000000E+00  0.00000000E+00
  0.00000000E+00  0.00000000E+00  0.00000000E+00
  0.00000000E+00  0.00000000E+00  0.00000000E+00
  0.00000000E+00  0.00000000E+00  0.00000000E+00
  0.00000000E+00  0.00000000E+00  0.00000000E+00
  0.00000000E+00  0.00000000E+00  0.00000000E+00
  0.00000000E+00  0.00000000E+00  0.00000000E+00
  0.00000000E+00  0.00000000E+00  0.00000000E+00
  0.00000000E+00  0.00000000E+00  0.00000000E+00
  0.00000000E+00  0.00000000E+00  0.00000000E+00
  0.00000000E+00  0.00000000E+00  0.00000000E+00
  0.00000000E+00  0.00000000E+00  0.00000000E+00
  0.00000000E+00  0.00000000E+00  0.00000000E+00
  0.00000000E+00  0.00000000E+00  0.00000000E+00
  0.00000000E+00  0.00000000E+00  0.00000000E+00
  0.00000000E+00  0.00000000E+00  0.00000000E+00
  0.00000000E+00  0.00000000E+00  0.00000000E+00
  0.00000000E+00  0.00000000E+00  0.00000000E+00
  0.00000000E+00  0.00000000E+00  0.00000000E+00
  0.00000000E+00  0.00000000E+00  0.00000000E+00
  0.00000000E+00  0.00000000E+00  0.00000000E+00
  0.00000000E+00  0.00000000E+00  0.00000000E+00
  0.00000000E+00  0.00000000E+00  0.00000000E+00
  0.00000000E+00  0.00000000E+00  0.00000000E+00
  0.00000000E+00  0.00000000E+00  0.00000000E+00
  0.00000000E+00  0.00000000E+00  0.00000000E+00
  0.00000000E+00  0.00000000E+00  0.00000000E+00
  0.00000000E+00  0.00000000E+00  0.00000000E+00
  0.00000000E+00  0.00000000E+00  0.00000000E+00
  0.00000000E+00  0.00000000E+00  0.00000000E+00
  0.00000000E+00  0.00000000E+00  0.00000000E+00
  0.00000000E+00  0.00000000E+00  0.00000000E+00
