W36 S72                                 
   1.00000000000000     
    18.9192008971999996    0.0000000000000000    0.0000000000000000
    -9.4596004485999998   16.3845085963000017    0.0000000000000000
     0.0000000000000000    0.0000000000000000   24.6459999084000003
   W    S    O    C 
    36    71     2     1
Direct
  0.1199010611991312  0.0454319191467751  0.4986350131372883
  0.1211645554380661  0.2128788322195665  0.5010392434813400
  0.1211634003395682  0.3805061680553996  0.5010385969087036
  0.1199003622078905  0.5466907351446040  0.4986344869763363
  0.1195506237143518  0.7128211925758647  0.4971358373706515
  0.1195502527775298  0.8789511643508122  0.4971359865525981
  0.2864291615638371  0.0447340013651486  0.4967167315536879
  0.2869494500116609  0.2108505499985840  0.5014666924635173
  0.2868905651463123  0.3795571024518508  0.5059289526572005
  0.2869483117496020  0.5483204441434334  0.5014672700608432
  0.2864293514716352  0.7139174820516608  0.4967171924384340
  0.2865039841818869  0.8793633056880128  0.4954104547274572
  0.4538872666502389  0.0452718573297711  0.4950132141279653
  0.4543000216844305  0.2090474016067921  0.4978037894916481
  0.4515498457433744  0.3730651880397262  0.5094167704442050
  0.4515442336756471  0.5507008515197427  0.5094203249135112
  0.4542994244847072  0.7174741731738378  0.4978049498901725
  0.4538868138906698  0.8808366013072668  0.4950141251266613
  0.6211444926770138  0.0466820642776911  0.4957397349734373
  0.6210891189680575  0.2125551702264433  0.4970825242655627
  0.6206233527401328  0.3785699600182057  0.5016399146629640
  0.6188391507784444  0.5455297649479560  0.5056392061612008
  0.6206209406848614  0.7142717482674492  0.5016429848996681
  0.6210897892339903  0.8807544260945150  0.4970830077553024
  0.7878797274286220  0.0468960088153859  0.4975332622144001
  0.7878787957654444  0.2132035144718143  0.4975332270318533
  0.7872879904156319  0.3794483598005669  0.4988465814233006
  0.7862727410453881  0.5458620015639883  0.5009473677462273
  0.7862725442999838  0.7126314240578104  0.5009485264289104
  0.7872881996012222  0.8800592872795125  0.4988484843236630
  0.9541079849471276  0.0464587960000096  0.4988293355571951
  0.9546781475670937  0.2134494112806521  0.4991465722005698
  0.9541074267575529  0.3798701525486222  0.4988285621022672
  0.9531733702090300  0.5461817387057529  0.4986824235377835
  0.9528266237471702  0.7125237960549649  0.4988250994129810
  0.9531740023046527  0.8792131164383151  0.4986833567730217
  0.0642315826210830  0.1000973215759162  0.5637068817352994
  0.0643365317227194  0.2682791036019010  0.5646117094897800
  0.0642306655577964  0.4363556875651295  0.5637062383342575
  0.0647207942373651  0.6029508918891074  0.5623404294264649
  0.0651845827515206  0.7687026389619025  0.5618795481825704
  0.0647218066619940  0.9339920613848099  0.5623410436207857
  0.2303221523476334  0.0973085973216264  0.5630917885142139
  0.2304352880525127  0.2646189751450320  0.5668672061284729
  0.2304330692898489  0.4380367648048551  0.5668670983024957
  0.2303208151013356  0.6052353101100608  0.5630920305202204
  0.2313867516616761  0.7698314276294246  0.5605750537267701
  0.2313867171656759  0.9337770882137794  0.5605745583125011
  0.3977206391046334  0.0968608270850373  0.5606265693194318
  0.3968120400111116  0.2531676886065193  0.5650150786364394
  0.3968099929874723  0.6158676230439063  0.5650160997473496
  0.3977199876195283  0.7730808160689795  0.5606273608088508
  0.3980126397347784  0.9351172346222140  0.5593131399895127
  0.5644317649160329  0.1002611233739246  0.5599803827914341
  0.5649053444345155  0.2643761754413064  0.5630657198246836
  0.5684884178455651  0.4330923619602977  0.5688287471889503
  0.5684824903272775  0.6076106841366097  0.5688307290006918
  0.5649040400807455  0.7727498930566191  0.5630671297554999
  0.5644327698926122  0.9363908231007865  0.5599801776463038
  0.7309902591938258  0.1016051064451001  0.5610696085386286
  0.7314077487859320  0.2671565870712966  0.5619689056139484
  0.7330122858925616  0.4340796711042255  0.5646515903380444
  0.7335226213675617  0.6028711741035330  0.5666933573063109
  0.7330108786043262  0.7711516443541891  0.5646531487409319
  0.7314081920446459  0.9364722089488327  0.5619693990779303
  0.8978301445293324  0.1017004514110429  0.5626707951914660
  0.8978298596689605  0.2683506457012630  0.5626702326628777
  0.8983639700029711  0.4351269638393868  0.5629657665616532
  0.8990228074164035  0.6021731625613983  0.5636729576297465
  0.8990235944710938  0.7690706057023607  0.5636733538554952
  0.8983650860162413  0.9354583907569373  0.5629674152947156
  0.0660186175561585  0.1034824716412933  0.4353098904198643
  0.0675671064143314  0.2698929670790263  0.4364270050705789
  0.0660179892780750  0.4347572667153186  0.4353088935458994
  0.0635139676522774  0.6007105058941136  0.4338303606193673
  0.0624734738707130  0.7673476026432213  0.4333762840237262
  0.0635139085455761  0.9350259567627058  0.4338308739535733
  0.2312988655817756  0.1031295450350601  0.4345809335722146
  0.2343942563386909  0.2713059440205838  0.4388207194672268
  0.2343936441339802  0.4353100047701725  0.4388208525342781
  0.2312988994057667  0.6003913618222170  0.4345809257045195
  0.2296833499149575  0.7673580086844570  0.4319607342034595
  0.2296822558176094  0.9345481205353057  0.4319605552257548
  0.3973639059553076  0.1011481876061326  0.4317681942688595
  0.3994439055605133  0.2712028591000793  0.4385499881632743
  0.4011486821200003  0.4366836333360072  0.4471007576277004
  0.3994437290197612  0.6004610104710837  0.4385521553674175
  0.3973643331912569  0.7684375451395650  0.4317691286268195
  0.3974524077171069  0.9348371434453964  0.4305033167857708
  0.5662764908398349  0.1029454319235222  0.4314906044079575
  0.5662249152280222  0.2707716993534361  0.4343325882101895
  0.5600153310813778  0.4338815380994753  0.4421691029927241
  0.5600091080073104  0.5983525127881101  0.4421725206192414
  0.5662248249434366  0.7676723851769014  0.4343345249058226
  0.5662765933434833  0.9355511497806440  0.4314904610826423
  0.7336335430864440  0.1029265756141493  0.4325987977979304
  0.7329449965976707  0.2697253788805977  0.4335092666336747
  0.7300551252814720  0.4355522285692318  0.4363017310577404
  0.7265278755121867  0.5993752543489802  0.4386502834848529
  0.7300529625509456  0.7667221744812240  0.4363044810708552
  0.7329464764663114  0.9354397420646989  0.4335102998385322
  0.9001415988269413  0.1030558695754545  0.4342698674708788
  0.9001398756328250  0.2693058057819475  0.4342701011361831
  0.8981527256128697  0.4351742580041688  0.4345264790205850
  0.8955659109673545  0.6007850742680169  0.4352830615863603
  0.8955655686277970  0.7670028191406070  0.4352839677487398
  0.8981527805811546  0.9351993113880491  0.4345275947942311
  0.4088974839798151  0.3830699208039773  0.5909114501665718
  0.4088807882588729  0.4980542854812595  0.5909311865551656
  0.3800948175534227  0.4261652981044843  0.5706440956822518
 
  0.00000000E+00  0.00000000E+00  0.00000000E+00
  0.00000000E+00  0.00000000E+00  0.00000000E+00
  0.00000000E+00  0.00000000E+00  0.00000000E+00
  0.00000000E+00  0.00000000E+00  0.00000000E+00
  0.00000000E+00  0.00000000E+00  0.00000000E+00
  0.00000000E+00  0.00000000E+00  0.00000000E+00
  0.00000000E+00  0.00000000E+00  0.00000000E+00
  0.00000000E+00  0.00000000E+00  0.00000000E+00
  0.00000000E+00  0.00000000E+00  0.00000000E+00
  0.00000000E+00  0.00000000E+00  0.00000000E+00
  0.00000000E+00  0.00000000E+00  0.00000000E+00
  0.00000000E+00  0.00000000E+00  0.00000000E+00
  0.00000000E+00  0.00000000E+00  0.00000000E+00
  0.00000000E+00  0.00000000E+00  0.00000000E+00
  0.00000000E+00  0.00000000E+00  0.00000000E+00
  0.00000000E+00  0.00000000E+00  0.00000000E+00
  0.00000000E+00  0.00000000E+00  0.00000000E+00
  0.00000000E+00  0.00000000E+00  0.00000000E+00
  0.00000000E+00  0.00000000E+00  0.00000000E+00
  0.00000000E+00  0.00000000E+00  0.00000000E+00
  0.00000000E+00  0.00000000E+00  0.00000000E+00
  0.00000000E+00  0.00000000E+00  0.00000000E+00
  0.00000000E+00  0.00000000E+00  0.00000000E+00
  0.00000000E+00  0.00000000E+00  0.00000000E+00
  0.00000000E+00  0.00000000E+00  0.00000000E+00
  0.00000000E+00  0.00000000E+00  0.00000000E+00
  0.00000000E+00  0.00000000E+00  0.00000000E+00
  0.00000000E+00  0.00000000E+00  0.00000000E+00
  0.00000000E+00  0.00000000E+00  0.00000000E+00
  0.00000000E+00  0.00000000E+00  0.00000000E+00
  0.00000000E+00  0.00000000E+00  0.00000000E+00
  0.00000000E+00  0.00000000E+00  0.00000000E+00
  0.00000000E+00  0.00000000E+00  0.00000000E+00
  0.00000000E+00  0.00000000E+00  0.00000000E+00
  0.00000000E+00  0.00000000E+00  0.00000000E+00
  0.00000000E+00  0.00000000E+00  0.00000000E+00
  0.00000000E+00  0.00000000E+00  0.00000000E+00
  0.00000000E+00  0.00000000E+00  0.00000000E+00
  0.00000000E+00  0.00000000E+00  0.00000000E+00
  0.00000000E+00  0.00000000E+00  0.00000000E+00
  0.00000000E+00  0.00000000E+00  0.00000000E+00
  0.00000000E+00  0.00000000E+00  0.00000000E+00
  0.00000000E+00  0.00000000E+00  0.00000000E+00
  0.00000000E+00  0.00000000E+00  0.00000000E+00
  0.00000000E+00  0.00000000E+00  0.00000000E+00
  0.00000000E+00  0.00000000E+00  0.00000000E+00
  0.00000000E+00  0.00000000E+00  0.00000000E+00
  0.00000000E+00  0.00000000E+00  0.00000000E+00
  0.00000000E+00  0.00000000E+00  0.00000000E+00
  0.00000000E+00  0.00000000E+00  0.00000000E+00
  0.00000000E+00  0.00000000E+00  0.00000000E+00
  0.00000000E+00  0.00000000E+00  0.00000000E+00
  0.00000000E+00  0.00000000E+00  0.00000000E+00
  0.00000000E+00  0.00000000E+00  0.00000000E+00
  0.00000000E+00  0.00000000E+00  0.00000000E+00
  0.00000000E+00  0.00000000E+00  0.00000000E+00
  0.00000000E+00  0.00000000E+00  0.00000000E+00
  0.00000000E+00  0.00000000E+00  0.00000000E+00
  0.00000000E+00  0.00000000E+00  0.00000000E+00
  0.00000000E+00  0.00000000E+00  0.00000000E+00
  0.00000000E+00  0.00000000E+00  0.00000000E+00
  0.00000000E+00  0.00000000E+00  0.00000000E+00
  0.00000000E+00  0.00000000E+00  0.00000000E+00
  0.00000000E+00  0.00000000E+00  0.00000000E+00
  0.00000000E+00  0.00000000E+00  0.00000000E+00
  0.00000000E+00  0.00000000E+00  0.00000000E+00
  0.00000000E+00  0.00000000E+00  0.00000000E+00
  0.00000000E+00  0.00000000E+00  0.00000000E+00
  0.00000000E+00  0.00000000E+00  0.00000000E+00
  0.00000000E+00  0.00000000E+00  0.00000000E+00
  0.00000000E+00  0.00000000E+00  0.00000000E+00
  0.00000000E+00  0.00000000E+00  0.00000000E+00
  0.00000000E+00  0.00000000E+00  0.00000000E+00
  0.00000000E+00  0.00000000E+00  0.00000000E+00
  0.00000000E+00  0.00000000E+00  0.00000000E+00
  0.00000000E+00  0.00000000E+00  0.00000000E+00
  0.00000000E+00  0.00000000E+00  0.00000000E+00
  0.00000000E+00  0.00000000E+00  0.00000000E+00
  0.00000000E+00  0.00000000E+00  0.00000000E+00
  0.00000000E+00  0.00000000E+00  0.00000000E+00
  0.00000000E+00  0.00000000E+00  0.00000000E+00
  0.00000000E+00  0.00000000E+00  0.00000000E+00
  0.00000000E+00  0.00000000E+00  0.00000000E+00
  0.00000000E+00  0.00000000E+00  0.00000000E+00
  0.00000000E+00  0.00000000E+00  0.00000000E+00
  0.00000000E+00  0.00000000E+00  0.00000000E+00
  0.00000000E+00  0.00000000E+00  0.00000000E+00
  0.00000000E+00  0.00000000E+00  0.00000000E+00
  0.00000000E+00  0.00000000E+00  0.00000000E+00
  0.00000000E+00  0.00000000E+00  0.00000000E+00
  0.00000000E+00  0.00000000E+00  0.00000000E+00
  0.00000000E+00  0.00000000E+00  0.00000000E+00
  0.00000000E+00  0.00000000E+00  0.00000000E+00
  0.00000000E+00  0.00000000E+00  0.00000000E+00
  0.00000000E+00  0.00000000E+00  0.00000000E+00
  0.00000000E+00  0.00000000E+00  0.00000000E+00
  0.00000000E+00  0.00000000E+00  0.00000000E+00
  0.00000000E+00  0.00000000E+00  0.00000000E+00
  0.00000000E+00  0.00000000E+00  0.00000000E+00
  0.00000000E+00  0.00000000E+00  0.00000000E+00
  0.00000000E+00  0.00000000E+00  0.00000000E+00
  0.00000000E+00  0.00000000E+00  0.00000000E+00
  0.00000000E+00  0.00000000E+00  0.00000000E+00
  0.00000000E+00  0.00000000E+00  0.00000000E+00
  0.00000000E+00  0.00000000E+00  0.00000000E+00
  0.00000000E+00  0.00000000E+00  0.00000000E+00
  0.00000000E+00  0.00000000E+00  0.00000000E+00
  0.00000000E+00  0.00000000E+00  0.00000000E+00
  0.00000000E+00  0.00000000E+00  0.00000000E+00
  0.00000000E+00  0.00000000E+00  0.00000000E+00
