W36 S72                                 
1.0
  18.9192008972         0.0000000000         0.0000000000
  -9.4596004486        16.3845085963         0.0000000000
  -0.0000000000        -0.0000000000        24.6459999084
W S O C
36 71 2 1
Cartesian
     1.840678988         0.770854235        12.327363834
     0.275531861         3.509209820        12.318226619
    -1.290203139         6.221141690        12.318225421
    -2.879114571         8.945777875        12.327362624
    -4.463611231        11.679572832        12.337016308
    -6.043633345        14.416251227        12.337017585
     4.991253342         0.770853694        12.327367280
     3.415966621         3.526531800        12.274000423
     1.909391397         6.260473247        12.210858386
     0.295015259         8.932177676        12.273998289
    -1.303827462        11.674255135        12.327364321
    -2.889156005        14.413037146        12.342351491
     8.140808075         0.764448212        12.348674172
     6.556408290         3.509214801        12.318223870
     4.922539466         6.260474321        12.210864927
     3.415966696         8.869937559        12.210861766
     1.850232676        11.660534280        12.318229368
     0.265401231        14.405052149        12.348672174
    11.297437867         0.757659494        12.359609063
     9.716601513         3.492622801        12.348924055
     8.122135761         6.221133687        12.318224378
     6.536917329         8.932176278        12.274003916
     4.981701613        11.660533552        12.318230983
     3.415967102        14.405646674        12.348926694
    14.453695909         0.757658839        12.359605951
    12.875566598         3.491059700        12.359607957
    11.291373013         6.221388343        12.348673385
     9.711048221         8.945778649        12.327369148
     8.135760826        11.674254307        12.327367162
     6.566532899        14.405051032        12.348669922
    17.610326280         0.764446744        12.348668123
    16.034527704         3.492618858        12.348923692
    14.459760687         6.221387918        12.348669539
    12.875567224         8.949322881        12.342351636
    11.295545691        11.679572893        12.337018225
     9.721090121        14.413036267        12.342349854
     0.280884084         1.695960692        13.914032292
    -1.288315518         4.414276914        13.912663964
    -2.857846031         7.132401363        13.914032123
    -4.454390503         9.856837479        13.915818582
    -6.043633678        12.591798449        13.917014864
    -7.617556117        15.335604626        13.915819343
     3.415966076         1.716621158        13.886988100
     1.893130684         4.494451063        13.848809586
     0.371841628         7.129402820        13.848810079
    -1.272413210         9.837132337        13.886990342
    -2.880466985        12.582951803        13.915819802
    -4.469711896        15.335605557        13.915819149
     6.551049148         1.695961456        13.914030803
     4.938802964         4.494451650        13.848807317
     1.894676986         9.767030211        13.848810501
     0.277237701        12.562524240        13.914033558
    -1.315888914        15.321363438        13.928042479
     9.712987750         1.673668280        13.934920753
     8.120248260         4.414277918        13.912656763
     6.460092571         7.129401947        13.848807083
     4.937258003         9.767030505        13.848809773
     3.415967483        12.562331381        13.912663893
     1.838898564        15.311990175        13.934922989
    12.875566616         1.668793401        13.941495299
    11.290055220         4.405231136        13.934920647
     9.689779794         7.132402793        13.914028137
     8.104346518         9.837132441        13.886986412
     6.554697999        12.562522527        13.914031471
     4.993035944        15.311988752        13.934923870
    16.038146564         1.673666345        13.934923652
    14.461077331         4.405230608        13.934922064
    12.875566258         7.132669868        13.928040754
    11.286320987         9.856840038        13.915816384
     9.712400208        12.582951151        13.915817880
     8.147823420        15.321361428        13.928042739
     0.256127532         1.672573897        10.752226764
    -1.320603584         4.395635307        10.750618272
    -2.890477151         7.122656139        10.752226749
    -4.468418403         9.857794287        10.756194237
    -6.043632848        12.591799352        10.757475222
    -7.623743198        15.322976328        10.756194314
     3.415965969         1.664957703        10.731746580
     1.823009256         4.412108580        10.686934000
     0.265469996         7.109848150        10.686935898
    -1.317153269         9.862964562        10.731748826
    -2.888307867        12.594624619        10.756194856
    -4.463523789        15.322976877        10.756194157
     6.575805402         1.672573731        10.752225222
     5.008923628         4.412105703        10.686930938
     3.415967329         7.130293751        10.574608949
     1.858426143         9.868929396        10.686935139
     0.269361778        12.595656580        10.752227630
    -1.309198492        15.325224708        10.768050812
     9.725373836         1.667855626        10.772808666
     8.152540368         4.395633077        10.750597056
     6.566466002         7.109848568        10.686930686
     4.973507376         9.868929812        10.686933195
     3.415966828        12.599614593        10.750618082
     1.840059168        15.325620325        10.772810422
    12.875567574         1.668792218        10.779991457
    11.301281991         4.397409452        10.772808025
     9.722411819         7.122655942        10.752223653
     8.149086864         9.862964630        10.731744510
     6.562572346        12.595656754        10.752225845
     4.991874676        15.325620584        10.772811300
    16.025760263         1.667855720        10.772811216
    14.449853167         4.397409033        10.772810038
    12.875567893         7.124946471        10.768049122
    11.300352861         9.857795112        10.756192296
     9.720242689        12.594624396        10.756192678
     8.141132679        15.325224387        10.768051245
     3.996000000         6.132000000        13.840000000
     2.836000000         8.128000000        13.840000000
     3.416000000         7.130000000        13.840000000
