Mo1 S2                                  
   1.00000000000000     
    19.1418952942000011    0.0000000000000000    0.0000000000000000
    -9.5709489007999995   16.5773646751000001    0.0000000000000000
     0.0000000000000000    0.0000000000000000   23.1298294067000008
   Mo   S    O    C 
    36    70     1     1
Direct
  0.1118362103046948  0.0553544241692379  0.4988824659250568
  0.1118585235592917  0.2221010024001515  0.4990990357646297
  0.1116088781595366  0.3887564313187397  0.4996960880794461
  0.1113115053341502  0.5551728309818031  0.5005538351865013
  0.1112818173345360  0.7218034952637140  0.5004067733017195
  0.1115583667676958  0.8884358966622017  0.4993658228773086
  0.2790293916050217  0.0561262533047895  0.4993203185154229
  0.2791020586469699  0.2225999338584828  0.4994011435368293
  0.2790642772800638  0.3888111857222540  0.4997997090407367
  0.2785888483673347  0.5553072395647334  0.5000675748717143
  0.2784633296527659  0.7221043822874336  0.5001438957930588
  0.2786521654153162  0.8890777352369668  0.4997523987978099
  0.4458579378717999  0.0567217853358315  0.5001291140190247
  0.4468796379170072  0.2244514870578769  0.5005100890860206
  0.4464012728813955  0.3895000493706817  0.5018826575620992
  0.4458184109765355  0.5547457214811047  0.5010007753608861
  0.4454087102944584  0.7219808738459008  0.5001407267593621
  0.4454056925147398  0.8892010906798546  0.4999786889311650
  0.6122270438877848  0.0564053169509435  0.5002068458076110
  0.6132863304778908  0.2253535560972892  0.5021755640730632
  0.6140515460290317  0.3905664969607514  0.5044486962394430
  0.6121566591031780  0.5532435787350423  0.5034722438984431
  0.6120197252673094  0.7211252970185598  0.5003519379100396
  0.6119255681083402  0.8887259382532662  0.4997352280412173
  0.7784061353042162  0.0556249833155604  0.4994497300961740
  0.7784860126468658  0.2231713608309533  0.5005932787395651
  0.7773006747605393  0.3903344642544937  0.5045421875981617
  0.7761848241968750  0.5519738192003700  0.5050755655222403
  0.7778341099341688  0.7200353502484589  0.5004592442686402
  0.7782926322572905  0.8880403400314094  0.4993458765442753
  0.9449615056117509  0.0551884100181539  0.4989645226072028
  0.9449746856186891  0.2221585625762614  0.4994962738040485
  0.9443059225415169  0.3888287554974497  0.5007717610376972
  0.9428954171400434  0.5541929359643731  0.5026394648907271
  0.9440023309801191  0.7208111293366670  0.5006227333304949
  0.9447410726801735  0.8880702835962495  0.4992093185471660
  0.0562103554280569  0.1109805333316771  0.4316678440437940
  0.0561020607149345  0.2779889865140746  0.4321040235126432
  0.0551601854146071  0.4445287021187454  0.4330245135891104
  0.0536958504259815  0.6096316454375597  0.4341826523067240
  0.0549202856301747  0.7759974298157815  0.4328275306683764
  0.0559554923558494  0.9436362882586167  0.4318366128596907
  0.2236368649511888  0.1115148579384879  0.4318657697692174
  0.2235610700814945  0.2781444386125003  0.4320803919697056
  0.2232592903609714  0.4445269238016181  0.4325939001946821
  0.2224931346542860  0.6108009053500183  0.4330521001790970
  0.2224559108658752  0.7772515012372878  0.4329121756714116
  0.2231985738983155  0.9444195642649049  0.4322344297089984
  0.3915178082837016  0.1132763216962971  0.4327960279913725
  0.3922617222640454  0.2802560704195187  0.4331540554486821
  0.3920180182951540  0.4445030585173129  0.4334241853790530
  0.3904187818324516  0.6104362161065708  0.4332515053344537
  0.3897275144043846  0.7776377705383908  0.4329086455790971
  0.3902675735279999  0.9453096432132355  0.4327742635535259
  0.5578732308953533  0.1142732292768542  0.4338246991599419
  0.5620783434530878  0.2849008906745070  0.4349134819376417
  0.5574943622316724  0.6080570002848233  0.4344373505253998
  0.5564124179210097  0.7768259379421707  0.4328873703038312
  0.5565326524625220  0.9450886623762713  0.4327754082145603
  0.7228742358281508  0.1123926285869246  0.4327830219801641
  0.7231756958006983  0.2829821887901716  0.4350872922958544
  0.7208356683352193  0.6034380856755135  0.4353319909239204
  0.7224978200240955  0.7755487560896910  0.4327172677273694
  0.7226767402993701  0.9440518471682040  0.4322463439224435
  0.8892441240264901  0.1111474978802462  0.4319830630261166
  0.8890193992871360  0.2784696010304160  0.4329400453702448
  0.8850014555971484  0.4445643541392812  0.4353261326557671
  0.8839460713772809  0.6053089230056656  0.4356099103090543
  0.8884484997711013  0.7754838879026806  0.4327262954023183
  0.8891147070013190  0.9435376255501282  0.4318478716516694
  0.0561507574965745  0.1107389354711756  0.5661561854581905
  0.0562398182932853  0.2773213393473810  0.5666186317918900
  0.0561641686010788  0.4438634921903883  0.5675311238513814
  0.0564720862274939  0.6111317457026360  0.5682375877007644
  0.0560667692739401  0.7779610914320045  0.5672920096947038
  0.0561111901155371  0.9443257895199011  0.5662982736994735
  0.2227791961698316  0.1110653730732878  0.5663459517488647
  0.2227746171628269  0.2773168470180352  0.5666027805918858
  0.2227802135162236  0.4438975125712332  0.5669841954023127
  0.2230664510740752  0.6109245754235317  0.5674350057706548
  0.2231005752011086  0.7780739922045612  0.5672700590279618
  0.2229353658001045  0.9448057341884208  0.5666010773630248
  0.3898017103394977  0.1119965104671365  0.5670230815935398
  0.3890491403941070  0.2773993112483950  0.5678625180170584
  0.3889863218606919  0.4438113301858380  0.5684125668569919
  0.3896456366677938  0.6108903377723109  0.5675107239220480
  0.3898669453395485  0.7779167671191018  0.5672570973189153
  0.3897883234218753  0.9449339448715435  0.5670965179552852
  0.5565709672988675  0.1116997542485976  0.5678284492808601
  0.5563489447286045  0.2794783128511398  0.5700023842106248
  0.5556989140146698  0.4429178522087511  0.5708640134781717
  0.5563485404235848  0.6110908411593527  0.5689108190190453
  0.5567084475904522  0.7777447675876275  0.5672129834444917
  0.5566196764852833  0.9446222411324783  0.5671162655542545
  0.7233546277222729  0.1112059826542193  0.5672622649739480
  0.7242555513945206  0.2785993585053177  0.5698753687285532
  0.7225585331016262  0.4438861370560261  0.5720526579746092
  0.7241039490499546  0.6113556856403832  0.5705463291849000
  0.7233144725837590  0.7774152548650761  0.5671555663665089
  0.7232499333617923  0.9442612086023061  0.5666518135861693
  0.8896577264051047  0.1107371230293381  0.5665014454566233
  0.8897562518536049  0.2773286663971533  0.5674037418904945
  0.8888914290299184  0.4429430286979041  0.5701288792679904
  0.8887776656787807  0.6114444294867880  0.5701272094868060
  0.8893922021535161  0.7776649034944825  0.5670999420338561
  0.8895944477474842  0.9441382549716337  0.5663477161121193
  0.5622283678886504  0.4436077883421916  0.3928619486399256
  0.5593536151080230  0.4436097976276230  0.4451120075960091
 
  0.00000000E+00  0.00000000E+00  0.00000000E+00
  0.00000000E+00  0.00000000E+00  0.00000000E+00
  0.00000000E+00  0.00000000E+00  0.00000000E+00
  0.00000000E+00  0.00000000E+00  0.00000000E+00
  0.00000000E+00  0.00000000E+00  0.00000000E+00
  0.00000000E+00  0.00000000E+00  0.00000000E+00
  0.00000000E+00  0.00000000E+00  0.00000000E+00
  0.00000000E+00  0.00000000E+00  0.00000000E+00
  0.00000000E+00  0.00000000E+00  0.00000000E+00
  0.00000000E+00  0.00000000E+00  0.00000000E+00
  0.00000000E+00  0.00000000E+00  0.00000000E+00
  0.00000000E+00  0.00000000E+00  0.00000000E+00
  0.00000000E+00  0.00000000E+00  0.00000000E+00
  0.00000000E+00  0.00000000E+00  0.00000000E+00
  0.00000000E+00  0.00000000E+00  0.00000000E+00
  0.00000000E+00  0.00000000E+00  0.00000000E+00
  0.00000000E+00  0.00000000E+00  0.00000000E+00
  0.00000000E+00  0.00000000E+00  0.00000000E+00
  0.00000000E+00  0.00000000E+00  0.00000000E+00
  0.00000000E+00  0.00000000E+00  0.00000000E+00
  0.00000000E+00  0.00000000E+00  0.00000000E+00
  0.00000000E+00  0.00000000E+00  0.00000000E+00
  0.00000000E+00  0.00000000E+00  0.00000000E+00
  0.00000000E+00  0.00000000E+00  0.00000000E+00
  0.00000000E+00  0.00000000E+00  0.00000000E+00
  0.00000000E+00  0.00000000E+00  0.00000000E+00
  0.00000000E+00  0.00000000E+00  0.00000000E+00
  0.00000000E+00  0.00000000E+00  0.00000000E+00
  0.00000000E+00  0.00000000E+00  0.00000000E+00
  0.00000000E+00  0.00000000E+00  0.00000000E+00
  0.00000000E+00  0.00000000E+00  0.00000000E+00
  0.00000000E+00  0.00000000E+00  0.00000000E+00
  0.00000000E+00  0.00000000E+00  0.00000000E+00
  0.00000000E+00  0.00000000E+00  0.00000000E+00
  0.00000000E+00  0.00000000E+00  0.00000000E+00
  0.00000000E+00  0.00000000E+00  0.00000000E+00
  0.00000000E+00  0.00000000E+00  0.00000000E+00
  0.00000000E+00  0.00000000E+00  0.00000000E+00
  0.00000000E+00  0.00000000E+00  0.00000000E+00
  0.00000000E+00  0.00000000E+00  0.00000000E+00
  0.00000000E+00  0.00000000E+00  0.00000000E+00
  0.00000000E+00  0.00000000E+00  0.00000000E+00
  0.00000000E+00  0.00000000E+00  0.00000000E+00
  0.00000000E+00  0.00000000E+00  0.00000000E+00
  0.00000000E+00  0.00000000E+00  0.00000000E+00
  0.00000000E+00  0.00000000E+00  0.00000000E+00
  0.00000000E+00  0.00000000E+00  0.00000000E+00
  0.00000000E+00  0.00000000E+00  0.00000000E+00
  0.00000000E+00  0.00000000E+00  0.00000000E+00
  0.00000000E+00  0.00000000E+00  0.00000000E+00
  0.00000000E+00  0.00000000E+00  0.00000000E+00
  0.00000000E+00  0.00000000E+00  0.00000000E+00
  0.00000000E+00  0.00000000E+00  0.00000000E+00
  0.00000000E+00  0.00000000E+00  0.00000000E+00
  0.00000000E+00  0.00000000E+00  0.00000000E+00
  0.00000000E+00  0.00000000E+00  0.00000000E+00
  0.00000000E+00  0.00000000E+00  0.00000000E+00
  0.00000000E+00  0.00000000E+00  0.00000000E+00
  0.00000000E+00  0.00000000E+00  0.00000000E+00
  0.00000000E+00  0.00000000E+00  0.00000000E+00
  0.00000000E+00  0.00000000E+00  0.00000000E+00
  0.00000000E+00  0.00000000E+00  0.00000000E+00
  0.00000000E+00  0.00000000E+00  0.00000000E+00
  0.00000000E+00  0.00000000E+00  0.00000000E+00
  0.00000000E+00  0.00000000E+00  0.00000000E+00
  0.00000000E+00  0.00000000E+00  0.00000000E+00
  0.00000000E+00  0.00000000E+00  0.00000000E+00
  0.00000000E+00  0.00000000E+00  0.00000000E+00
  0.00000000E+00  0.00000000E+00  0.00000000E+00
  0.00000000E+00  0.00000000E+00  0.00000000E+00
  0.00000000E+00  0.00000000E+00  0.00000000E+00
  0.00000000E+00  0.00000000E+00  0.00000000E+00
  0.00000000E+00  0.00000000E+00  0.00000000E+00
  0.00000000E+00  0.00000000E+00  0.00000000E+00
  0.00000000E+00  0.00000000E+00  0.00000000E+00
  0.00000000E+00  0.00000000E+00  0.00000000E+00
  0.00000000E+00  0.00000000E+00  0.00000000E+00
  0.00000000E+00  0.00000000E+00  0.00000000E+00
  0.00000000E+00  0.00000000E+00  0.00000000E+00
  0.00000000E+00  0.00000000E+00  0.00000000E+00
  0.00000000E+00  0.00000000E+00  0.00000000E+00
  0.00000000E+00  0.00000000E+00  0.00000000E+00
  0.00000000E+00  0.00000000E+00  0.00000000E+00
  0.00000000E+00  0.00000000E+00  0.00000000E+00
  0.00000000E+00  0.00000000E+00  0.00000000E+00
  0.00000000E+00  0.00000000E+00  0.00000000E+00
  0.00000000E+00  0.00000000E+00  0.00000000E+00
  0.00000000E+00  0.00000000E+00  0.00000000E+00
  0.00000000E+00  0.00000000E+00  0.00000000E+00
  0.00000000E+00  0.00000000E+00  0.00000000E+00
  0.00000000E+00  0.00000000E+00  0.00000000E+00
  0.00000000E+00  0.00000000E+00  0.00000000E+00
  0.00000000E+00  0.00000000E+00  0.00000000E+00
  0.00000000E+00  0.00000000E+00  0.00000000E+00
  0.00000000E+00  0.00000000E+00  0.00000000E+00
  0.00000000E+00  0.00000000E+00  0.00000000E+00
  0.00000000E+00  0.00000000E+00  0.00000000E+00
  0.00000000E+00  0.00000000E+00  0.00000000E+00
  0.00000000E+00  0.00000000E+00  0.00000000E+00
  0.00000000E+00  0.00000000E+00  0.00000000E+00
  0.00000000E+00  0.00000000E+00  0.00000000E+00
  0.00000000E+00  0.00000000E+00  0.00000000E+00
  0.00000000E+00  0.00000000E+00  0.00000000E+00
  0.00000000E+00  0.00000000E+00  0.00000000E+00
  0.00000000E+00  0.00000000E+00  0.00000000E+00
  0.00000000E+00  0.00000000E+00  0.00000000E+00
  0.00000000E+00  0.00000000E+00  0.00000000E+00
  0.00000000E+00  0.00000000E+00  0.00000000E+00
