Mo1 S2                                  
1.0
       19.1418952942         0.0000000000         0.0000000000
       -9.5709489008        16.5773646751         0.0000000000
        0.0000000000         0.0000000000        23.1298294067
   Mo    S    O    C
   36   70    1    1
Cartesian
     1.614310152         0.926603509        11.536309092
     0.018118151         3.686237799        11.544889191
    -1.588019123         6.448538301        11.574639923
    -3.190695845         9.204001763        11.595941181
    -4.787208850        11.964947464        11.583846106
    -6.371245062        14.731593454        11.553076787
     4.804436717         0.931735358        11.548866577
     3.218256346         3.701792828        11.519583462
     1.600965759         6.452523271        11.547819764
     0.006781319         9.210964994        11.579865445
    -1.590866816        11.971251981        11.588682104
    -3.181526775        14.736640934        11.576492705
     7.995665953         0.927171269        11.601378904
     6.414511621         3.716580171        11.562018840
     4.796313988         6.488522994        11.508267824
     3.202673841         9.213954241        11.574331336
     1.604888654        11.973295716        11.590741856
     0.011317857        14.735837926        11.599456787
    11.188913860         0.917165019        11.622599443
     9.609276669         3.682587673        11.677338558
     8.197617289         6.423141365        11.636372574
     6.375051770         9.190588042        11.548306963
     4.798789220        11.976743635        11.577447783
     3.205678208        14.733391743        11.595338558
    14.373850219         0.920521703        11.590484366
    12.780991634         3.688120736        11.631564483
    11.168022323         6.457710947        11.719500192
     9.586946006         9.143636071        11.649066788
     7.989276986        11.958730855        11.565566038
     6.397360397        14.731179731        11.568998583
    17.565101011         0.920366449        11.556046967
    15.969164977         3.683995044        11.581658846
    14.360160894         6.444352973        11.615551561
    12.738452001         9.186133466        11.639196453
    11.161923774        11.952090387        11.572293658
     9.584639971        14.730206857        11.551461043
     0.008993463         1.843445603         9.987656811
    -1.596117890         4.612289774        10.009686302
    -3.208563950         7.367446689        10.037150419
    -4.813136749        10.101553621        10.056121396
    -6.377305335        12.866561932        10.013683314
    -7.961136981        15.648938142         9.989879567
     3.217534396         1.845873527         9.977876450
     1.603637482         4.616249611         9.979759364
    -0.008223642         7.379922618        10.010897882
    -1.600523442        10.129958924        10.033570116
    -3.185547996        12.885072149        10.028486103
    -4.763498466        15.653031591        10.003539548
     6.427296370         1.857494235        10.017766751
     4.841851235         4.637952167         9.975318352
     3.167536191         7.392549668         9.990045226
     1.601772879        10.140411650        10.025972525
     0.007830125        12.898064919        10.038553140
    -1.572512994        15.666300473        10.038213061
     9.607922267         1.864836734        10.080598293
     8.104179403         4.605643738        10.078663152
     4.789625481        10.157581313        10.018537746
     3.194756537        12.900920114        10.032956973
     1.608012005        15.665760403        10.050917937
    12.763850875         1.857872900        10.058629980
    11.150001731         4.666088402        10.120774985
     8.023050015        10.062207836        10.050401407
     6.392710517        12.886489388        10.012466467
     4.790195209        15.659208085        10.028992533
    15.953251542         1.845663524        10.019279797
    14.350730234         4.609616967        10.051851628
    12.684947371         7.353420951        10.098739862
    11.139873871        10.031997557        10.061557927
     9.581163249        12.873526636        10.004285508
     7.983399143        15.652027675        10.001589750
     0.027868401         1.844048724        13.100131802
    -1.561898596         4.600089397        13.121908474
    -3.167403839         7.363544037        13.151135367
    -4.779995320        10.135338476        13.157501033
    -6.387454891        12.898113269        13.122212618
    -7.962128437        15.665660138        13.100048252
     3.206598944         1.865052131        13.086804073
     1.624355154         4.601969108        13.091037194
     0.018784303         7.361380737        13.124957032
    -1.586288984        10.127953594        13.143364459
    -3.191768754        12.896568225        13.137079608
    -4.785663686        15.668944102        13.112314104
     6.375851917         1.868372653        13.119342732
     4.791487200         4.657226322        13.073139920
     3.221922903         7.347701940        13.101482739
     1.607342440        10.124437460        13.139182692
     0.005687212        12.888250232        13.148897630
    -1.596512671        15.653426910        13.147625419
     9.586677738         1.809384809        13.192656145
     7.972258913         4.602606382        13.198943806
     6.456528551         7.319449692        13.036035518
     4.819769641        10.118218576        13.123736378
     3.208323225        12.886381658        13.146525686
     1.613077809        15.640485752        13.163050397
    12.797234226         1.830423229        13.171795328
    11.220800255         4.603276201        13.239584659
     9.627654677         7.391064225        13.262945684
     7.965022048        10.114376438        13.133186725
     6.404807044        12.890458091        13.127563962
     4.814658040        15.650023611        13.140571687
    15.986191568         1.836704447        13.131119179
    14.397031171         4.599042081        13.163106975
    12.793628171         7.354156836        13.223573852
    11.134619235        10.140347332        13.176459954
     9.576916199        12.893164371        13.115666769
     8.001079043        15.656501920        13.113421832
     6.456528551         7.319449692         8.693703362
     6.456528551         7.319449692         9.843703362
