W48 S100
1.0
  33.0000000000000000    0.0000000000000000    0.0000000000000000
   0.0000000000000000   25.2255992888999998    0.0000000000000000
   0.0000000000000000    0.0000000000000000   17.4929999999999986
W S
48 100
direct
   0.2913373563955777    0.0354729729707966    0.5000000000169951 W
   0.2913373563955777    0.2854729729618771    0.5000000000169951 W
   0.2913373563955777    0.5354729729529575    0.5000000000169951 W
   0.2913373563955777    0.7854729729836802    0.5000000000169951 W
   0.4568374192743656    0.0354729729707966    0.5000000000169951 W
   0.4568374192743656    0.2854729729618771    0.5000000000169951 W
   0.4568374192743656    0.5354729729529575    0.5000000000169951 W
   0.4568374192743656    0.7854729729836802    0.5000000000169951 W
   0.6223374821531534    0.0354729729707966    0.5000000000169951 W
   0.6223374821531534    0.2854729729618771    0.5000000000169951 W
   0.6223374821531534    0.5354729729529575    0.5000000000169951 W
   0.6223374821531534    0.7854729729836802    0.5000000000169951 W
   0.2913373563955777    0.1604729729663368    0.5000000000169951 W
   0.2913373563955777    0.4104729729574174    0.5000000000169951 W
   0.2913373563955777    0.6604729729484977    0.5000000000169951 W
   0.2913373563955777    0.9104729729792207    0.5000000000169951 W
   0.4568374192743656    0.1604729729663368    0.5000000000169951 W
   0.4568374192743656    0.4104729729574174    0.5000000000169951 W
   0.4568374192743656    0.6604729729484977    0.5000000000169951 W
   0.4568374192743656    0.9104729729792207    0.5000000000169951 W
   0.6223374821531534    0.1604729729663368    0.5000000000169951 W
   0.6223374821531534    0.4104729729574174    0.5000000000169951 W
   0.6223374821531534    0.6604729729484977    0.5000000000169951 W
   0.6223374821531534    0.9104729729792207    0.5000000000169951 W
   0.3740873878198201    0.2229729729839281    0.5000000000169951 W
   0.3740873878198201    0.4729729729750086    0.5000000000169951 W
   0.3740873878198201    0.7229729729660892    0.5000000000169951 W
   0.3740873878198201    0.9729729729968117    0.5000000000169951 W
   0.5395874506986080    0.2229729729839281    0.5000000000169951 W
   0.5395874506986080    0.4729729729750086    0.5000000000169951 W
   0.5395874506986080    0.7229729729660892    0.5000000000169951 W
   0.5395874506986080    0.9729729729968117    0.5000000000169951 W
   0.7050875135773960    0.2229729729839281    0.5000000000169951 W
   0.7050875135773960    0.4729729729750086    0.5000000000169951 W
   0.7050875135773960    0.7229729729660892    0.5000000000169951 W
   0.7050875135773960    0.9729729729968117    0.5000000000169951 W
   0.3740873878198201    0.0979729729883878    0.5000000000169951 W
   0.3740873878198201    0.3479729729794683    0.5000000000169951 W
   0.3740873878198201    0.5979729729705487    0.5000000000169951 W
   0.3740873878198201    0.8479729730012715    0.5000000000169951 W
   0.5395874506986080    0.0979729729883878    0.5000000000169951 W
   0.5395874506986080    0.3479729729794683    0.5000000000169951 W
   0.5395874506986080    0.5979729729705487    0.5000000000169951 W
   0.5395874506986080    0.8479729730012715    0.5000000000169951 W
   0.7050875135773960    0.0979729729883878    0.5000000000169951 W
   0.7050875135773960    0.3479729729794683    0.5000000000169951 W
   0.7050875135773960    0.5979729729705487    0.5000000000169951 W
   0.7050875135773960    0.8479729730012715    0.5000000000169951 W
   0.2637540125773959    0.0979729729883878    0.5898177885609841 S
   0.2637540125773959    0.3479729729794683    0.5898177885609841 S
   0.2637540125773959    0.5979729729705487    0.5898177885609841 S
   0.2637540125773959    0.8479729730012715    0.5898177885609841 S
   0.4292540754561838    0.0979729729883878    0.5898177885609841 S
   0.4292540754561838    0.3479729729794683    0.5898177885609841 S
   0.4292540754561838    0.5979729729705487    0.5898177885609841 S
   0.4292540754561838    0.8479729730012715    0.5898177885609841 S
   0.5947541383349716    0.0979729729883878    0.5898177885609841 S
   0.5947541383349716    0.3479729729794683    0.5898177885609841 S
   0.5947541383349716    0.5979729729705487    0.5898177885609841 S
   0.5947541383349716    0.8479729730012715    0.5898177885609841 S
   0.4292540754561838    0.2229729729839281    0.5898177885609841 S
   0.4292540754561838    0.4729729729750086    0.5898177885609841 S
   0.4292540754561838    0.7229729729660892    0.5898177885609841 S
   0.4292540754561838    0.9729729729968117    0.5898177885609841 S
   0.5947541383349716    0.2229729729839281    0.5898177885609841 S
   0.5947541383349716    0.4729729729750086    0.5898177885609841 S
   0.5947541383349716    0.7229729729660892    0.5898177885609841 S
   0.5947541383349716    0.9729729729968117    0.5898177885609841 S
   0.3465040440016383    0.0354729729707966    0.5898177885609841 S
   0.3465040440016383    0.2854729729618771    0.5898177885609841 S
   0.3465040440016383    0.5354729729529575    0.5898177885609841 S
   0.3465040440016383    0.7854729729836802    0.5898177885609841 S
   0.5120041068804262    0.0354729729707966    0.5898177885609841 S
   0.5120041068804262    0.2854729729618771    0.5898177885609841 S
   0.5120041068804262    0.5354729729529575    0.5898177885609841 S
   0.5120041068804262    0.7854729729836802    0.5898177885609841 S
   0.6775041697592140    0.0354729729707966    0.5898177885609841 S
   0.6775041697592140    0.2854729729618771    0.5898177885609841 S
   0.6775041697592140    0.5354729729529575    0.5898177885609841 S
   0.6775041697592140    0.7854729729836802    0.5898177885609841 S
   0.3465040440016383    0.1604729729663368    0.5898177885609841 S
   0.3465040440016383    0.4104729729574174    0.5898177885609841 S
   0.3465040440016383    0.6604729729484977    0.5898177885609841 S
   0.3465040440016383    0.9104729729792207    0.5898177885609841 S
   0.5120041068804262    0.1604729729663368    0.5898177885609841 S
   0.5120041068804262    0.4104729729574174    0.5898177885609841 S
   0.5120041068804262    0.6604729729484977    0.5898177885609841 S
   0.5120041068804262    0.9104729729792207    0.5898177885609841 S
   0.6775041697592140    0.1604729729663368    0.5898177885609841 S
   0.6775041697592140    0.4104729729574174    0.5898177885609841 S
   0.6775041697592140    0.6604729729484977    0.5898177885609841 S
   0.6775041697592140    0.9104729729792207    0.5898177885609841 S
   0.2637540125773959    0.0979729729883878    0.4101822114158404 S
   0.2637540125773959    0.3479729729794683    0.4101822114158404 S
   0.2637540125773959    0.5979729729705487    0.4101822114158404 S
   0.2637540125773959    0.8479729730012715    0.4101822114158404 S
   0.4292540754561838    0.0979729729883878    0.4101822114158404 S
   0.4292540754561838    0.3479729729794683    0.4101822114158404 S
   0.4292540754561838    0.5979729729705487    0.4101822114158404 S
   0.4292540754561838    0.8479729730012715    0.4101822114158404 S
   0.5947541383349716    0.0979729729883878    0.4101822114158404 S
   0.5947541383349716    0.3479729729794683    0.4101822114158404 S
   0.5947541383349716    0.5979729729705487    0.4101822114158404 S
   0.5947541383349716    0.8479729730012715    0.4101822114158404 S
   0.2389735390925474    0.2229729729839281    0.5000000000169951 S
   0.2389735390925474    0.4729729729750086    0.5000000000169951 S
   0.2389735390925474    0.7229729729660892    0.5000000000169951 S
   0.2389735390925474    0.9729729729968117    0.5000000000169951 S
   0.4292540754561838    0.2229729729839281    0.4101822114158404 S
   0.4292540754561838    0.4729729729750086    0.4101822114158404 S
   0.4292540754561838    0.7229729729660892    0.4101822114158404 S
   0.4292540754561838    0.9729729729968117    0.4101822114158404 S
   0.5947541383349716    0.2229729729839281    0.4101822114158404 S
   0.5947541383349716    0.4729729729750086    0.4101822114158404 S
   0.5947541383349716    0.7229729729660892    0.4101822114158404 S
   0.5947541383349716    0.9729729729968117    0.4101822114158404 S
   0.3465040440016383    0.0354729729707966    0.4101822114158404 S
   0.3465040440016383    0.2854729729618771    0.4101822114158404 S
   0.3465040440016383    0.5354729729529575    0.4101822114158404 S
   0.3465040440016383    0.7854729729836802    0.4101822114158404 S
   0.5120041068804262    0.0354729729707966    0.4101822114158404 S
   0.5120041068804262    0.2854729729618771    0.4101822114158404 S
   0.5120041068804262    0.5354729729529575    0.4101822114158404 S
   0.5120041068804262    0.7854729729836802    0.4101822114158404 S
   0.6775041697592140    0.0354729729707966    0.4101822114158404 S
   0.6775041697592140    0.2854729729618771    0.4101822114158404 S
   0.6775041697592140    0.5354729729529575    0.4101822114158404 S
   0.6775041697592140    0.7854729729836802    0.4101822114158404 S
   0.3465040440016383    0.1604729729663368    0.4101822114158404 S
   0.3465040440016383    0.4104729729574174    0.4101822114158404 S
   0.3465040440016383    0.6604729729484977    0.4101822114158404 S
   0.3465040440016383    0.9104729729792207    0.4101822114158404 S
   0.5120041068804262    0.1604729729663368    0.4101822114158404 S
   0.5120041068804262    0.4104729729574174    0.4101822114158404 S
   0.5120041068804262    0.6604729729484977    0.4101822114158404 S
   0.5120041068804262    0.9104729729792207    0.4101822114158404 S
   0.6775041697592140    0.1604729729663368    0.4101822114158404 S
   0.6775041697592140    0.4104729729574174    0.4101822114158404 S
   0.6775041697592140    0.6604729729484977    0.4101822114158404 S
   0.6775041697592140    0.9104729729792207    0.4101822114158404 S
   0.7574435390925475    0.9104729729792207    0.5000000000169951 S
   0.7574435390925475    0.7854729729440380    0.5000000000169951 S
   0.7574435390925475    0.6604729729484977    0.5000000000169951 S
   0.7574435390925475    0.5354729729529575    0.5000000000169951 S
   0.7574435390925475    0.4104729729574174    0.5000000000169951 S
   0.7574435390925475    0.2854729729618771    0.5000000000169951 S
   0.7574435390925475    0.1604729729663368    0.5000000000169951 S
   0.7574435390925475    0.0354729729707966    0.5000000000169951 S
