Mo36 H4 C1 S71 O1                       
   1.00000000000000     
    19.1418952942000011    0.0000000000000000    0.0000000000000000
    -9.5709489007999995   16.5773646751000001    0.0000000000000000
     0.0000000000000000    0.0000000000000000   23.1298294067000008
   Mo   S    O    C    H 
    36    71     1     1     4
Direct
  0.1092110307486541  0.0557705173550956  0.5008776446405774
  0.1092092585105720  0.2225411541654074  0.5008626226637787
  0.1088936690597625  0.3892101987365177  0.5013102851172911
  0.1085139051562451  0.5555403870198443  0.5021558750333102
  0.1085648281950427  0.7221677739740801  0.5021794589625518
  0.1089008900883141  0.8888241124457256  0.5013588769522511
  0.2762087105682396  0.0561417861952734  0.5012756400689530
  0.2761879612462611  0.2226433485690625  0.5011671890595647
  0.2762138366603583  0.3891939017851733  0.5012640712607191
  0.2758447723544579  0.5557412777817112  0.5015813364740628
  0.2756742522532473  0.7224074491027723  0.5018090453988365
  0.2758440348005785  0.8892347988892020  0.5016226251610211
  0.4429113730867735  0.0565378169116388  0.5020520667203150
  0.4435817989158568  0.2235445497707920  0.5022138462194049
  0.4435598077467190  0.3891676747567321  0.5022776589850906
  0.4429799429189629  0.5555119096120177  0.5020148761606669
  0.4426644704688431  0.7223867783954547  0.5017436009507477
  0.4426522156608533  0.8893986471924269  0.5017658617210882
  0.6095184175554674  0.0565700530965727  0.5020424673093029
  0.6102614951452119  0.2248400167004663  0.5040139009921191
  0.6126692259875893  0.3907481979385708  0.5057080564943726
  0.6104818783459359  0.5546240942570227  0.5039697873770960
  0.6095245274118970  0.7220708968724637  0.5020407216270597
  0.6092866074142709  0.8892037565008158  0.5015484400686712
  0.7758031970253368  0.0561342447719735  0.5012571672875492
  0.7758649730002513  0.2235417183581432  0.5023372739331166
  0.7743981250984517  0.3908619295699981  0.5063920278661258
  0.7744943266843536  0.5525823563614414  0.5059535642474824
  0.7758390300514679  0.7214328055993385  0.5024071934072994
  0.7758033091456680  0.8887889160150786  0.5012930944041746
  0.9424330033951901  0.0557652688991424  0.5008668938038012
  0.9423558205313618  0.2226580607837242  0.5012044720344844
  0.9415259214173329  0.3892111965511308  0.5024303573700043
  0.9402677990100368  0.5548476403143220  0.5042042093005945
  0.9415236360761520  0.7214331964313643  0.5024408149892817
  0.9423545935000458  0.8888039176006897  0.5012661948851087
  0.0536073073019856  0.1113403876036470  0.4335515853930613
  0.0534365981601038  0.2783585011791443  0.4338095725020351
  0.0523207508805044  0.4448870534028408  0.4346538439840803
  0.0510572370301854  0.6101680465017392  0.4358122553043671
  0.0523378618991554  0.7766004221437979  0.4346836187858556
  0.0534042272151865  0.9441525337626692  0.4338411290063053
  0.2207513731001351  0.1115348614002119  0.4337814381703389
  0.2207594655031613  0.2783183791450963  0.4337788718121171
  0.2203763118488705  0.4448827372751012  0.4341222701164398
  0.2196345932843410  0.6111916178667810  0.4346425848914906
  0.2196593607601097  0.7776173680664071  0.4346565356740807
  0.2203582864556042  0.9445945481425809  0.4341534972556917
  0.3883770795770710  0.1126511622814133  0.4345387430169311
  0.3883946005230174  0.2787866720373431  0.4344934188291739
  0.3884124152676514  0.4448432957275691  0.4345339844144333
  0.3874431606767783  0.6111833916918435  0.4345694077986931
  0.3869595668190016  0.7780492520450104  0.4345700918217970
  0.3874005470692780  0.9453565724585703  0.4346016144406909
  0.5549006796166837  0.1140026223507449  0.4356683808952650
  0.5585955484835621  0.2828754100374818  0.4366668946891603
  0.5585476122650155  0.4447265722290397  0.4368392918305471
  0.5550650438352420  0.6100357724730889  0.4356170318248318
  0.5538598182799991  0.7775815544723814  0.4345655162076357
  0.5538322653030081  0.9453846291879701  0.4345791300763058
  0.7201929437235269  0.1127271170271185  0.4345566429853698
  0.7201655049076601  0.2831011391448877  0.4369057856084542
  0.7204912254062719  0.6064769272752848  0.4369021365192169
  0.7202144811388557  0.7765625489160813  0.4345930815869233
  0.7201416576447391  0.9446106667475664  0.4340986767539163
  0.8866740180907157  0.1115727971761828  0.4337870861139692
  0.8863139634997526  0.2788344557429183  0.4346090068053464
  0.8821629003073809  0.4450889819862112  0.4369735599629315
  0.8822019890861419  0.6064581251970771  0.4368399678295958
  0.8862551325460731  0.7765499921709983  0.4346537765743535
  0.8866653827725609  0.9441568223585630  0.4338154743826121
  0.0536107050058627  0.1113626487175574  0.5680681920994164
  0.0536246700131771  0.2778851777964207  0.5683204547864356
  0.0534190798690616  0.4442746327614533  0.5691506429553063
  0.0536773445938453  0.6114370295747958  0.5699175649992841
  0.0534141472900306  0.7782661137652230  0.5691886837163004
  0.0536369139690543  0.9448808455998327  0.5683655310921468
  0.2201698407146886  0.1113996334998619  0.5683039467554566
  0.2201669984418399  0.2778928235252366  0.5682909110967393
  0.2201852686724430  0.4444022527858832  0.5685486549994654
  0.2202801195566793  0.6112023169535239  0.5690341187180429
  0.2203102236334623  0.7782184112092682  0.5690675528916349
  0.2202000575165524  0.9449407349314275  0.5685894527086103
  0.3868488414772087  0.1117449580909350  0.5690357751691347
  0.3866261026180554  0.2778561667353245  0.5690040067196428
  0.3868504619549609  0.4443006636741489  0.5690424791350587
  0.3869501381827630  0.6111807261418591  0.5689583467331424
  0.3870386829573287  0.7780646013464746  0.5689610861908770
  0.3869249488553964  0.9448635828336170  0.5690086379999257
  0.5536572343051935  0.1114824056172084  0.5697710195630838
  0.5533253539128391  0.2792668497644153  0.5713830631913740
  0.5534062735231746  0.4431957387781174  0.5713552629143752
  0.5537469976948094  0.6112748114078479  0.5697302650458541
  0.5538573806726103  0.7781310413210749  0.5689613753227067
  0.5538702927053342  0.9448475012839223  0.5689668367981698
  0.7207518479630561  0.1116625513801867  0.5690606866698988
  0.7215734183604930  0.2788736310983171  0.5716261840868178
  0.7202662082965341  0.4447572128037249  0.5737105734137108
  0.7217557966607365  0.6116528399331784  0.5715181475276528
  0.7206834318699851  0.7782020216658984  0.5691087194171814
  0.7206005153983889  0.9448779526165558  0.5685314444152054
  0.8870837411765252  0.1113679683159834  0.5683025492513319
  0.8871455937989684  0.2778336605937060  0.5690788131247447
  0.8861908399702655  0.4434725730780006  0.5717438676599376
  0.8858955104025725  0.6117886645951022  0.5716702017001842
  0.8871557260493893  0.7784293875402463  0.5691498928487104
  0.8870807065258003  0.9448500225278588  0.5683375571135733
  0.7154022980226982  0.4520113306789523  0.3620726025463842
  0.6747304165502894  0.4332491332510841  0.3074605828792635
  0.6295643934487816  0.3685734716998520  0.3037662920731136
  0.7408813581092665  0.4192723829219954  0.3669252019150162
  0.7171876831557112  0.4510319473138882  0.2708542530047904
  0.6432966244054719  0.4679165234487627  0.3052728241180998
 
  0.00000000E+00  0.00000000E+00  0.00000000E+00
  0.00000000E+00  0.00000000E+00  0.00000000E+00
  0.00000000E+00  0.00000000E+00  0.00000000E+00
  0.00000000E+00  0.00000000E+00  0.00000000E+00
  0.00000000E+00  0.00000000E+00  0.00000000E+00
  0.00000000E+00  0.00000000E+00  0.00000000E+00
  0.00000000E+00  0.00000000E+00  0.00000000E+00
  0.00000000E+00  0.00000000E+00  0.00000000E+00
  0.00000000E+00  0.00000000E+00  0.00000000E+00
  0.00000000E+00  0.00000000E+00  0.00000000E+00
  0.00000000E+00  0.00000000E+00  0.00000000E+00
  0.00000000E+00  0.00000000E+00  0.00000000E+00
  0.00000000E+00  0.00000000E+00  0.00000000E+00
  0.00000000E+00  0.00000000E+00  0.00000000E+00
  0.00000000E+00  0.00000000E+00  0.00000000E+00
  0.00000000E+00  0.00000000E+00  0.00000000E+00
  0.00000000E+00  0.00000000E+00  0.00000000E+00
  0.00000000E+00  0.00000000E+00  0.00000000E+00
  0.00000000E+00  0.00000000E+00  0.00000000E+00
  0.00000000E+00  0.00000000E+00  0.00000000E+00
  0.00000000E+00  0.00000000E+00  0.00000000E+00
  0.00000000E+00  0.00000000E+00  0.00000000E+00
  0.00000000E+00  0.00000000E+00  0.00000000E+00
  0.00000000E+00  0.00000000E+00  0.00000000E+00
  0.00000000E+00  0.00000000E+00  0.00000000E+00
  0.00000000E+00  0.00000000E+00  0.00000000E+00
  0.00000000E+00  0.00000000E+00  0.00000000E+00
  0.00000000E+00  0.00000000E+00  0.00000000E+00
  0.00000000E+00  0.00000000E+00  0.00000000E+00
  0.00000000E+00  0.00000000E+00  0.00000000E+00
  0.00000000E+00  0.00000000E+00  0.00000000E+00
  0.00000000E+00  0.00000000E+00  0.00000000E+00
  0.00000000E+00  0.00000000E+00  0.00000000E+00
  0.00000000E+00  0.00000000E+00  0.00000000E+00
  0.00000000E+00  0.00000000E+00  0.00000000E+00
  0.00000000E+00  0.00000000E+00  0.00000000E+00
  0.00000000E+00  0.00000000E+00  0.00000000E+00
  0.00000000E+00  0.00000000E+00  0.00000000E+00
  0.00000000E+00  0.00000000E+00  0.00000000E+00
  0.00000000E+00  0.00000000E+00  0.00000000E+00
  0.00000000E+00  0.00000000E+00  0.00000000E+00
  0.00000000E+00  0.00000000E+00  0.00000000E+00
  0.00000000E+00  0.00000000E+00  0.00000000E+00
  0.00000000E+00  0.00000000E+00  0.00000000E+00
  0.00000000E+00  0.00000000E+00  0.00000000E+00
  0.00000000E+00  0.00000000E+00  0.00000000E+00
  0.00000000E+00  0.00000000E+00  0.00000000E+00
  0.00000000E+00  0.00000000E+00  0.00000000E+00
  0.00000000E+00  0.00000000E+00  0.00000000E+00
  0.00000000E+00  0.00000000E+00  0.00000000E+00
  0.00000000E+00  0.00000000E+00  0.00000000E+00
  0.00000000E+00  0.00000000E+00  0.00000000E+00
  0.00000000E+00  0.00000000E+00  0.00000000E+00
  0.00000000E+00  0.00000000E+00  0.00000000E+00
  0.00000000E+00  0.00000000E+00  0.00000000E+00
  0.00000000E+00  0.00000000E+00  0.00000000E+00
  0.00000000E+00  0.00000000E+00  0.00000000E+00
  0.00000000E+00  0.00000000E+00  0.00000000E+00
  0.00000000E+00  0.00000000E+00  0.00000000E+00
  0.00000000E+00  0.00000000E+00  0.00000000E+00
  0.00000000E+00  0.00000000E+00  0.00000000E+00
  0.00000000E+00  0.00000000E+00  0.00000000E+00
  0.00000000E+00  0.00000000E+00  0.00000000E+00
  0.00000000E+00  0.00000000E+00  0.00000000E+00
  0.00000000E+00  0.00000000E+00  0.00000000E+00
  0.00000000E+00  0.00000000E+00  0.00000000E+00
  0.00000000E+00  0.00000000E+00  0.00000000E+00
  0.00000000E+00  0.00000000E+00  0.00000000E+00
  0.00000000E+00  0.00000000E+00  0.00000000E+00
  0.00000000E+00  0.00000000E+00  0.00000000E+00
  0.00000000E+00  0.00000000E+00  0.00000000E+00
  0.00000000E+00  0.00000000E+00  0.00000000E+00
  0.00000000E+00  0.00000000E+00  0.00000000E+00
  0.00000000E+00  0.00000000E+00  0.00000000E+00
  0.00000000E+00  0.00000000E+00  0.00000000E+00
  0.00000000E+00  0.00000000E+00  0.00000000E+00
  0.00000000E+00  0.00000000E+00  0.00000000E+00
  0.00000000E+00  0.00000000E+00  0.00000000E+00
  0.00000000E+00  0.00000000E+00  0.00000000E+00
  0.00000000E+00  0.00000000E+00  0.00000000E+00
  0.00000000E+00  0.00000000E+00  0.00000000E+00
  0.00000000E+00  0.00000000E+00  0.00000000E+00
  0.00000000E+00  0.00000000E+00  0.00000000E+00
  0.00000000E+00  0.00000000E+00  0.00000000E+00
  0.00000000E+00  0.00000000E+00  0.00000000E+00
  0.00000000E+00  0.00000000E+00  0.00000000E+00
  0.00000000E+00  0.00000000E+00  0.00000000E+00
  0.00000000E+00  0.00000000E+00  0.00000000E+00
  0.00000000E+00  0.00000000E+00  0.00000000E+00
  0.00000000E+00  0.00000000E+00  0.00000000E+00
  0.00000000E+00  0.00000000E+00  0.00000000E+00
  0.00000000E+00  0.00000000E+00  0.00000000E+00
  0.00000000E+00  0.00000000E+00  0.00000000E+00
  0.00000000E+00  0.00000000E+00  0.00000000E+00
  0.00000000E+00  0.00000000E+00  0.00000000E+00
  0.00000000E+00  0.00000000E+00  0.00000000E+00
  0.00000000E+00  0.00000000E+00  0.00000000E+00
  0.00000000E+00  0.00000000E+00  0.00000000E+00
  0.00000000E+00  0.00000000E+00  0.00000000E+00
  0.00000000E+00  0.00000000E+00  0.00000000E+00
  0.00000000E+00  0.00000000E+00  0.00000000E+00
  0.00000000E+00  0.00000000E+00  0.00000000E+00
  0.00000000E+00  0.00000000E+00  0.00000000E+00
  0.00000000E+00  0.00000000E+00  0.00000000E+00
  0.00000000E+00  0.00000000E+00  0.00000000E+00
  0.00000000E+00  0.00000000E+00  0.00000000E+00
  0.00000000E+00  0.00000000E+00  0.00000000E+00
  0.00000000E+00  0.00000000E+00  0.00000000E+00
  0.00000000E+00  0.00000000E+00  0.00000000E+00
  0.00000000E+00  0.00000000E+00  0.00000000E+00
  0.00000000E+00  0.00000000E+00  0.00000000E+00
  0.00000000E+00  0.00000000E+00  0.00000000E+00
  0.00000000E+00  0.00000000E+00  0.00000000E+00
