Mo  S                                   
   1.00000000000000     
    33.0000000000000000    0.0000000000000000    0.0000000000000000
     0.0000000000000000   25.5199999999999996    0.0000000000000000
     0.0000000000000000    0.0000000000000000   17.4728999999999992
   Mo   S 
    48    98
Direct
  0.2848214912646441  0.1050168444142301  0.4975014688653800
  0.3696074791993098  0.0352773057835094  0.4988188138798648
  0.2856811769782794  0.2261068338279202  0.4974053496019550
  0.3699580771431172  0.1603052350070726  0.4986271744169741
  0.4522008075854131  0.0975111707880032  0.5001922372507650
  0.5354430441718208  0.0349153973583398  0.5021409776165910
  0.2855586664112195  0.3426689190929437  0.4972480424240757
  0.3700651172113112  0.2844494668622275  0.4984199994492755
  0.4528785615714810  0.2222865990053720  0.4998826600576649
  0.5353068024964855  0.1596234877941498  0.5015397084314372
  0.6175044320209153  0.0978274340918261  0.5034901619378758
  0.2845031094454953  0.4638443814910218  0.4970991183611062
  0.3696906551643622  0.4085855646987397  0.4982942781591149
  0.4527389093132186  0.3467612463099172  0.4998385334529942
  0.5354878458089942  0.2847901311765000  0.5018109926819605
  0.2853912639783047  0.6040412334634411  0.4971772683708053
  0.3692074907651133  0.5336360523544599  0.4982504762338209
  0.4518268340679654  0.4714028388308265  0.4997444466973135
  0.5352432294424787  0.4094427816493109  0.5020543549908538
  0.2853380796208214  0.7146730739425848  0.4973024118288691
  0.3692972471869922  0.6590010879286012  0.4983247011816303
  0.4517536686386947  0.5964307413720391  0.4997147370587385
  0.5348380295368358  0.5341274863935936  0.5019540244159728
  0.4517861402746917  0.7217378239943031  0.4996537266613927
  0.5344620944260257  0.6589486790874943  0.5014983593431381
  0.6179430628618903  0.2230637692917767  0.5028913016893597
  0.7016789954209131  0.0382527881289008  0.4968658704526518
  0.6181638184908280  0.3474631873461504  0.5067857529143751
  0.6982926817940722  0.1614667531900338  0.5060690255491238
  0.6177098149115707  0.4719499120360453  0.5040492443880353
  0.6970904073602782  0.2834869710463082  0.5097974551245557
  0.6174852697835576  0.5964709420139016  0.5064895379817003
  0.6962336097380586  0.4117346799831409  0.5095452768485913
  0.6170683633356902  0.7207986934668682  0.5023571265038456
  0.6958610219940340  0.5326880671019225  0.5094316662857494
  0.6962133003015296  0.6605622337967176  0.5091604818796185
  0.2854925875174246  0.8544281835778520  0.4974954864317027
  0.3693593708052560  0.7845347112759669  0.4984743833592304
  0.2856963835575996  0.9650031438983291  0.4975982907966241
  0.3696068470273630  0.9099943225427580  0.4987663412990528
  0.4520336023227216  0.8471846367361096  0.5000147960762718
  0.5345844964760644  0.7843714020079062  0.5011869761516508
  0.4522918952173001  0.9724521141950149  0.5003429624314180
  0.5351206356633540  0.9094961176475636  0.5019886976279011
  0.6169054530317766  0.8461548593810448  0.5031079186253109
  0.6190681435422363  0.9720135873786830  0.5034678716375112
  0.6974871888505376  0.7822030387462533  0.5053473381716174
  0.7013254261976343  0.9053251383731933  0.4966017041509758
  0.3124087582846258  0.0354879617393848  0.4123422151096818
  0.3116988979075188  0.0355341859566209  0.5835629066548123
  0.3144558854738690  0.1621712397673676  0.4066122123502751
  0.3137348583050823  0.1622676538473868  0.5891014085032893
  0.3971909519012371  0.0973978653541252  0.4095815670025047
  0.3963222716213508  0.0975235651319721  0.5887952755573593
  0.4804646780008710  0.0348607408175070  0.4117165934788432
  0.4794114300731707  0.0349370253458403  0.5901037330770222
  0.3145061085030392  0.2843622845384601  0.4055149237793785
  0.3138382882795412  0.2844751624832540  0.5898863875384848
  0.3981410004299164  0.2222175247242859  0.4095534053936447
  0.3973074373961438  0.2223423573614483  0.5883200317897703
  0.4804964318329397  0.1595741221994729  0.4110442542597710
  0.4795732445925651  0.1597178808573148  0.5899692739994933
  0.5630871009833243  0.0972347959988866  0.4125872490162124
  0.5622947862105647  0.0972224399945389  0.5922722832755696
  0.3141731477807213  0.4066038507301855  0.4062927543614592
  0.3134700755476203  0.4066737199737602  0.5887743394091558
  0.3980336498636561  0.3466473524676061  0.4094082036299085
  0.3971353422354724  0.3467122447735917  0.5882061671201271
  0.4809447034438676  0.2846062380747654  0.4108833873932412
  0.4797534934066903  0.2845827708441959  0.5900269878428119
  0.5632835975972341  0.2224607485692474  0.4123895402407243
  0.5621846420847163  0.2220997294857696  0.5913919613601948
  0.6454887910766161  0.0347212336411289  0.4137672527054264
  0.6487165160409347  0.0351299018436393  0.5904248551460327
  0.6465544002342014  0.1604223477642606  0.4139933434810885
  0.6438323599380098  0.1616854219003088  0.5943327112144559
  0.3119940571496045  0.5334341715231830  0.4118757407722811
  0.3113419140050411  0.5334078189216171  0.5830719310077015
  0.3968424792507150  0.4714277977154637  0.4090928851268529
  0.3959281729646804  0.4714551333806511  0.5883357708680279
  0.4805554592028756  0.4093616334213692  0.4110825019023139
  0.4792012731273729  0.4094080023201059  0.5898863576981768
  0.5641316531781655  0.3472879835978517  0.4139999540297552
  0.5618079314781923  0.3471227933293122  0.5930676085978988
  0.3151115988861264  0.6591788764948632  0.4036673547525709
  0.3144145906986822  0.6590929849170735  0.5915688697161485
  0.3968289715705211  0.5961727413765630  0.4094408619011674
  0.3959590231413728  0.5961372688125977  0.5880205460571446
  0.4800219854805192  0.5339740520070464  0.4111946108384288
  0.4787011827202221  0.5340026371696069  0.5896311381706028
  0.5632527957942060  0.4718846911588486  0.4129021572568661
  0.5616403486863391  0.4719377242914859  0.5921647591762209
  0.3968212005329477  0.7220516188656276  0.4095415126202937
  0.3960393747541957  0.7219653882462467  0.5880143508597797
  0.4796477552943301  0.6590288067901184  0.4108476075574927
  0.4785384640671069  0.6591133274618741  0.5895920296743498
  0.5633003943432584  0.5964863901698223  0.4138100827211630
  0.5610446521267534  0.5967736285981715  0.5927497952670038
  0.5622531667839823  0.7213238983948287  0.4120441677382018
  0.5612704467236611  0.7217029222446740  0.5908931582098802
  0.6484666595245585  0.2869101027015688  0.4152906132011935
  0.6452161812188777  0.2831298777402935  0.5981035343734362
  0.7271070045768653  0.0979527247978922  0.4135952930607516
  0.7264351177863801  0.1009036433932451  0.5892278336844967
  0.6477025005581254  0.4085147862618825  0.4153337776781996
  0.6449734338423099  0.4116362635032047  0.5989400390514419
  0.7441109722724590  0.2247937222376777  0.4666411136863715
  0.6473185324627195  0.5355273070540747  0.4152038483279199
  0.6445915133114113  0.5325925249447607  0.5987954028349733
  0.7347316913337920  0.3480367145028822  0.5687296666957735
  0.6475307459764252  0.6569816401759212  0.4147039441418983
  0.6444108135703033  0.6609020079622638  0.5976532585095953
  0.7418527909322634  0.4723833548034122  0.4645635170917686
  0.7341410156620896  0.5964591918097923  0.5686144472857890
  0.7434068156356233  0.7190051360788203  0.4660159534536490
  0.2306366106805555  0.1631632615647192  0.4967480161552942
  0.2300807601372838  0.2843262525181984  0.4968195705798095
  0.2286721651876604  0.6582470562850773  0.4966761167146743
  0.2359517171710337  0.0367088492315588  0.4968969644726400
  0.3120405643650201  0.7845943565663731  0.4122141740726804
  0.3114247249347386  0.7844862475462264  0.5832408788677839
  0.3154230026970808  0.9099379645148034  0.4040483178217613
  0.3146685095830932  0.9098450326749585  0.5919171236767156
  0.3970664622699047  0.8470875189438800  0.4098339062658596
  0.3962380490081330  0.8469024367490334  0.5882857098196581
  0.4796797197300080  0.7844973000884536  0.4109668804401210
  0.4788603176669497  0.7843281917235032  0.5895187143844183
  0.3973133887597413  0.9727850658279422  0.4100561520075132
  0.3964157866615068  0.9727542149565522  0.5885379785776905
  0.4801728310817737  0.9098777387486763  0.4114834977789528
  0.4791520716989410  0.9096797468891324  0.5901029494097898
  0.5624089920331770  0.8469023151449022  0.4123592881839642
  0.5616949595262355  0.8467717952249814  0.5918709388112546
  0.5634966754987119  0.9721525545484511  0.4137132259574940
  0.5630427140948129  0.9720491703759251  0.5915361085467765
  0.6456516837870936  0.7834759172449921  0.4134385035507293
  0.6430610503883187  0.7821468031041334  0.5937501335672692
  0.6451241855643204  0.9092132151568180  0.4135819336415594
  0.6483755117912224  0.9085618634822907  0.5902000061352837
  0.7264664934262441  0.8456508775847240  0.4130254339228330
  0.7258647009289376  0.8424781460610191  0.5887442578429756
  0.7490188214553015  0.9716324566262102  0.4947243073961332
  0.2289010578354151  0.9109147982086867  0.4969549578212238
  0.2356489587265997  0.7846170173454539  0.4968261787851702
  0.2356639665983735  0.5322131971023083  0.4965267229685182
  0.2304149312411923  0.4055473205728077  0.4964758431111207
 
  0.00000000E+00  0.00000000E+00  0.00000000E+00
  0.00000000E+00  0.00000000E+00  0.00000000E+00
  0.00000000E+00  0.00000000E+00  0.00000000E+00
  0.00000000E+00  0.00000000E+00  0.00000000E+00
  0.00000000E+00  0.00000000E+00  0.00000000E+00
  0.00000000E+00  0.00000000E+00  0.00000000E+00
  0.00000000E+00  0.00000000E+00  0.00000000E+00
  0.00000000E+00  0.00000000E+00  0.00000000E+00
  0.00000000E+00  0.00000000E+00  0.00000000E+00
  0.00000000E+00  0.00000000E+00  0.00000000E+00
  0.00000000E+00  0.00000000E+00  0.00000000E+00
  0.00000000E+00  0.00000000E+00  0.00000000E+00
  0.00000000E+00  0.00000000E+00  0.00000000E+00
  0.00000000E+00  0.00000000E+00  0.00000000E+00
  0.00000000E+00  0.00000000E+00  0.00000000E+00
  0.00000000E+00  0.00000000E+00  0.00000000E+00
  0.00000000E+00  0.00000000E+00  0.00000000E+00
  0.00000000E+00  0.00000000E+00  0.00000000E+00
  0.00000000E+00  0.00000000E+00  0.00000000E+00
  0.00000000E+00  0.00000000E+00  0.00000000E+00
  0.00000000E+00  0.00000000E+00  0.00000000E+00
  0.00000000E+00  0.00000000E+00  0.00000000E+00
  0.00000000E+00  0.00000000E+00  0.00000000E+00
  0.00000000E+00  0.00000000E+00  0.00000000E+00
  0.00000000E+00  0.00000000E+00  0.00000000E+00
  0.00000000E+00  0.00000000E+00  0.00000000E+00
  0.00000000E+00  0.00000000E+00  0.00000000E+00
  0.00000000E+00  0.00000000E+00  0.00000000E+00
  0.00000000E+00  0.00000000E+00  0.00000000E+00
  0.00000000E+00  0.00000000E+00  0.00000000E+00
  0.00000000E+00  0.00000000E+00  0.00000000E+00
  0.00000000E+00  0.00000000E+00  0.00000000E+00
  0.00000000E+00  0.00000000E+00  0.00000000E+00
  0.00000000E+00  0.00000000E+00  0.00000000E+00
  0.00000000E+00  0.00000000E+00  0.00000000E+00
  0.00000000E+00  0.00000000E+00  0.00000000E+00
  0.00000000E+00  0.00000000E+00  0.00000000E+00
  0.00000000E+00  0.00000000E+00  0.00000000E+00
  0.00000000E+00  0.00000000E+00  0.00000000E+00
  0.00000000E+00  0.00000000E+00  0.00000000E+00
  0.00000000E+00  0.00000000E+00  0.00000000E+00
  0.00000000E+00  0.00000000E+00  0.00000000E+00
  0.00000000E+00  0.00000000E+00  0.00000000E+00
  0.00000000E+00  0.00000000E+00  0.00000000E+00
  0.00000000E+00  0.00000000E+00  0.00000000E+00
  0.00000000E+00  0.00000000E+00  0.00000000E+00
  0.00000000E+00  0.00000000E+00  0.00000000E+00
  0.00000000E+00  0.00000000E+00  0.00000000E+00
  0.00000000E+00  0.00000000E+00  0.00000000E+00
  0.00000000E+00  0.00000000E+00  0.00000000E+00
  0.00000000E+00  0.00000000E+00  0.00000000E+00
  0.00000000E+00  0.00000000E+00  0.00000000E+00
  0.00000000E+00  0.00000000E+00  0.00000000E+00
  0.00000000E+00  0.00000000E+00  0.00000000E+00
  0.00000000E+00  0.00000000E+00  0.00000000E+00
  0.00000000E+00  0.00000000E+00  0.00000000E+00
  0.00000000E+00  0.00000000E+00  0.00000000E+00
  0.00000000E+00  0.00000000E+00  0.00000000E+00
  0.00000000E+00  0.00000000E+00  0.00000000E+00
  0.00000000E+00  0.00000000E+00  0.00000000E+00
  0.00000000E+00  0.00000000E+00  0.00000000E+00
  0.00000000E+00  0.00000000E+00  0.00000000E+00
  0.00000000E+00  0.00000000E+00  0.00000000E+00
  0.00000000E+00  0.00000000E+00  0.00000000E+00
  0.00000000E+00  0.00000000E+00  0.00000000E+00
  0.00000000E+00  0.00000000E+00  0.00000000E+00
  0.00000000E+00  0.00000000E+00  0.00000000E+00
  0.00000000E+00  0.00000000E+00  0.00000000E+00
  0.00000000E+00  0.00000000E+00  0.00000000E+00
  0.00000000E+00  0.00000000E+00  0.00000000E+00
  0.00000000E+00  0.00000000E+00  0.00000000E+00
  0.00000000E+00  0.00000000E+00  0.00000000E+00
  0.00000000E+00  0.00000000E+00  0.00000000E+00
  0.00000000E+00  0.00000000E+00  0.00000000E+00
  0.00000000E+00  0.00000000E+00  0.00000000E+00
  0.00000000E+00  0.00000000E+00  0.00000000E+00
  0.00000000E+00  0.00000000E+00  0.00000000E+00
  0.00000000E+00  0.00000000E+00  0.00000000E+00
  0.00000000E+00  0.00000000E+00  0.00000000E+00
  0.00000000E+00  0.00000000E+00  0.00000000E+00
  0.00000000E+00  0.00000000E+00  0.00000000E+00
  0.00000000E+00  0.00000000E+00  0.00000000E+00
  0.00000000E+00  0.00000000E+00  0.00000000E+00
  0.00000000E+00  0.00000000E+00  0.00000000E+00
  0.00000000E+00  0.00000000E+00  0.00000000E+00
  0.00000000E+00  0.00000000E+00  0.00000000E+00
  0.00000000E+00  0.00000000E+00  0.00000000E+00
  0.00000000E+00  0.00000000E+00  0.00000000E+00
  0.00000000E+00  0.00000000E+00  0.00000000E+00
  0.00000000E+00  0.00000000E+00  0.00000000E+00
  0.00000000E+00  0.00000000E+00  0.00000000E+00
  0.00000000E+00  0.00000000E+00  0.00000000E+00
  0.00000000E+00  0.00000000E+00  0.00000000E+00
  0.00000000E+00  0.00000000E+00  0.00000000E+00
  0.00000000E+00  0.00000000E+00  0.00000000E+00
  0.00000000E+00  0.00000000E+00  0.00000000E+00
  0.00000000E+00  0.00000000E+00  0.00000000E+00
  0.00000000E+00  0.00000000E+00  0.00000000E+00
  0.00000000E+00  0.00000000E+00  0.00000000E+00
  0.00000000E+00  0.00000000E+00  0.00000000E+00
  0.00000000E+00  0.00000000E+00  0.00000000E+00
  0.00000000E+00  0.00000000E+00  0.00000000E+00
  0.00000000E+00  0.00000000E+00  0.00000000E+00
  0.00000000E+00  0.00000000E+00  0.00000000E+00
  0.00000000E+00  0.00000000E+00  0.00000000E+00
  0.00000000E+00  0.00000000E+00  0.00000000E+00
  0.00000000E+00  0.00000000E+00  0.00000000E+00
  0.00000000E+00  0.00000000E+00  0.00000000E+00
  0.00000000E+00  0.00000000E+00  0.00000000E+00
  0.00000000E+00  0.00000000E+00  0.00000000E+00
  0.00000000E+00  0.00000000E+00  0.00000000E+00
  0.00000000E+00  0.00000000E+00  0.00000000E+00
  0.00000000E+00  0.00000000E+00  0.00000000E+00
  0.00000000E+00  0.00000000E+00  0.00000000E+00
  0.00000000E+00  0.00000000E+00  0.00000000E+00
  0.00000000E+00  0.00000000E+00  0.00000000E+00
  0.00000000E+00  0.00000000E+00  0.00000000E+00
  0.00000000E+00  0.00000000E+00  0.00000000E+00
  0.00000000E+00  0.00000000E+00  0.00000000E+00
  0.00000000E+00  0.00000000E+00  0.00000000E+00
  0.00000000E+00  0.00000000E+00  0.00000000E+00
  0.00000000E+00  0.00000000E+00  0.00000000E+00
  0.00000000E+00  0.00000000E+00  0.00000000E+00
  0.00000000E+00  0.00000000E+00  0.00000000E+00
  0.00000000E+00  0.00000000E+00  0.00000000E+00
  0.00000000E+00  0.00000000E+00  0.00000000E+00
  0.00000000E+00  0.00000000E+00  0.00000000E+00
  0.00000000E+00  0.00000000E+00  0.00000000E+00
  0.00000000E+00  0.00000000E+00  0.00000000E+00
  0.00000000E+00  0.00000000E+00  0.00000000E+00
  0.00000000E+00  0.00000000E+00  0.00000000E+00
  0.00000000E+00  0.00000000E+00  0.00000000E+00
  0.00000000E+00  0.00000000E+00  0.00000000E+00
  0.00000000E+00  0.00000000E+00  0.00000000E+00
  0.00000000E+00  0.00000000E+00  0.00000000E+00
  0.00000000E+00  0.00000000E+00  0.00000000E+00
  0.00000000E+00  0.00000000E+00  0.00000000E+00
  0.00000000E+00  0.00000000E+00  0.00000000E+00
  0.00000000E+00  0.00000000E+00  0.00000000E+00
  0.00000000E+00  0.00000000E+00  0.00000000E+00
  0.00000000E+00  0.00000000E+00  0.00000000E+00
  0.00000000E+00  0.00000000E+00  0.00000000E+00
  0.00000000E+00  0.00000000E+00  0.00000000E+00
  0.00000000E+00  0.00000000E+00  0.00000000E+00
  0.00000000E+00  0.00000000E+00  0.00000000E+00
  0.00000000E+00  0.00000000E+00  0.00000000E+00
