Mo36 Se72                               
   1.00000000000000     
    19.7339992522999985    0.0000000000000000    0.0000000000000000
    -9.8669996262000002   17.0901446708000009    0.0000000000000000
     0.0000000000000000    0.0000000000000000   25.8540000915999997
   Mo   Se   O    C 
    36    70     1     1
Direct
  0.1220974351733517  0.0480843362941528  0.4999709759140316
  0.1240396043072849  0.2145520370157286  0.4996105109700153
  0.1216544183227839  0.3798117140285484  0.4996661139127951
  0.1203989619249555  0.5462705600101998  0.5010275289689048
  0.1202921133275439  0.7134576598809588  0.5015156790140480
  0.1205466998442617  0.8807099882528320  0.5009809933972278
  0.2883219034288800  0.0494286854034911  0.4983926754884536
  0.2922574984940525  0.2167589921381463  0.4941110490720177
  0.2906907587469334  0.3780292880402953  0.4934402705216954
  0.2877462904752122  0.5464044344511905  0.4988287617171423
  0.2868729104785999  0.7131242858337572  0.5010219633780437
  0.2872308121922558  0.8806966184884644  0.5009591729542535
  0.4535460731737047  0.0478392811967723  0.5007338409000539
  0.4503697432523310  0.2152438388005677  0.4968545706153691
  0.4449560639660533  0.3741132861544969  0.4974482665296094
  0.4512189013521066  0.5433085774262523  0.4972763736214958
  0.4534573016077061  0.7123096450007154  0.5004958084855957
  0.4535275325447259  0.8801883943639268  0.5015841636575686
  0.6201439111303770  0.0466572941653780  0.5020062507831824
  0.6189003825491071  0.2132120240859834  0.5012572052103792
  0.6169190080519869  0.3776503221335332  0.4996262810842182
  0.6186640145879210  0.5451501806679033  0.5004669148759575
  0.6189134458168084  0.7116401413403182  0.5013606419985877
  0.6200936212609491  0.8795521752212565  0.5019730688850288
  0.7872512776783651  0.0467115716645878  0.5023188380803418
  0.7868042317327948  0.2132721344964637  0.5021392879102962
  0.7860021716194012  0.3794256288539302  0.5017356573257175
  0.7856298084921605  0.5458639967214154  0.5015851286368971
  0.7861510648521204  0.7125104677075313  0.5019736930217675
  0.7868082985791389  0.8796973616377883  0.5023259193700440
  0.9545297603929370  0.0471731672658677  0.5017542657985246
  0.9547938022917464  0.2134276511961772  0.5015598106540082
  0.9539702838995225  0.3798858833824710  0.5017139292740680
  0.9531915026926612  0.5462959883442693  0.5018449644826575
  0.9533188046417393  0.7131835309695589  0.5019291201305691
  0.9540651040927486  0.8803806689529452  0.5019189118634344
  0.0682320465900048  0.1045807143495523  0.5653068115298865
  0.0685598304741575  0.2697124654950684  0.5650679682835289
  0.0667055521729978  0.4349643825832246  0.5656835652325896
  0.0651468809547708  0.6019667531924640  0.5662379467264316
  0.0653509812801474  0.7697934199511280  0.5662637907656958
  0.0669586575373771  0.9379858629747844  0.5658476569354463
  0.2382048504179082  0.1101947089604778  0.5622959634562363
  0.2434773328219819  0.2735415179713527  0.5618216322643548
  0.2367405292091078  0.4329874432216769  0.5616195428949879
  0.2323868082414862  0.6007942727686597  0.5650804590990290
  0.2319115087146884  0.7694010270355065  0.5659887963093126
  0.2330049841476125  0.9390190472181033  0.5646616581499231
  0.3973924901960046  0.1075804384482026  0.5635930178609598
  0.3976909436117708  0.5984026680124259  0.5640662829092165
  0.3979321784970296  0.7677963890382031  0.5658085713315657
  0.3979293451679879  0.9368907758081377  0.5659580022230415
  0.5636946867745678  0.1025291036318094  0.5662983340057863
  0.5579107293696524  0.2678846638613663  0.5643332373686363
  0.5574769537292070  0.4302908550753557  0.5625716734012300
  0.5595537704658256  0.5969965755719997  0.5648324581532762
  0.5634345459312300  0.7671779442286635  0.5662069413421520
  0.5642091363593948  0.9351925405041968  0.5667489684567073
  0.7312809352120411  0.1022574678890820  0.5670516020007099
  0.7298589733576222  0.2685668914485646  0.5665707308960393
  0.7278769034029935  0.4336935618063436  0.5656601189940389
  0.7289045483407719  0.6002788774342278  0.5662900807930313
  0.7297863206490689  0.7673657676817456  0.5666918043418860
  0.7311415846177525  0.9352403809269418  0.5670927062928044
  0.8994116145660698  0.1028691656530967  0.5667943220289189
  0.8989852708352188  0.2689192334067272  0.5665629767083047
  0.8976679897024979  0.4350332652756492  0.5665772738671606
  0.8970523253283602  0.6015184773386579  0.5665568093256752
  0.8978427604241830  0.7688657341085374  0.5667391172397842
  0.8988110767171591  0.9360551162380801  0.5668378246098200
  0.0644876047689564  0.1020212643627971  0.4359978117242491
  0.0649090816346174  0.2680888253008575  0.4357446074002169
  0.0642280242602808  0.4352627648422356  0.4361295833889258
  0.0641603565595119  0.6020419583644525  0.4367920365017781
  0.0641734402031204  0.7685933018101636  0.4367633955844781
  0.0642128043785917  0.9353395729467806  0.4362343819323371
  0.2310136409146892  0.1021614661179058  0.4325547448563043
  0.2302089578434803  0.2658707620844538  0.4304787848829861
  0.2308437618137731  0.4360344771549691  0.4329670348178993
  0.2307223319928227  0.6026208762951626  0.4355734004974465
  0.2311715897050490  0.7689440984478040  0.4364570920438737
  0.2311290867500801  0.9351164103662768  0.4355804129731169
  0.3997234218694032  0.1032479086651605  0.4337804589998129
  0.3999821827583858  0.2707334189721990  0.4292973794570187
  0.4001324516331621  0.4352418950224859  0.4286559072943987
  0.3974836491989535  0.6032822452776898  0.4335538296014079
  0.3982156879765029  0.7693633870761900  0.4364490540169470
  0.3985047529596812  0.9358840450991153  0.4363547022243850
  0.5651791046072887  0.1022046153629290  0.4366201125913065
  0.5631716896858734  0.2670210245119975  0.4344884347013220
  0.5613131415020476  0.4338013136266881  0.4356197310474883
  0.5657553724794369  0.6022955952817952  0.4351380833070309
  0.5652238387198807  0.7689919137571266  0.4365140457307604
  0.5649911779472063  0.9355969363663306  0.4370981683471982
  0.7315880553580101  0.1021318983837745  0.4374231444112411
  0.7311110433765151  0.2684416692768536  0.4370170611457027
  0.7306987868607777  0.4349411451943013  0.4364809958416060
  0.7312768876958700  0.6019995746963858  0.4365193820370692
  0.7312573329980978  0.7687991823941545  0.4372928742427433
  0.7316126660709159  0.9355591025730945  0.4374767185315278
  0.8980437728004631  0.1020143140616767  0.4371136721645641
  0.8980063880123410  0.2685640651544929  0.4371552574433295
  0.8976285095250134  0.4351468807108034  0.4370848327959678
  0.8975661196569646  0.6019255681062177  0.4371073751452315
  0.8976968917315062  0.7687932226614294  0.4372861191645825
  0.8978677368273296  0.9354498115317043  0.4373242654326788
  0.4128784091309683  0.4101034657521225  0.5793612116949660
  0.3986621982944030  0.4389850594654803  0.5405164764115895
 
  0.00000000E+00  0.00000000E+00  0.00000000E+00
  0.00000000E+00  0.00000000E+00  0.00000000E+00
  0.00000000E+00  0.00000000E+00  0.00000000E+00
  0.00000000E+00  0.00000000E+00  0.00000000E+00
  0.00000000E+00  0.00000000E+00  0.00000000E+00
  0.00000000E+00  0.00000000E+00  0.00000000E+00
  0.00000000E+00  0.00000000E+00  0.00000000E+00
  0.00000000E+00  0.00000000E+00  0.00000000E+00
  0.00000000E+00  0.00000000E+00  0.00000000E+00
  0.00000000E+00  0.00000000E+00  0.00000000E+00
  0.00000000E+00  0.00000000E+00  0.00000000E+00
  0.00000000E+00  0.00000000E+00  0.00000000E+00
  0.00000000E+00  0.00000000E+00  0.00000000E+00
  0.00000000E+00  0.00000000E+00  0.00000000E+00
  0.00000000E+00  0.00000000E+00  0.00000000E+00
  0.00000000E+00  0.00000000E+00  0.00000000E+00
  0.00000000E+00  0.00000000E+00  0.00000000E+00
  0.00000000E+00  0.00000000E+00  0.00000000E+00
  0.00000000E+00  0.00000000E+00  0.00000000E+00
  0.00000000E+00  0.00000000E+00  0.00000000E+00
  0.00000000E+00  0.00000000E+00  0.00000000E+00
  0.00000000E+00  0.00000000E+00  0.00000000E+00
  0.00000000E+00  0.00000000E+00  0.00000000E+00
  0.00000000E+00  0.00000000E+00  0.00000000E+00
  0.00000000E+00  0.00000000E+00  0.00000000E+00
  0.00000000E+00  0.00000000E+00  0.00000000E+00
  0.00000000E+00  0.00000000E+00  0.00000000E+00
  0.00000000E+00  0.00000000E+00  0.00000000E+00
  0.00000000E+00  0.00000000E+00  0.00000000E+00
  0.00000000E+00  0.00000000E+00  0.00000000E+00
  0.00000000E+00  0.00000000E+00  0.00000000E+00
  0.00000000E+00  0.00000000E+00  0.00000000E+00
  0.00000000E+00  0.00000000E+00  0.00000000E+00
  0.00000000E+00  0.00000000E+00  0.00000000E+00
  0.00000000E+00  0.00000000E+00  0.00000000E+00
  0.00000000E+00  0.00000000E+00  0.00000000E+00
  0.00000000E+00  0.00000000E+00  0.00000000E+00
  0.00000000E+00  0.00000000E+00  0.00000000E+00
  0.00000000E+00  0.00000000E+00  0.00000000E+00
  0.00000000E+00  0.00000000E+00  0.00000000E+00
  0.00000000E+00  0.00000000E+00  0.00000000E+00
  0.00000000E+00  0.00000000E+00  0.00000000E+00
  0.00000000E+00  0.00000000E+00  0.00000000E+00
  0.00000000E+00  0.00000000E+00  0.00000000E+00
  0.00000000E+00  0.00000000E+00  0.00000000E+00
  0.00000000E+00  0.00000000E+00  0.00000000E+00
  0.00000000E+00  0.00000000E+00  0.00000000E+00
  0.00000000E+00  0.00000000E+00  0.00000000E+00
  0.00000000E+00  0.00000000E+00  0.00000000E+00
  0.00000000E+00  0.00000000E+00  0.00000000E+00
  0.00000000E+00  0.00000000E+00  0.00000000E+00
  0.00000000E+00  0.00000000E+00  0.00000000E+00
  0.00000000E+00  0.00000000E+00  0.00000000E+00
  0.00000000E+00  0.00000000E+00  0.00000000E+00
  0.00000000E+00  0.00000000E+00  0.00000000E+00
  0.00000000E+00  0.00000000E+00  0.00000000E+00
  0.00000000E+00  0.00000000E+00  0.00000000E+00
  0.00000000E+00  0.00000000E+00  0.00000000E+00
  0.00000000E+00  0.00000000E+00  0.00000000E+00
  0.00000000E+00  0.00000000E+00  0.00000000E+00
  0.00000000E+00  0.00000000E+00  0.00000000E+00
  0.00000000E+00  0.00000000E+00  0.00000000E+00
  0.00000000E+00  0.00000000E+00  0.00000000E+00
  0.00000000E+00  0.00000000E+00  0.00000000E+00
  0.00000000E+00  0.00000000E+00  0.00000000E+00
  0.00000000E+00  0.00000000E+00  0.00000000E+00
  0.00000000E+00  0.00000000E+00  0.00000000E+00
  0.00000000E+00  0.00000000E+00  0.00000000E+00
  0.00000000E+00  0.00000000E+00  0.00000000E+00
  0.00000000E+00  0.00000000E+00  0.00000000E+00
  0.00000000E+00  0.00000000E+00  0.00000000E+00
  0.00000000E+00  0.00000000E+00  0.00000000E+00
  0.00000000E+00  0.00000000E+00  0.00000000E+00
  0.00000000E+00  0.00000000E+00  0.00000000E+00
  0.00000000E+00  0.00000000E+00  0.00000000E+00
  0.00000000E+00  0.00000000E+00  0.00000000E+00
  0.00000000E+00  0.00000000E+00  0.00000000E+00
  0.00000000E+00  0.00000000E+00  0.00000000E+00
  0.00000000E+00  0.00000000E+00  0.00000000E+00
  0.00000000E+00  0.00000000E+00  0.00000000E+00
  0.00000000E+00  0.00000000E+00  0.00000000E+00
  0.00000000E+00  0.00000000E+00  0.00000000E+00
  0.00000000E+00  0.00000000E+00  0.00000000E+00
  0.00000000E+00  0.00000000E+00  0.00000000E+00
  0.00000000E+00  0.00000000E+00  0.00000000E+00
  0.00000000E+00  0.00000000E+00  0.00000000E+00
  0.00000000E+00  0.00000000E+00  0.00000000E+00
  0.00000000E+00  0.00000000E+00  0.00000000E+00
  0.00000000E+00  0.00000000E+00  0.00000000E+00
  0.00000000E+00  0.00000000E+00  0.00000000E+00
  0.00000000E+00  0.00000000E+00  0.00000000E+00
  0.00000000E+00  0.00000000E+00  0.00000000E+00
  0.00000000E+00  0.00000000E+00  0.00000000E+00
  0.00000000E+00  0.00000000E+00  0.00000000E+00
  0.00000000E+00  0.00000000E+00  0.00000000E+00
  0.00000000E+00  0.00000000E+00  0.00000000E+00
  0.00000000E+00  0.00000000E+00  0.00000000E+00
  0.00000000E+00  0.00000000E+00  0.00000000E+00
  0.00000000E+00  0.00000000E+00  0.00000000E+00
  0.00000000E+00  0.00000000E+00  0.00000000E+00
  0.00000000E+00  0.00000000E+00  0.00000000E+00
  0.00000000E+00  0.00000000E+00  0.00000000E+00
  0.00000000E+00  0.00000000E+00  0.00000000E+00
  0.00000000E+00  0.00000000E+00  0.00000000E+00
  0.00000000E+00  0.00000000E+00  0.00000000E+00
  0.00000000E+00  0.00000000E+00  0.00000000E+00
  0.00000000E+00  0.00000000E+00  0.00000000E+00
  0.00000000E+00  0.00000000E+00  0.00000000E+00
