Mo48 Se97                               
   1.00000000000000     
    33.0000000000000000    0.0000000000000000    0.0000000000000000
     0.0000000000000000   26.3120002747000008    0.0000000000000000
     0.0000000000000000    0.0000000000000000   18.0970001220999990
   Mo   Se   O    C 
    48    97     1     1
Direct
  0.2855522695645760  0.0285844216196409  0.5000077957384619
  0.2791675070229687  0.2911834306242298  0.5000492221267407
  0.2850650010200440  0.5283975636286158  0.5001970708467596
  0.2795884990550661  0.7909877843743516  0.5003077601915393
  0.4550256106867394  0.0365471790608467  0.5000114420894732
  0.4538933383924402  0.2864373187959970  0.4998856993440270
  0.4546437925526803  0.5363242151515664  0.5000009053139465
  0.4540568654605011  0.7862760229571393  0.5001769142339469
  0.6289554812809470  0.0367815863290133  0.4999263548698849
  0.6296652009143031  0.2863584343715289  0.4997484818506237
  0.6296267464601613  0.5370762256431476  0.4999329586257559
  0.6286909200213131  0.7862179185779752  0.4999902634326645
  0.2795128656571890  0.1562250321841248  0.5000122202136126
  0.2850621713879917  0.4186435201120133  0.5001407570842602
  0.2792987725198586  0.6559077865490437  0.5002690045999003
  0.2855402340303073  0.9188609917511101  0.5001257294515042
  0.4542204849880349  0.1613466450011600  0.4999396290193800
  0.4549875344774819  0.4109856084941796  0.4999081549905284
  0.4540681842316729  0.6608692173940227  0.5001238525307841
  0.4551864619375579  0.9109552493583948  0.5001130094234014
  0.6289270954267749  0.1616808773941898  0.4998315221488099
  0.6303916752833274  0.4113117200349379  0.4998333389749163
  0.6289332468622959  0.6611339642237155  0.4999858906325017
  0.6295217055229898  0.9113393842798843  0.4999693544387185
  0.3656739716791080  0.2237401161547794  0.4999696551521140
  0.3677756850678264  0.4735262046616313  0.5000536026505316
  0.3656375807731393  0.7236107582979443  0.5002689854648423
  0.3681376527644176  0.9736932796920854  0.5000735188594234
  0.5415869845812438  0.2240596579363014  0.4998291782447311
  0.5421744493435128  0.4734747831900918  0.4998595364155278
  0.5412290893154221  0.7235779696766045  0.5000723779127156
  0.5423116313117688  0.9737566613157398  0.5000037469965548
  0.7134116367906742  0.2150674909147128  0.4998130371147980
  0.7091006085169980  0.4666425478496734  0.4999491775063944
  0.7160479806713482  0.7156341287888566  0.4999537084153474
  0.7173932130975018  0.9657421450707986  0.4998957951270526
  0.3681356840815369  0.0980466286985902  0.4999871370232540
  0.3678815994821392  0.3495716310818153  0.4999923768145180
  0.3678523937490681  0.5978568469356560  0.5001813809758104
  0.3681261990609670  0.8494880451969848  0.5001994582171108
  0.5417820931404052  0.0991587086962227  0.4999166969768183
  0.5415849658886529  0.3487823038812365  0.4998004477293847
  0.5417302934450205  0.5987637264300858  0.4999895052647432
  0.5420723609380573  0.8487500523240072  0.5000630175338046
  0.7166888755797487  0.1068626735683296  0.4998646406123228
  0.7132511345495445  0.3548956971468584  0.4998484425312810
  0.7117304982120132  0.6076502913453083  0.4999507980292179
  0.7172765897618518  0.8568040048999208  0.4999001970899002
  0.2522698223581799  0.0933088420011288  0.5877886408490625
  0.2519249759435027  0.3538931597855637  0.5881206710652762
  0.2519703811840799  0.5931220199229443  0.5882312782700936
  0.2522005699569760  0.8540895196189240  0.5877094059419790
  0.4256920536349043  0.0988439932237597  0.5929405113935147
  0.4254275874411135  0.3488270594105742  0.5929380819279899
  0.4253916037066361  0.5985894616779817  0.5931382079572884
  0.4256988939439097  0.8487782736689695  0.5931589933511248
  0.5997278191464943  0.0988501865604121  0.5923729810035496
  0.5999735165768527  0.3484945368794641  0.5915376426971619
  0.5996745948038154  0.5983532150764361  0.5923585198556651
  0.6002424180535044  0.8487458400156740  0.5925036628035798
  0.4240953096861588  0.2237806020208453  0.5919224462401544
  0.4259451341157003  0.4735532813121992  0.5925298095363942
  0.4241663011274497  0.7235663586238132  0.5920901347496113
  0.4263203789077821  0.9737255507329152  0.5925793533142709
  0.5997412513518086  0.2247313522218946  0.5919273385679134
  0.6004730086150403  0.4744478623489812  0.5916871645145605
  0.5993025235968474  0.7242172408758094  0.5922195787143067
  0.6005003070039763  0.9741585114213223  0.5923438440646152
  0.3391352004276769  0.0353680847273097  0.5950960142880959
  0.3361603646642806  0.2868950800320462  0.5916131562152600
  0.3387138362424125  0.5351373853663404  0.5951227825936627
  0.3364322552024035  0.7869618388191455  0.5920338608162012
  0.5130641072688675  0.0363490571346077  0.5924146438184721
  0.5120409561152144  0.2862654938904683  0.5921409753500129
  0.5126782568759864  0.5360644349905428  0.5922940603590234
  0.5122804450598011  0.7863417743982311  0.5923592006097280
  0.6899313045094075  0.0364665990685182  0.5878314769755164
  0.6913810843583050  0.2848231616554955  0.5890678046490763
  0.6917223656982046  0.5378244160517340  0.5920338970209258
  0.6896453941102791  0.7863181901007792  0.5878789021480344
  0.3363662134284411  0.1605656471918095  0.5917956972985721
  0.3386839466020959  0.4120001195952483  0.5951575750911431
  0.3361738634296145  0.6604624391321678  0.5920523292249200
  0.3390890923156817  0.9121449598648113  0.5952407542209315
  0.5123948801583111  0.1615054132920974  0.5924279027097086
  0.5129413034640251  0.4111189256805332  0.5926788384353401
  0.5121813328326112  0.6611412669704251  0.5926599298757367
  0.5132565366056951  0.9112364288133961  0.5926966584444031
  0.6847656698205284  0.1600855732700381  0.5985242903787409
  0.6854119691618195  0.4087504059462219  0.6017787687412692
  0.6841710478511516  0.6629089452193142  0.5991761639780151
  0.6864397112318485  0.9113410833474376  0.5974545588991376
  0.2522763276193558  0.0932903729970889  0.4122121331533606
  0.2518486145679546  0.3539406161343805  0.4121702833218066
  0.2518954956779709  0.5931772029300788  0.4123278755364765
  0.2521950646535913  0.8540343169129656  0.4127302927759544
  0.4256831045522702  0.0987959647708578  0.4070180747227568
  0.4253634233059813  0.3488419648800587  0.4069245104130061
  0.4253156352046688  0.5986667560598136  0.4070635958913726
  0.4256633102203722  0.8487387273042586  0.4071693235195539
  0.5997075034905990  0.0987906720096703  0.4074196549303792
  0.5999685039898992  0.3485658647966616  0.4080252507707200
  0.5996592983898239  0.5983882254631681  0.4075890230263113
  0.6001970021470200  0.8487321748639900  0.4075137651912186
  0.2285072061115017  0.2235041117791070  0.5000039638428788
  0.2257401828704388  0.4735217742862403  0.5001157475898381
  0.2286703208308651  0.7235349823571795  0.5000272935703052
  0.2262066616195355  0.9737364873705658  0.5000327377465439
  0.4240649472404314  0.2237451661005565  0.4079421089955204
  0.4258833192851128  0.4736190917774721  0.4074365451794080
  0.4241020999515754  0.7236013924842339  0.4083198358233986
  0.4263076568162703  0.9736488336472604  0.4075677548366983
  0.5997101552805475  0.2246793477511702  0.4076589741920529
  0.6004962680290831  0.4745036501323767  0.4080605305605332
  0.5992472992069580  0.7242176203720732  0.4078162552864839
  0.6004679560075274  0.9741258835623015  0.4075905569297049
  0.3391473434480261  0.0353070896380316  0.4049386048235348
  0.3361152100111298  0.2868974189583966  0.4083946823963061
  0.3386544525158541  0.5352381241555406  0.4051789680591824
  0.3363760495102781  0.7868960184236187  0.4085165020140238
  0.5130307617064176  0.0362829789889787  0.4075439468161974
  0.5120061718532511  0.2862562253484953  0.4075177508708450
  0.5126312805677813  0.5361466547540772  0.4075803971124543
  0.5122187908152256  0.7863239472763865  0.4078590144840533
  0.6899110808921876  0.0364506854636133  0.4119780450048722
  0.6914206360114363  0.2848581424912524  0.4105032961394173
  0.6917289723310631  0.5378475907988900  0.4078549284591375
  0.6896034381526732  0.7862856527169129  0.4120047463585053
  0.3363409264453594  0.1605508627213794  0.4081783474673841
  0.3385939616481508  0.4120448207522287  0.4049647255466766
  0.3361409217741453  0.6605181025123699  0.4084337838637992
  0.3390924020684309  0.9120605768901200  0.4050253577604082
  0.5123512076700649  0.1614483285897848  0.4073651314806526
  0.5128928679268867  0.4111595128812553  0.4070135040631726
  0.5121315834804889  0.6611829916387393  0.4074605411933021
  0.5132099000291461  0.9111847853785875  0.4074283272115409
  0.6847743048042148  0.1600607588382559  0.4011467593217901
  0.7781885470548104  0.9110977387973236  0.4999178207756714
  0.7700733899160923  0.7827633079312619  0.4999255668638796
  0.7750430548777487  0.6503726875732667  0.4999479216572027
  0.7762724662819593  0.1710916609650965  0.4999046656491686
  0.7704468704393861  0.0393487497711504  0.4998963422639022
  0.6854574406229119  0.4088342442280677  0.3979701824505639
  0.6841494240226353  0.6629182481406346  0.4007589269790230
  0.6863874895536739  0.9113415611991869  0.4023786529992677
  0.7732898330239237  0.3812655199443498  0.5001349041845629
  0.7550518495389511  0.4238107947568608  0.5000424890271731
 
  0.00000000E+00  0.00000000E+00  0.00000000E+00
  0.00000000E+00  0.00000000E+00  0.00000000E+00
  0.00000000E+00  0.00000000E+00  0.00000000E+00
  0.00000000E+00  0.00000000E+00  0.00000000E+00
  0.00000000E+00  0.00000000E+00  0.00000000E+00
  0.00000000E+00  0.00000000E+00  0.00000000E+00
  0.00000000E+00  0.00000000E+00  0.00000000E+00
  0.00000000E+00  0.00000000E+00  0.00000000E+00
  0.00000000E+00  0.00000000E+00  0.00000000E+00
  0.00000000E+00  0.00000000E+00  0.00000000E+00
  0.00000000E+00  0.00000000E+00  0.00000000E+00
  0.00000000E+00  0.00000000E+00  0.00000000E+00
  0.00000000E+00  0.00000000E+00  0.00000000E+00
  0.00000000E+00  0.00000000E+00  0.00000000E+00
  0.00000000E+00  0.00000000E+00  0.00000000E+00
  0.00000000E+00  0.00000000E+00  0.00000000E+00
  0.00000000E+00  0.00000000E+00  0.00000000E+00
  0.00000000E+00  0.00000000E+00  0.00000000E+00
  0.00000000E+00  0.00000000E+00  0.00000000E+00
  0.00000000E+00  0.00000000E+00  0.00000000E+00
  0.00000000E+00  0.00000000E+00  0.00000000E+00
  0.00000000E+00  0.00000000E+00  0.00000000E+00
  0.00000000E+00  0.00000000E+00  0.00000000E+00
  0.00000000E+00  0.00000000E+00  0.00000000E+00
  0.00000000E+00  0.00000000E+00  0.00000000E+00
  0.00000000E+00  0.00000000E+00  0.00000000E+00
  0.00000000E+00  0.00000000E+00  0.00000000E+00
  0.00000000E+00  0.00000000E+00  0.00000000E+00
  0.00000000E+00  0.00000000E+00  0.00000000E+00
  0.00000000E+00  0.00000000E+00  0.00000000E+00
  0.00000000E+00  0.00000000E+00  0.00000000E+00
  0.00000000E+00  0.00000000E+00  0.00000000E+00
  0.00000000E+00  0.00000000E+00  0.00000000E+00
  0.00000000E+00  0.00000000E+00  0.00000000E+00
  0.00000000E+00  0.00000000E+00  0.00000000E+00
  0.00000000E+00  0.00000000E+00  0.00000000E+00
  0.00000000E+00  0.00000000E+00  0.00000000E+00
  0.00000000E+00  0.00000000E+00  0.00000000E+00
  0.00000000E+00  0.00000000E+00  0.00000000E+00
  0.00000000E+00  0.00000000E+00  0.00000000E+00
  0.00000000E+00  0.00000000E+00  0.00000000E+00
  0.00000000E+00  0.00000000E+00  0.00000000E+00
  0.00000000E+00  0.00000000E+00  0.00000000E+00
  0.00000000E+00  0.00000000E+00  0.00000000E+00
  0.00000000E+00  0.00000000E+00  0.00000000E+00
  0.00000000E+00  0.00000000E+00  0.00000000E+00
  0.00000000E+00  0.00000000E+00  0.00000000E+00
  0.00000000E+00  0.00000000E+00  0.00000000E+00
  0.00000000E+00  0.00000000E+00  0.00000000E+00
  0.00000000E+00  0.00000000E+00  0.00000000E+00
  0.00000000E+00  0.00000000E+00  0.00000000E+00
  0.00000000E+00  0.00000000E+00  0.00000000E+00
  0.00000000E+00  0.00000000E+00  0.00000000E+00
  0.00000000E+00  0.00000000E+00  0.00000000E+00
  0.00000000E+00  0.00000000E+00  0.00000000E+00
  0.00000000E+00  0.00000000E+00  0.00000000E+00
  0.00000000E+00  0.00000000E+00  0.00000000E+00
  0.00000000E+00  0.00000000E+00  0.00000000E+00
  0.00000000E+00  0.00000000E+00  0.00000000E+00
  0.00000000E+00  0.00000000E+00  0.00000000E+00
  0.00000000E+00  0.00000000E+00  0.00000000E+00
  0.00000000E+00  0.00000000E+00  0.00000000E+00
  0.00000000E+00  0.00000000E+00  0.00000000E+00
  0.00000000E+00  0.00000000E+00  0.00000000E+00
  0.00000000E+00  0.00000000E+00  0.00000000E+00
  0.00000000E+00  0.00000000E+00  0.00000000E+00
  0.00000000E+00  0.00000000E+00  0.00000000E+00
  0.00000000E+00  0.00000000E+00  0.00000000E+00
  0.00000000E+00  0.00000000E+00  0.00000000E+00
  0.00000000E+00  0.00000000E+00  0.00000000E+00
  0.00000000E+00  0.00000000E+00  0.00000000E+00
  0.00000000E+00  0.00000000E+00  0.00000000E+00
  0.00000000E+00  0.00000000E+00  0.00000000E+00
  0.00000000E+00  0.00000000E+00  0.00000000E+00
  0.00000000E+00  0.00000000E+00  0.00000000E+00
  0.00000000E+00  0.00000000E+00  0.00000000E+00
  0.00000000E+00  0.00000000E+00  0.00000000E+00
  0.00000000E+00  0.00000000E+00  0.00000000E+00
  0.00000000E+00  0.00000000E+00  0.00000000E+00
  0.00000000E+00  0.00000000E+00  0.00000000E+00
  0.00000000E+00  0.00000000E+00  0.00000000E+00
  0.00000000E+00  0.00000000E+00  0.00000000E+00
  0.00000000E+00  0.00000000E+00  0.00000000E+00
  0.00000000E+00  0.00000000E+00  0.00000000E+00
  0.00000000E+00  0.00000000E+00  0.00000000E+00
  0.00000000E+00  0.00000000E+00  0.00000000E+00
  0.00000000E+00  0.00000000E+00  0.00000000E+00
  0.00000000E+00  0.00000000E+00  0.00000000E+00
  0.00000000E+00  0.00000000E+00  0.00000000E+00
  0.00000000E+00  0.00000000E+00  0.00000000E+00
  0.00000000E+00  0.00000000E+00  0.00000000E+00
  0.00000000E+00  0.00000000E+00  0.00000000E+00
  0.00000000E+00  0.00000000E+00  0.00000000E+00
  0.00000000E+00  0.00000000E+00  0.00000000E+00
  0.00000000E+00  0.00000000E+00  0.00000000E+00
  0.00000000E+00  0.00000000E+00  0.00000000E+00
  0.00000000E+00  0.00000000E+00  0.00000000E+00
  0.00000000E+00  0.00000000E+00  0.00000000E+00
  0.00000000E+00  0.00000000E+00  0.00000000E+00
  0.00000000E+00  0.00000000E+00  0.00000000E+00
  0.00000000E+00  0.00000000E+00  0.00000000E+00
  0.00000000E+00  0.00000000E+00  0.00000000E+00
  0.00000000E+00  0.00000000E+00  0.00000000E+00
  0.00000000E+00  0.00000000E+00  0.00000000E+00
  0.00000000E+00  0.00000000E+00  0.00000000E+00
  0.00000000E+00  0.00000000E+00  0.00000000E+00
  0.00000000E+00  0.00000000E+00  0.00000000E+00
  0.00000000E+00  0.00000000E+00  0.00000000E+00
  0.00000000E+00  0.00000000E+00  0.00000000E+00
  0.00000000E+00  0.00000000E+00  0.00000000E+00
  0.00000000E+00  0.00000000E+00  0.00000000E+00
  0.00000000E+00  0.00000000E+00  0.00000000E+00
  0.00000000E+00  0.00000000E+00  0.00000000E+00
  0.00000000E+00  0.00000000E+00  0.00000000E+00
  0.00000000E+00  0.00000000E+00  0.00000000E+00
  0.00000000E+00  0.00000000E+00  0.00000000E+00
  0.00000000E+00  0.00000000E+00  0.00000000E+00
  0.00000000E+00  0.00000000E+00  0.00000000E+00
  0.00000000E+00  0.00000000E+00  0.00000000E+00
  0.00000000E+00  0.00000000E+00  0.00000000E+00
  0.00000000E+00  0.00000000E+00  0.00000000E+00
  0.00000000E+00  0.00000000E+00  0.00000000E+00
  0.00000000E+00  0.00000000E+00  0.00000000E+00
  0.00000000E+00  0.00000000E+00  0.00000000E+00
  0.00000000E+00  0.00000000E+00  0.00000000E+00
  0.00000000E+00  0.00000000E+00  0.00000000E+00
  0.00000000E+00  0.00000000E+00  0.00000000E+00
  0.00000000E+00  0.00000000E+00  0.00000000E+00
  0.00000000E+00  0.00000000E+00  0.00000000E+00
  0.00000000E+00  0.00000000E+00  0.00000000E+00
  0.00000000E+00  0.00000000E+00  0.00000000E+00
  0.00000000E+00  0.00000000E+00  0.00000000E+00
  0.00000000E+00  0.00000000E+00  0.00000000E+00
  0.00000000E+00  0.00000000E+00  0.00000000E+00
  0.00000000E+00  0.00000000E+00  0.00000000E+00
  0.00000000E+00  0.00000000E+00  0.00000000E+00
  0.00000000E+00  0.00000000E+00  0.00000000E+00
  0.00000000E+00  0.00000000E+00  0.00000000E+00
  0.00000000E+00  0.00000000E+00  0.00000000E+00
  0.00000000E+00  0.00000000E+00  0.00000000E+00
  0.00000000E+00  0.00000000E+00  0.00000000E+00
  0.00000000E+00  0.00000000E+00  0.00000000E+00
  0.00000000E+00  0.00000000E+00  0.00000000E+00
  0.00000000E+00  0.00000000E+00  0.00000000E+00
  0.00000000E+00  0.00000000E+00  0.00000000E+00
  0.00000000E+00  0.00000000E+00  0.00000000E+00
  0.00000000E+00  0.00000000E+00  0.00000000E+00
