Mo48 Se97                               
   1.00000000000000     
    33.0000000000000000    0.0000000000000000    0.0000000000000000
     0.0000000000000000   26.3120002747000008    0.0000000000000000
     0.0000000000000000    0.0000000000000000   18.0970001220999990
   Mo   Se   O    C 
    48    97     1     1
Direct
  0.2855522695645779  0.0285844216196423  0.5000077957384612
  0.2791675070229721  0.2911834306242288  0.5000492221267415
  0.2850650010200412  0.5283975636286160  0.5001970708467590
  0.2795884990550627  0.7909877843743505  0.5003077601915398
  0.4550256106867374  0.0365471790608433  0.5000114420894732
  0.4538933383924372  0.2864373187959990  0.4998856993440239
  0.4546437925526833  0.5363242151515676  0.5000009053139469
  0.4540568654604991  0.7862760229571384  0.5001769142339437
  0.6289554812809452  0.0367815863290119  0.4999263548698871
  0.6296652009143019  0.2863584343715320  0.4997484818506269
  0.6296267464601586  0.5370762256431492  0.4999329586257542
  0.6286909200213132  0.7862179185779739  0.4999902634326626
  0.2795128656571909  0.1562250321841212  0.5000122202136099
  0.2850621713879915  0.4186435201120166  0.5001407570842623
  0.2792987725198595  0.6559077865490431  0.5002690045999028
  0.2855402340303093  0.9188609917511075  0.5001257294515041
  0.4542204849880367  0.1613466450011587  0.4999396290193790
  0.4549875344774822  0.4109856084941801  0.4999081549905277
  0.4540681842316749  0.6608692173940254  0.5001238525307811
  0.4551864619375613  0.9109552493583968  0.5001130094234021
  0.6289270954267758  0.1616808773941925  0.4998315221488069
  0.6303916752833264  0.4113117200349344  0.4998333389749171
  0.6289332468622949  0.6611339642237180  0.4999858906324984
  0.6295217055229922  0.9113393842798868  0.4999693544387191
  0.3656739716791045  0.2237401161547767  0.4999696551521132
  0.3677756850678292  0.4735262046616341  0.5000536026505310
  0.3656375807731398  0.7236107582979436  0.5002689854648390
  0.3681376527644171  0.9736932796920889  0.5000735188594264
  0.5415869845812415  0.2240596579363024  0.4998291782447326
  0.5421744493435142  0.4734747831900952  0.4998595364155287
  0.5412290893154205  0.7235779696766030  0.5000723779127143
  0.5423116313117659  0.9737566613157363  0.5000037469965567
  0.7134116367906713  0.2150674909147150  0.4998130371147951
  0.7091006085169950  0.4666425478496728  0.4999491775063954
  0.7160479806713493  0.7156341287888542  0.4999537084153459
  0.7173932130975016  0.9657421450707951  0.4998957951270549
  0.3681356840815375  0.0980466286985927  0.4999871370232542
  0.3678815994821388  0.3495716310818163  0.4999923768145164
  0.3678523937490690  0.5978568469356584  0.5001813809758129
  0.3681261990609662  0.8494880451969864  0.5001994582171095
  0.5417820931404058  0.0991587086962262  0.4999166969768157
  0.5415849658886502  0.3487823038812398  0.4998004477293871
  0.5417302934450178  0.5987637264300855  0.4999895052647398
  0.5420723609380563  0.8487500523240069  0.5000630175338074
  0.7166888755797454  0.1068626735683277  0.4998646406123252
  0.7132511345495420  0.3548956971468589  0.4998484425312802
  0.7117304982120148  0.6076502913453072  0.4999507980292158
  0.7172765897618523  0.8568040048999179  0.4999001970898976
  0.2522698223581792  0.0933088420011257  0.5877886408490605
  0.2519249759435013  0.3538931597855641  0.5881206710652772
  0.2519703811840775  0.5931220199229477  0.5882312782700918
  0.2522005699569763  0.8540895196189242  0.5877094059419777
  0.4256920536349056  0.0988439932237619  0.5929405113935137
  0.4254275874411111  0.3488270594105746  0.5929380819279891
  0.4253916037066386  0.5985894616779831  0.5931382079572851
  0.4256988939439124  0.8487782736689720  0.5931589933511252
  0.5997278191464970  0.0988501865604150  0.5923729810035500
  0.5999735165768513  0.3484945368794652  0.5915376426971606
  0.5996745948038137  0.5983532150764383  0.5923585198556646
  0.6002424180535035  0.8487458400156772  0.5925036628035774
  0.4240953096861623  0.2237806020208428  0.5919224462401557
  0.4259451341156982  0.4735532813121959  0.5925298095363936
  0.4241663011274477  0.7235663586238164  0.5920901347496100
  0.4263203789077816  0.9737255507329186  0.5925793533142718
  0.5997412513518051  0.2247313522218951  0.5919273385679110
  0.6004730086150393  0.4744478623489825  0.5916871645145577
  0.5993025235968440  0.7242172408758092  0.5922195787143033
  0.6005003070039748  0.9741585114213256  0.5923438440646174
  0.3391352004276745  0.0353680847273114  0.5950960142880968
  0.3361603646642781  0.2868950800320443  0.5916131562152571
  0.3387138362424107  0.5351373853663389  0.5951227825936631
  0.3364322552024033  0.7869618388191469  0.5920338608162016
  0.5130641072688666  0.0363490571346060  0.5924146438184712
  0.5120409561152139  0.2862654938904691  0.5921409753500148
  0.5126782568759898  0.5360644349905405  0.5922940603590208
  0.5122804450598011  0.7863417743982281  0.5923592006097260
  0.6899313045094060  0.0364665990685198  0.5878314769755172
  0.6913810843583039  0.2848231616554990  0.5890678046490752
  0.6917223656982053  0.5378244160517305  0.5920338970209245
  0.6896453941102784  0.7863181901007786  0.5878789021480371
  0.3363662134284425  0.1605656471918122  0.5917956972985695
  0.3386839466020963  0.4120001195952517  0.5951575750911431
  0.3361738634296140  0.6604624391321677  0.5920523292249178
  0.3390890923156809  0.9121449598648095  0.5952407542209335
  0.5123948801583139  0.1615054132920969  0.5924279027097080
  0.5129413034640273  0.4111189256805299  0.5926788384353381
  0.5121813328326104  0.6611412669704284  0.5926599298757349
  0.5132565366056967  0.9112364288133982  0.5926966584444001
  0.6847656698205250  0.1600855732700384  0.5985242903787440
  0.6854119691618188  0.4087504059462229  0.6017787687412709
  0.6841710478511485  0.6629089452193155  0.5991761639780142
  0.6864397112318485  0.9113410833474358  0.5974545588991388
  0.2522763276193561  0.0932903729970857  0.4122121331533635
  0.2518486145679558  0.3539406161343788  0.4121702833218100
  0.2518954956779724  0.5931772029300797  0.4123278755364776
  0.2521950646535925  0.8540343169129679  0.4127302927759521
  0.4256831045522732  0.0987959647708604  0.4070180747227589
  0.4253634233059818  0.3488419648800589  0.4069245104130030
  0.4253156352046721  0.5986667560598122  0.4070635958913711
  0.4256633102203689  0.8487387273042596  0.4071693235195504
  0.5997075034905970  0.0987906720096736  0.4074196549303788
  0.5999685039899016  0.3485658647966606  0.4080252507707165
  0.5996592983898247  0.5983882254631696  0.4075890230263139
  0.6001970021470170  0.8487321748639866  0.4075137651912187
  0.2285072061115015  0.2235041117791057  0.5000039638428816
  0.2257401828704422  0.4735217742862390  0.5001157475898395
  0.2286703208308619  0.7235349823571791  0.5000272935703063
  0.2262066616195354  0.9737364873705625  0.5000327377465419
  0.4240649472404311  0.2237451661005566  0.4079421089955179
  0.4258833192851135  0.4736190917774749  0.4074365451794063
  0.4241020999515788  0.7236013924842362  0.4083198358233988
  0.4263076568162723  0.9736488336472634  0.4075677548367000
  0.5997101552805465  0.2246793477511697  0.4076589741920509
  0.6004962680290811  0.4745036501323741  0.4080605305605322
  0.5992472992069564  0.7242176203720749  0.4078162552864872
  0.6004679560075281  0.9741258835623038  0.4075905569297063
  0.3391473434480248  0.0353070896380316  0.4049386048235330
  0.3361152100111285  0.2868974189583960  0.4083946823963089
  0.3386544525158540  0.5352381241555416  0.4051789680591826
  0.3363760495102784  0.7868960184236221  0.4085165020140218
  0.5130307617064169  0.0362829789889802  0.4075439468161972
  0.5120061718532525  0.2862562253484972  0.4075177508708432
  0.5126312805677832  0.5361466547540792  0.4075803971124520
  0.5122187908152234  0.7863239472763898  0.4078590144840534
  0.6899110808921881  0.0364506854636110  0.4119780450048713
  0.6914206360114383  0.2848581424912507  0.4105032961394159
  0.6917289723310599  0.5378475907988873  0.4078549284591374
  0.6896034381526756  0.7862856527169156  0.4120047463585083
  0.3363409264453596  0.1605508627213813  0.4081783474673846
  0.3385939616481534  0.4120448207522311  0.4049647255466795
  0.3361409217741450  0.6605181025123682  0.4084337838637980
  0.3390924020684287  0.9120605768901179  0.4050253577604112
  0.5123512076700638  0.1614483285897834  0.4073651314806519
  0.5128928679268893  0.4111595128812561  0.4070135040631703
  0.5121315834804865  0.6611829916387416  0.4074605411933000
  0.5132099000291437  0.9111847853785909  0.4074283272115413
  0.6847743048042162  0.1600607588382573  0.4011467593217897
  0.7781885470548120  0.9110977387973203  0.4999178207756688
  0.7700733899160930  0.7827633079312616  0.4999255668638816
  0.7750430548777489  0.6503726875732668  0.4999479216572022
  0.7762724662819569  0.1710916609650951  0.4999046656491667
  0.7704468704393828  0.0393487497711500  0.4998963422639004
  0.6854574406229144  0.4088342442280651  0.3979701824505621
  0.6841494240226377  0.6629182481406334  0.4007589269790207
  0.6863874895536717  0.9113415611991870  0.4023786529992663
  0.7732898330239266  0.3812655199443483  0.5001349041845659
  0.7550518495389498  0.4238107947568591  0.5000424890271711
 
  0.00000000E+00  0.00000000E+00  0.00000000E+00
  0.00000000E+00  0.00000000E+00  0.00000000E+00
  0.00000000E+00  0.00000000E+00  0.00000000E+00
  0.00000000E+00  0.00000000E+00  0.00000000E+00
  0.00000000E+00  0.00000000E+00  0.00000000E+00
  0.00000000E+00  0.00000000E+00  0.00000000E+00
  0.00000000E+00  0.00000000E+00  0.00000000E+00
  0.00000000E+00  0.00000000E+00  0.00000000E+00
  0.00000000E+00  0.00000000E+00  0.00000000E+00
  0.00000000E+00  0.00000000E+00  0.00000000E+00
  0.00000000E+00  0.00000000E+00  0.00000000E+00
  0.00000000E+00  0.00000000E+00  0.00000000E+00
  0.00000000E+00  0.00000000E+00  0.00000000E+00
  0.00000000E+00  0.00000000E+00  0.00000000E+00
  0.00000000E+00  0.00000000E+00  0.00000000E+00
  0.00000000E+00  0.00000000E+00  0.00000000E+00
  0.00000000E+00  0.00000000E+00  0.00000000E+00
  0.00000000E+00  0.00000000E+00  0.00000000E+00
  0.00000000E+00  0.00000000E+00  0.00000000E+00
  0.00000000E+00  0.00000000E+00  0.00000000E+00
  0.00000000E+00  0.00000000E+00  0.00000000E+00
  0.00000000E+00  0.00000000E+00  0.00000000E+00
  0.00000000E+00  0.00000000E+00  0.00000000E+00
  0.00000000E+00  0.00000000E+00  0.00000000E+00
  0.00000000E+00  0.00000000E+00  0.00000000E+00
  0.00000000E+00  0.00000000E+00  0.00000000E+00
  0.00000000E+00  0.00000000E+00  0.00000000E+00
  0.00000000E+00  0.00000000E+00  0.00000000E+00
  0.00000000E+00  0.00000000E+00  0.00000000E+00
  0.00000000E+00  0.00000000E+00  0.00000000E+00
  0.00000000E+00  0.00000000E+00  0.00000000E+00
  0.00000000E+00  0.00000000E+00  0.00000000E+00
  0.00000000E+00  0.00000000E+00  0.00000000E+00
  0.00000000E+00  0.00000000E+00  0.00000000E+00
  0.00000000E+00  0.00000000E+00  0.00000000E+00
  0.00000000E+00  0.00000000E+00  0.00000000E+00
  0.00000000E+00  0.00000000E+00  0.00000000E+00
  0.00000000E+00  0.00000000E+00  0.00000000E+00
  0.00000000E+00  0.00000000E+00  0.00000000E+00
  0.00000000E+00  0.00000000E+00  0.00000000E+00
  0.00000000E+00  0.00000000E+00  0.00000000E+00
  0.00000000E+00  0.00000000E+00  0.00000000E+00
  0.00000000E+00  0.00000000E+00  0.00000000E+00
  0.00000000E+00  0.00000000E+00  0.00000000E+00
  0.00000000E+00  0.00000000E+00  0.00000000E+00
  0.00000000E+00  0.00000000E+00  0.00000000E+00
  0.00000000E+00  0.00000000E+00  0.00000000E+00
  0.00000000E+00  0.00000000E+00  0.00000000E+00
  0.00000000E+00  0.00000000E+00  0.00000000E+00
  0.00000000E+00  0.00000000E+00  0.00000000E+00
  0.00000000E+00  0.00000000E+00  0.00000000E+00
  0.00000000E+00  0.00000000E+00  0.00000000E+00
  0.00000000E+00  0.00000000E+00  0.00000000E+00
  0.00000000E+00  0.00000000E+00  0.00000000E+00
  0.00000000E+00  0.00000000E+00  0.00000000E+00
  0.00000000E+00  0.00000000E+00  0.00000000E+00
  0.00000000E+00  0.00000000E+00  0.00000000E+00
  0.00000000E+00  0.00000000E+00  0.00000000E+00
  0.00000000E+00  0.00000000E+00  0.00000000E+00
  0.00000000E+00  0.00000000E+00  0.00000000E+00
  0.00000000E+00  0.00000000E+00  0.00000000E+00
  0.00000000E+00  0.00000000E+00  0.00000000E+00
  0.00000000E+00  0.00000000E+00  0.00000000E+00
  0.00000000E+00  0.00000000E+00  0.00000000E+00
  0.00000000E+00  0.00000000E+00  0.00000000E+00
  0.00000000E+00  0.00000000E+00  0.00000000E+00
  0.00000000E+00  0.00000000E+00  0.00000000E+00
  0.00000000E+00  0.00000000E+00  0.00000000E+00
  0.00000000E+00  0.00000000E+00  0.00000000E+00
  0.00000000E+00  0.00000000E+00  0.00000000E+00
  0.00000000E+00  0.00000000E+00  0.00000000E+00
  0.00000000E+00  0.00000000E+00  0.00000000E+00
  0.00000000E+00  0.00000000E+00  0.00000000E+00
  0.00000000E+00  0.00000000E+00  0.00000000E+00
  0.00000000E+00  0.00000000E+00  0.00000000E+00
  0.00000000E+00  0.00000000E+00  0.00000000E+00
  0.00000000E+00  0.00000000E+00  0.00000000E+00
  0.00000000E+00  0.00000000E+00  0.00000000E+00
  0.00000000E+00  0.00000000E+00  0.00000000E+00
  0.00000000E+00  0.00000000E+00  0.00000000E+00
  0.00000000E+00  0.00000000E+00  0.00000000E+00
  0.00000000E+00  0.00000000E+00  0.00000000E+00
  0.00000000E+00  0.00000000E+00  0.00000000E+00
  0.00000000E+00  0.00000000E+00  0.00000000E+00
  0.00000000E+00  0.00000000E+00  0.00000000E+00
  0.00000000E+00  0.00000000E+00  0.00000000E+00
  0.00000000E+00  0.00000000E+00  0.00000000E+00
  0.00000000E+00  0.00000000E+00  0.00000000E+00
  0.00000000E+00  0.00000000E+00  0.00000000E+00
  0.00000000E+00  0.00000000E+00  0.00000000E+00
  0.00000000E+00  0.00000000E+00  0.00000000E+00
  0.00000000E+00  0.00000000E+00  0.00000000E+00
  0.00000000E+00  0.00000000E+00  0.00000000E+00
  0.00000000E+00  0.00000000E+00  0.00000000E+00
  0.00000000E+00  0.00000000E+00  0.00000000E+00
  0.00000000E+00  0.00000000E+00  0.00000000E+00
  0.00000000E+00  0.00000000E+00  0.00000000E+00
  0.00000000E+00  0.00000000E+00  0.00000000E+00
  0.00000000E+00  0.00000000E+00  0.00000000E+00
  0.00000000E+00  0.00000000E+00  0.00000000E+00
  0.00000000E+00  0.00000000E+00  0.00000000E+00
  0.00000000E+00  0.00000000E+00  0.00000000E+00
  0.00000000E+00  0.00000000E+00  0.00000000E+00
  0.00000000E+00  0.00000000E+00  0.00000000E+00
  0.00000000E+00  0.00000000E+00  0.00000000E+00
  0.00000000E+00  0.00000000E+00  0.00000000E+00
  0.00000000E+00  0.00000000E+00  0.00000000E+00
  0.00000000E+00  0.00000000E+00  0.00000000E+00
  0.00000000E+00  0.00000000E+00  0.00000000E+00
  0.00000000E+00  0.00000000E+00  0.00000000E+00
  0.00000000E+00  0.00000000E+00  0.00000000E+00
  0.00000000E+00  0.00000000E+00  0.00000000E+00
  0.00000000E+00  0.00000000E+00  0.00000000E+00
  0.00000000E+00  0.00000000E+00  0.00000000E+00
  0.00000000E+00  0.00000000E+00  0.00000000E+00
  0.00000000E+00  0.00000000E+00  0.00000000E+00
  0.00000000E+00  0.00000000E+00  0.00000000E+00
  0.00000000E+00  0.00000000E+00  0.00000000E+00
  0.00000000E+00  0.00000000E+00  0.00000000E+00
  0.00000000E+00  0.00000000E+00  0.00000000E+00
  0.00000000E+00  0.00000000E+00  0.00000000E+00
  0.00000000E+00  0.00000000E+00  0.00000000E+00
  0.00000000E+00  0.00000000E+00  0.00000000E+00
  0.00000000E+00  0.00000000E+00  0.00000000E+00
  0.00000000E+00  0.00000000E+00  0.00000000E+00
  0.00000000E+00  0.00000000E+00  0.00000000E+00
  0.00000000E+00  0.00000000E+00  0.00000000E+00
  0.00000000E+00  0.00000000E+00  0.00000000E+00
  0.00000000E+00  0.00000000E+00  0.00000000E+00
  0.00000000E+00  0.00000000E+00  0.00000000E+00
  0.00000000E+00  0.00000000E+00  0.00000000E+00
  0.00000000E+00  0.00000000E+00  0.00000000E+00
  0.00000000E+00  0.00000000E+00  0.00000000E+00
  0.00000000E+00  0.00000000E+00  0.00000000E+00
  0.00000000E+00  0.00000000E+00  0.00000000E+00
  0.00000000E+00  0.00000000E+00  0.00000000E+00
  0.00000000E+00  0.00000000E+00  0.00000000E+00
  0.00000000E+00  0.00000000E+00  0.00000000E+00
  0.00000000E+00  0.00000000E+00  0.00000000E+00
  0.00000000E+00  0.00000000E+00  0.00000000E+00
  0.00000000E+00  0.00000000E+00  0.00000000E+00
  0.00000000E+00  0.00000000E+00  0.00000000E+00
  0.00000000E+00  0.00000000E+00  0.00000000E+00
  0.00000000E+00  0.00000000E+00  0.00000000E+00
  0.00000000E+00  0.00000000E+00  0.00000000E+00
  0.00000000E+00  0.00000000E+00  0.00000000E+00
  0.00000000E+00  0.00000000E+00  0.00000000E+00
