Mo48 Se100                              
   1.00000000000000     
    33.0000000000000000    0.0000000000000000    0.0000000000000000
     0.0000000000000000   26.3120002747000008    0.0000000000000000
     0.0000000000000000    0.0000000000000000   18.0970001220999990
   Mo   Se   O    C 
    48    98     2     1
Direct
  0.2865170285161822  0.0281076392774146  0.5000330649544290
  0.2806409582160366  0.2908490771724083  0.5000188287081151
  0.2863789776451419  0.5274011432604815  0.5000075330183075
  0.2807024376386200  0.7904683903177686  0.5000241868095622
  0.4548152756272330  0.0360691434875584  0.5000197548763936
  0.4543203520504984  0.2859076960310822  0.5000121919723848
  0.4546943374753903  0.5352619632294046  0.5000238622700256
  0.4535544997401523  0.7855876123459917  0.5000202273471089
  0.6269838994220316  0.0357101481488326  0.5000027315792643
  0.6284871929500117  0.2854501383171332  0.5000128288202955
  0.6281307954792716  0.5354893119024053  0.5000057102561927
  0.6265258672301713  0.7850352783117172  0.4999731442873780
  0.2807300597832315  0.1559148899851661  0.5000205480225829
  0.2864746174431300  0.4181212793575100  0.5000085631562301
  0.2805508249647298  0.6552484137061781  0.5000158231947759
  0.2864492016916715  0.9186004840601779  0.5000366721820880
  0.4541912539765469  0.1606179249934316  0.5000160077931802
  0.4550925382756079  0.4101052463142071  0.5000126987085582
  0.4536802544751624  0.6601877718192992  0.5000220066134601
  0.4547327629604928  0.9103924301282926  0.5000188691484355
  0.6273850311827996  0.1609956339003807  0.5000121077390366
  0.6284751210052680  0.4106027986640652  0.5000130480618503
  0.6259859020649532  0.6607098388217163  0.5000063039667393
  0.6273939128787921  0.9102011143546334  0.4999873127229891
  0.3666009812872018  0.2232185567001900  0.5000197584706356
  0.3686832428744892  0.4727829980900416  0.5000166114812996
  0.3661270208787676  0.7229599176656538  0.5000138182309682
  0.3686177285488748  0.9732562687904867  0.5000228070081045
  0.5405465622748398  0.2234813680310363  0.5000145406279944
  0.5418458912411602  0.4728715093295625  0.5000191646322508
  0.5400369502609389  0.7229035708812847  0.5000358855202255
  0.5411394890126916  0.9729975964389433  0.5000161788527272
  0.7144159595452075  0.2217068187249487  0.5000133360489535
  0.7145297435469596  0.4825251052810268  0.5000030607452786
  0.7140476459011765  0.7144911130957823  0.4998212002894247
  0.7144381805894309  0.9641318636469102  0.4999444579161614
  0.3686909956024005  0.0975623608517168  0.5000216112405977
  0.3688399568986270  0.3488446635825133  0.5000146709925157
  0.3684366494955689  0.5970468281833665  0.5000154586499643
  0.3684245998356278  0.8489194761011357  0.5000199885019370
  0.5412841363379194  0.0986659892145446  0.5000164602823812
  0.5419087983606268  0.3478694323267201  0.5000131640321916
  0.5400767662515555  0.5977000200901595  0.5000310970134113
  0.5406932483316976  0.8479498651395129  0.5000251503982197
  0.7148859727562219  0.1064989625210188  0.5000059670842600
  0.7180878020369138  0.3351956764253016  0.5000178283461796
  0.7083586323191740  0.6033673240937216  0.4999447708082460
  0.7146051080904000  0.8555116076982675  0.4998078522220808
  0.2535016307211951  0.0930223615194937  0.5878060659075962
  0.2534944968306042  0.3534564971371674  0.5882045696588438
  0.2533186524256673  0.5922997582054863  0.5877428604140775
  0.2533428475769773  0.8535957912741754  0.5874506604006617
  0.4258406895206395  0.0982507037427881  0.5931418036860481
  0.4259575154795992  0.3480675268665673  0.5931899781208144
  0.4255936518836993  0.5976965168001717  0.5930334261686394
  0.4255797360980414  0.8481572750569756  0.5930882515529399
  0.5988514402355611  0.0981768777836999  0.5928288033617417
  0.5998639980491787  0.3485300228230970  0.5924969789005419
  0.5975134306181673  0.5973979056480724  0.5920924831032879
  0.5984033314213086  0.8475774724133913  0.5925663905142233
  0.4246734373302252  0.2231933796031968  0.5920757664978369
  0.4263756418443653  0.4726490611255312  0.5927492871651255
  0.4241460076445129  0.7228358412069956  0.5921546634545732
  0.4263736802697509  0.9732243230852815  0.5926170736731694
  0.5981423951310058  0.2234152667641184  0.5921295214518277
  0.5997640423149103  0.4727142043637537  0.5925379806981627
  0.5974572647924624  0.7234230619212091  0.5928392626951847
  0.5987653803849261  0.9731027793787219  0.5925838634347186
  0.3398579818852892  0.0348655057062571  0.5951990234314860
  0.3373474378944975  0.2862406842196110  0.5917924600539993
  0.3397054075029772  0.5343610510982887  0.5951669726863288
  0.3371337591453739  0.7862067321601863  0.5919435195828836
  0.5125025536017965  0.0358516968962008  0.5923842509518935
  0.5120462078685926  0.2859281653657447  0.5926233263191093
  0.5121677955575803  0.5349075147175291  0.5927458689809307
  0.5112527442613221  0.7855470984574285  0.5924361674891153
  0.6875980683789346  0.0353545795376059  0.5877735281872436
  0.6858282455941045  0.2830353430750970  0.5961986689379426
  0.6864073621332948  0.5386679977756897  0.5965230127869393
  0.6873948540813426  0.7848812783922754  0.5877438008891065
  0.3373033632798615  0.1602145682668561  0.5918865840769212
  0.3398287688620090  0.4113311110535733  0.5951744262197054
  0.3370441610341228  0.6598179986731083  0.5918768018790906
  0.3397271342931726  0.9116832185474470  0.5952132952459481
  0.5118767984487851  0.1608126359870207  0.5926302400253411
  0.5128607677617221  0.4103537082104907  0.5924263290126990
  0.5112464387657644  0.6604934359831236  0.5927005424629749
  0.5122852919844754  0.9105280986618700  0.5927493488748516
  0.6847428320435023  0.1612560072613464  0.5965435115055465
  0.6903595398979997  0.4087104133296043  0.5864832453961493
  0.6817479512361356  0.6619322481587041  0.5980334210946472
  0.6838213485862832  0.9097861042046945  0.5978077094728573
  0.2535051040409568  0.0930183021599062  0.4122497559052665
  0.2535011342447495  0.3534534198252247  0.4118200141025539
  0.2533227590650648  0.5923022465151431  0.4122725805297413
  0.2533281315396507  0.8536057645791012  0.4126360922796471
  0.4258378901992993  0.0982487100911422  0.4068948678196237
  0.4259545450317889  0.3480680690312840  0.4068340117130758
  0.4255977534737469  0.5976998179320573  0.4070026027084048
  0.4255799699131249  0.8481610755853446  0.4069466971625894
  0.5988459672576266  0.0981826233192610  0.4071913665797285
  0.5998645741295922  0.3485283926029747  0.4075291887302624
  0.5974976605292454  0.5973907320314114  0.4079355798625069
  0.5983681084759276  0.8475739559106055  0.4074264565394841
  0.2299863178000312  0.2233487948954990  0.5000144196747879
  0.2270550524818010  0.4726406966553198  0.4999996067134288
  0.2300628985921521  0.7229404775745318  0.5000020522178601
  0.2271835977456209  0.9733793603517740  0.5000120097813265
  0.4246710522424506  0.2231929922444222  0.4079561916985446
  0.4263733160197019  0.4726589000321803  0.4072900623802014
  0.4241485650988441  0.7228355284077459  0.4078789392710401
  0.4263686445713838  0.9732276758561579  0.4074211860014358
  0.5981423459694981  0.2234167477761484  0.4078953656142119
  0.5997592836773641  0.4727108937062418  0.4074839052544983
  0.5974216231324515  0.7234077859678353  0.4071884588154931
  0.5987456452073771  0.9731161653681158  0.4074296505534454
  0.3398500374814131  0.0348666023920725  0.4048515388297055
  0.3373431017045477  0.2862299837622601  0.4082435358073508
  0.3397087828623999  0.5343649927976963  0.4048596973381596
  0.3371287176722391  0.7862115264331225  0.4080902861347309
  0.5124975165679609  0.0358547529884287  0.4076505030149540
  0.5120482262981386  0.2859262384956519  0.4073995039473048
  0.5121668432309251  0.5349127322115340  0.4073123188844868
  0.5112538288042209  0.7855457018496431  0.4076256397355888
  0.6875843577246104  0.0353912031630776  0.4121977079605109
  0.6858303930143981  0.2830359119901953  0.4038258383436354
  0.6863916439926433  0.5386444141554645  0.4034492343115066
  0.6872663454247695  0.7848733498578087  0.4119568245168023
  0.3373033492532259  0.1602122939515649  0.4081529847408727
  0.3398353158227742  0.4113277976995501  0.4048539530165705
  0.3370427582207118  0.6598172474772974  0.4081500417110606
  0.3397194604008753  0.9116847114846676  0.4048386456418185
  0.5118737970495590  0.1608118283580423  0.4074052178990722
  0.5128640543225395  0.4103560137192092  0.4076013798113164
  0.5112555896749155  0.6604921552035542  0.4073654791903660
  0.5122816727725917  0.9105225190033033  0.4072917961651208
  0.6847407479437790  0.1612594073741586  0.4034780905594362
  0.7753950168717186  0.9094138615461727  0.5001019946902794
  0.7677825459078653  0.7809354759526365  0.4990311581871258
  0.7718761454863188  0.6456298714393476  0.4999627801497200
  0.7759133767465444  0.2785982004869839  0.5000231695017026
  0.7744709023572113  0.1608507241574828  0.5000079277564449
  0.7674334044848068  0.0357769533705855  0.4999667417131027
  0.6903583612532944  0.4087044267982440  0.4135407484083984
  0.6816733630568719  0.6618962135773998  0.4018575284115005
  0.6837518346952414  0.9098497897489634  0.4020471420159972
  0.7794753912294798  0.4752773568809180  0.4998526585624974
  0.7711453906397521  0.3868993004085027  0.5000368890036991
  0.7605597360397875  0.4328601216471599  0.4999898923178977
 
  0.00000000E+00  0.00000000E+00  0.00000000E+00
  0.00000000E+00  0.00000000E+00  0.00000000E+00
  0.00000000E+00  0.00000000E+00  0.00000000E+00
  0.00000000E+00  0.00000000E+00  0.00000000E+00
  0.00000000E+00  0.00000000E+00  0.00000000E+00
  0.00000000E+00  0.00000000E+00  0.00000000E+00
  0.00000000E+00  0.00000000E+00  0.00000000E+00
  0.00000000E+00  0.00000000E+00  0.00000000E+00
  0.00000000E+00  0.00000000E+00  0.00000000E+00
  0.00000000E+00  0.00000000E+00  0.00000000E+00
  0.00000000E+00  0.00000000E+00  0.00000000E+00
  0.00000000E+00  0.00000000E+00  0.00000000E+00
  0.00000000E+00  0.00000000E+00  0.00000000E+00
  0.00000000E+00  0.00000000E+00  0.00000000E+00
  0.00000000E+00  0.00000000E+00  0.00000000E+00
  0.00000000E+00  0.00000000E+00  0.00000000E+00
  0.00000000E+00  0.00000000E+00  0.00000000E+00
  0.00000000E+00  0.00000000E+00  0.00000000E+00
  0.00000000E+00  0.00000000E+00  0.00000000E+00
  0.00000000E+00  0.00000000E+00  0.00000000E+00
  0.00000000E+00  0.00000000E+00  0.00000000E+00
  0.00000000E+00  0.00000000E+00  0.00000000E+00
  0.00000000E+00  0.00000000E+00  0.00000000E+00
  0.00000000E+00  0.00000000E+00  0.00000000E+00
  0.00000000E+00  0.00000000E+00  0.00000000E+00
  0.00000000E+00  0.00000000E+00  0.00000000E+00
  0.00000000E+00  0.00000000E+00  0.00000000E+00
  0.00000000E+00  0.00000000E+00  0.00000000E+00
  0.00000000E+00  0.00000000E+00  0.00000000E+00
  0.00000000E+00  0.00000000E+00  0.00000000E+00
  0.00000000E+00  0.00000000E+00  0.00000000E+00
  0.00000000E+00  0.00000000E+00  0.00000000E+00
  0.00000000E+00  0.00000000E+00  0.00000000E+00
  0.00000000E+00  0.00000000E+00  0.00000000E+00
  0.00000000E+00  0.00000000E+00  0.00000000E+00
  0.00000000E+00  0.00000000E+00  0.00000000E+00
  0.00000000E+00  0.00000000E+00  0.00000000E+00
  0.00000000E+00  0.00000000E+00  0.00000000E+00
  0.00000000E+00  0.00000000E+00  0.00000000E+00
  0.00000000E+00  0.00000000E+00  0.00000000E+00
  0.00000000E+00  0.00000000E+00  0.00000000E+00
  0.00000000E+00  0.00000000E+00  0.00000000E+00
  0.00000000E+00  0.00000000E+00  0.00000000E+00
  0.00000000E+00  0.00000000E+00  0.00000000E+00
  0.00000000E+00  0.00000000E+00  0.00000000E+00
  0.00000000E+00  0.00000000E+00  0.00000000E+00
  0.00000000E+00  0.00000000E+00  0.00000000E+00
  0.00000000E+00  0.00000000E+00  0.00000000E+00
  0.00000000E+00  0.00000000E+00  0.00000000E+00
  0.00000000E+00  0.00000000E+00  0.00000000E+00
  0.00000000E+00  0.00000000E+00  0.00000000E+00
  0.00000000E+00  0.00000000E+00  0.00000000E+00
  0.00000000E+00  0.00000000E+00  0.00000000E+00
  0.00000000E+00  0.00000000E+00  0.00000000E+00
  0.00000000E+00  0.00000000E+00  0.00000000E+00
  0.00000000E+00  0.00000000E+00  0.00000000E+00
  0.00000000E+00  0.00000000E+00  0.00000000E+00
  0.00000000E+00  0.00000000E+00  0.00000000E+00
  0.00000000E+00  0.00000000E+00  0.00000000E+00
  0.00000000E+00  0.00000000E+00  0.00000000E+00
  0.00000000E+00  0.00000000E+00  0.00000000E+00
  0.00000000E+00  0.00000000E+00  0.00000000E+00
  0.00000000E+00  0.00000000E+00  0.00000000E+00
  0.00000000E+00  0.00000000E+00  0.00000000E+00
  0.00000000E+00  0.00000000E+00  0.00000000E+00
  0.00000000E+00  0.00000000E+00  0.00000000E+00
  0.00000000E+00  0.00000000E+00  0.00000000E+00
  0.00000000E+00  0.00000000E+00  0.00000000E+00
  0.00000000E+00  0.00000000E+00  0.00000000E+00
  0.00000000E+00  0.00000000E+00  0.00000000E+00
  0.00000000E+00  0.00000000E+00  0.00000000E+00
  0.00000000E+00  0.00000000E+00  0.00000000E+00
  0.00000000E+00  0.00000000E+00  0.00000000E+00
  0.00000000E+00  0.00000000E+00  0.00000000E+00
  0.00000000E+00  0.00000000E+00  0.00000000E+00
  0.00000000E+00  0.00000000E+00  0.00000000E+00
  0.00000000E+00  0.00000000E+00  0.00000000E+00
  0.00000000E+00  0.00000000E+00  0.00000000E+00
  0.00000000E+00  0.00000000E+00  0.00000000E+00
  0.00000000E+00  0.00000000E+00  0.00000000E+00
  0.00000000E+00  0.00000000E+00  0.00000000E+00
  0.00000000E+00  0.00000000E+00  0.00000000E+00
  0.00000000E+00  0.00000000E+00  0.00000000E+00
  0.00000000E+00  0.00000000E+00  0.00000000E+00
  0.00000000E+00  0.00000000E+00  0.00000000E+00
  0.00000000E+00  0.00000000E+00  0.00000000E+00
  0.00000000E+00  0.00000000E+00  0.00000000E+00
  0.00000000E+00  0.00000000E+00  0.00000000E+00
  0.00000000E+00  0.00000000E+00  0.00000000E+00
  0.00000000E+00  0.00000000E+00  0.00000000E+00
  0.00000000E+00  0.00000000E+00  0.00000000E+00
  0.00000000E+00  0.00000000E+00  0.00000000E+00
  0.00000000E+00  0.00000000E+00  0.00000000E+00
  0.00000000E+00  0.00000000E+00  0.00000000E+00
  0.00000000E+00  0.00000000E+00  0.00000000E+00
  0.00000000E+00  0.00000000E+00  0.00000000E+00
  0.00000000E+00  0.00000000E+00  0.00000000E+00
  0.00000000E+00  0.00000000E+00  0.00000000E+00
  0.00000000E+00  0.00000000E+00  0.00000000E+00
  0.00000000E+00  0.00000000E+00  0.00000000E+00
  0.00000000E+00  0.00000000E+00  0.00000000E+00
  0.00000000E+00  0.00000000E+00  0.00000000E+00
  0.00000000E+00  0.00000000E+00  0.00000000E+00
  0.00000000E+00  0.00000000E+00  0.00000000E+00
  0.00000000E+00  0.00000000E+00  0.00000000E+00
  0.00000000E+00  0.00000000E+00  0.00000000E+00
  0.00000000E+00  0.00000000E+00  0.00000000E+00
  0.00000000E+00  0.00000000E+00  0.00000000E+00
  0.00000000E+00  0.00000000E+00  0.00000000E+00
  0.00000000E+00  0.00000000E+00  0.00000000E+00
  0.00000000E+00  0.00000000E+00  0.00000000E+00
  0.00000000E+00  0.00000000E+00  0.00000000E+00
  0.00000000E+00  0.00000000E+00  0.00000000E+00
  0.00000000E+00  0.00000000E+00  0.00000000E+00
  0.00000000E+00  0.00000000E+00  0.00000000E+00
  0.00000000E+00  0.00000000E+00  0.00000000E+00
  0.00000000E+00  0.00000000E+00  0.00000000E+00
  0.00000000E+00  0.00000000E+00  0.00000000E+00
  0.00000000E+00  0.00000000E+00  0.00000000E+00
  0.00000000E+00  0.00000000E+00  0.00000000E+00
  0.00000000E+00  0.00000000E+00  0.00000000E+00
  0.00000000E+00  0.00000000E+00  0.00000000E+00
  0.00000000E+00  0.00000000E+00  0.00000000E+00
  0.00000000E+00  0.00000000E+00  0.00000000E+00
  0.00000000E+00  0.00000000E+00  0.00000000E+00
  0.00000000E+00  0.00000000E+00  0.00000000E+00
  0.00000000E+00  0.00000000E+00  0.00000000E+00
  0.00000000E+00  0.00000000E+00  0.00000000E+00
  0.00000000E+00  0.00000000E+00  0.00000000E+00
  0.00000000E+00  0.00000000E+00  0.00000000E+00
  0.00000000E+00  0.00000000E+00  0.00000000E+00
  0.00000000E+00  0.00000000E+00  0.00000000E+00
  0.00000000E+00  0.00000000E+00  0.00000000E+00
  0.00000000E+00  0.00000000E+00  0.00000000E+00
  0.00000000E+00  0.00000000E+00  0.00000000E+00
  0.00000000E+00  0.00000000E+00  0.00000000E+00
  0.00000000E+00  0.00000000E+00  0.00000000E+00
  0.00000000E+00  0.00000000E+00  0.00000000E+00
  0.00000000E+00  0.00000000E+00  0.00000000E+00
  0.00000000E+00  0.00000000E+00  0.00000000E+00
  0.00000000E+00  0.00000000E+00  0.00000000E+00
  0.00000000E+00  0.00000000E+00  0.00000000E+00
  0.00000000E+00  0.00000000E+00  0.00000000E+00
  0.00000000E+00  0.00000000E+00  0.00000000E+00
  0.00000000E+00  0.00000000E+00  0.00000000E+00
  0.00000000E+00  0.00000000E+00  0.00000000E+00
  0.00000000E+00  0.00000000E+00  0.00000000E+00
  0.00000000E+00  0.00000000E+00  0.00000000E+00
  0.00000000E+00  0.00000000E+00  0.00000000E+00
