Mo48 Se100                              
1.0
  33.0000000000         0.0000000000         0.0000000000
   0.0000000000        26.3120002747         0.0000000000
   0.0000000000         0.0000000000        18.0970001221
Mo Se O C
48 98 2 1
Cartesian
     9.462970242         0.721401548         9.048642329
     9.256794355         7.655737644         9.048417118
     9.460642868        13.890692868         9.048251533
     9.285589796        20.786545743         9.048473235
    15.007780519         0.941796499         9.048525928
    14.963181573         7.522482522         9.048522438
    15.020764330        14.086207855         9.048481870
    14.994218735        20.665880823         9.048495796
    20.703680482         0.957465925         9.048447089
    20.627265873         7.493651694         9.048565535
    20.786208578        14.049103569         9.048514210
    20.701193316        20.664762567         9.048482863
     9.264691755         4.103346278         9.048491448
     9.452331713        11.016457588         9.048468420
     9.279038512        17.250308680         9.048187561
     9.473275378        24.155761225         9.048931715
    14.965706127         4.220465359         9.048528697
    15.007904816        10.803175821         9.048511371
    15.001808269        17.365060551         9.048492050
    15.023630961        23.949045031         9.048520000
    20.677422253         4.247452383         9.048507408
    20.768117603        10.798415888         9.048557781
    20.711291542        17.375424581         9.048512917
    20.726698555        23.966358281         9.048458652
    12.076402388         5.871676662         9.048546457
    12.168773881        12.448580815         9.048478805
    12.107136199        19.017305861         9.048441449
    12.174098399        25.599105861         9.048654541
    17.796180765         5.867155269         9.048526779
    17.900304507        12.434897144         9.048493775
    17.848911499        19.014537817         9.048497242
    17.870290375        25.605107397         9.048504395
    23.519229458         5.820672158         9.048522140
    23.309571756        12.294520695         9.048512713
    23.573001824        18.812285372         9.048541893
    23.604940971        25.410689393         9.048465203
    12.156576205         2.560304652         9.048533027
    12.157247030         9.185824076         9.048534177
    12.177337971        15.710825604         9.048384387
    12.179395194        22.327693414         9.048632311
    17.847411170         2.593645672         9.048510398
    17.830929992         9.159989851         9.048535847
    17.864789492        15.718706341         9.048485223
    17.868199350        22.314207342         9.048479434
    23.603637422         2.853282704         9.048486395
    23.440085967         8.971950322         9.048542939
    23.433973641        15.970729414         9.048533733
    23.604572691        22.542940653         9.048487359
     8.360250292         2.434063997        10.622083248
     8.356911459         9.311124432        10.636118729
     8.371400680        15.599024063        10.634935193
     8.377680756        22.446883289        10.628550118
    14.043290522         2.576642848        10.733433984
    14.041905305         9.166819772        10.733657766
    14.064945007        15.727678910        10.732384164
    14.066653404        22.309473437        10.732807863
    19.752374724         2.585751907        10.726371373
    19.734734716         9.173078976        10.718047104
    19.779990968        15.688787919        10.703537176
    19.774147702        22.312919908        10.722638386
    13.990793956         5.869709552        10.714900717
    14.072400930        12.447574867        10.728581335
    14.025385995        19.014446342        10.714538527
    14.080504068        25.597925072        10.725207365
    19.679378351         5.860648501        10.727112307
    19.810560200        12.432331366        10.736672289
    19.746322983        19.030641844        10.722118095
    19.776845243        25.617643410        10.722236480
    11.218197045         0.905801533        10.773041010
    11.121157822         7.536490188        10.710999990
    11.220397430        14.068104470        10.771693791
    11.148472425        20.678579141        10.713208804
    16.912481000         0.938669402        10.721111513
    16.860482497         7.517773584        10.725661113
    16.926145624        14.074718609        10.723369832
    16.901518410        20.667368387        10.718706591
    22.714919082         0.975719386        10.633388880
    22.521655035         7.410731978        10.760497203
    22.791165876        14.142218599        10.725404739
    22.705240373        20.675747132        10.638533596
    11.121675772         4.209443689        10.714413454
    11.209972731        10.833413536        10.771947384
    11.144669362        17.359729067        10.711875910
    11.231522649        23.976056574        10.772304289
    16.864157330         4.220526547        10.727552697
    16.909697624        10.807173987        10.725682097
    16.907181694        17.369624604        10.725206629
    16.926187854        23.958310265        10.726349871
    22.567740579         4.262406738        10.794438429
    22.703600471        10.647126611        10.808483791
    22.523108986        17.429336002        10.845334013
    22.592070377        23.976163834        10.818306949
     8.360292794         2.434023329         7.474972675
     8.356964797         9.311173704         7.460747699
     8.371740531        15.598796998         7.461311940
     8.377678536        22.447051750         7.468682164
    14.043277530         2.576619332         7.363611580
    14.041899439         9.166822410         7.363393954
    14.065049774        15.727713999         7.364499552
    14.066555576        22.309522403         7.364250757
    19.752345591         2.585781550         7.370612043
    19.734741776         9.173045219         7.379083902
    19.780022667        15.688780438         7.393476605
    19.774142178        22.312908949         7.374301742
     7.589546145         5.876355909         9.047717759
     7.497098247        12.457061708         9.048130204
     7.603611520        19.021084514         9.048436254
     7.510939935        25.587085020         9.048832747
    13.990722884         5.869723779         7.382214699
    14.072432396        12.447549844         7.368425709
    14.025439762        19.014482088         7.382450595
    14.080406312        25.597919679         7.371883443
    19.679398464         5.860694314         7.369964128
    19.810604835        12.432295522         7.360383743
    19.746297994        19.030598356         7.374887764
    19.776678556        25.617587821         7.374706593
    11.218113178         0.905742970         7.324106052
    11.121257034         7.536478048         7.385983668
    11.220646365        14.068049969         7.325083365
    11.148549701        20.678720104         7.383802412
    16.912466174         0.938679386         7.375910367
    16.860493739         7.517761984         7.371394520
    16.926150069        14.074717966         7.373573805
    16.901500299        20.667358972         7.378277442
    22.714930154         0.975737691         7.463520835
    22.521628617         7.410759887         7.336601132
    22.791149302        14.142235447         7.371615565
    22.705268991        20.675714814         7.458463264
    11.121671350         4.209466087         7.382652891
    11.210016772        10.833376334         7.325072142
    11.144880803        17.359743719         7.384802881
    11.231121461        23.976096519         7.325409776
    16.864148881         4.220559395         7.369492008
    16.909701140        10.807136239         7.371357996
    16.907185371        17.369637371         7.371794290
    16.926150463        23.958314786         7.370658030
    22.567724167         4.262432006         7.302576266
    25.611028749        23.967882461         9.048502499
    25.344865818        20.591469113         9.048506744
    25.525253874        17.091586021         9.048540403
    25.508109584         7.882690003         9.048499995
    25.552647383         4.426807493         9.048497531
    25.351303853         1.015871875         9.048481248
    22.703614460        10.647062735         7.288620902
    22.523137715        17.429365280         7.251774286
    22.592066257        23.976142174         7.278648259
    25.363000000        12.294000000         9.048000000
    25.363000000         9.974000000         9.048000000
    25.363000000        11.134000000         9.048000000
