W48 Se97                                
    1.000000000000000     
    33.0000000000000000    0.0000000000000000    0.0000000000000000
     0.0000000000000000   26.2560005188000005    0.0000000000000000
     0.0000000000000000    0.0000000000000000   18.1299991608000006
   W    Se   O    C 
    48    97     2     1
Direct
  0.2789238469249996  0.0469838941142363  0.4999994917865648
  0.2842391845790527  0.2792936104467348  0.4999970213206544
  0.2789299820421007  0.5452940781950286  0.4999864559143590
  0.2845257787065715  0.7784758107229890  0.4999746701106959
  0.4522082650195395  0.0366199689433348  0.5000018137357914
  0.4530426490717358  0.2871963665642781  0.5000112737349695
  0.4525176876661453  0.5360151411311678  0.5000047348967902
  0.4529033355524011  0.7865023564410820  0.4999972417595934
  0.6250252616303855  0.0369850928471464  0.5000048253036244
  0.6263629205284101  0.2887580193168274  0.5000076695739236
  0.6263344637074146  0.5340647639443209  0.4999971812790552
  0.6251367866502363  0.7859753309463839  0.5000008751489143
  0.2844391109963734  0.1687607774063696  0.5000004693967887
  0.2788714389904208  0.4019546628129957  0.4999664227705026
  0.2843967835302123  0.6679270938674738  0.4999741673726699
  0.2789554977732377  0.9002036842875015  0.4999879563243846
  0.4530038620721006  0.1614412337511056  0.5000064758508326
  0.4524354999084864  0.4112069625427293  0.5000073023382129
  0.4531694892287461  0.6604085134583640  0.4999962594112423
  0.4524606614140235  0.9112046876272148  0.5000012228720443
  0.6253656109493047  0.1625389566751138  0.5000069385842971
  0.6264376738203754  0.4114236869107284  0.5000000088348544
  0.6256192852860388  0.6601839710912963  0.4999978433423412
  0.6260712049222700  0.9115273370658804  0.5000031427266459
  0.3667402175875641  0.2240071348962039  0.5000071377961401
  0.3647446761516951  0.4736453796893925  0.5000022941158958
  0.3668334347895518  0.7234352397466665  0.4999845930814085
  0.3646158044158855  0.9737621916411084  0.4999963441848174
  0.5391108737245779  0.2249060716984047  0.5000104334289361
  0.5397410095406253  0.4732381677216460  0.5000054771077885
  0.5389944720614174  0.7233382860301765  0.4999990583391136
  0.5391807641667458  0.9739245635040280  0.5000053744513590
  0.7063565102306223  0.2162645598504352  0.5000007831997060
  0.6981930259062681  0.4593996016500939  0.4999853569137859
  0.7117147732363339  0.7149952741253998  0.5000056389865105
  0.7132561286095512  0.9668257343338591  0.4999998206136459
  0.3664577711634929  0.0994757774702906  0.5000029451754497
  0.3666758288265926  0.3484641104409487  0.5000015639329266
  0.3668083578087538  0.5988963614515493  0.4999879794290257
  0.3664948186396236  0.8481524316077422  0.4999891331280344
  0.5386613222527400  0.0993033273550648  0.5000071331106180
  0.5398395670773447  0.3496749895341885  0.5000122323004424
  0.5391064958019214  0.5977045227107090  0.5000022172221266
  0.5393274370323859  0.8490294916859036  0.5000045208743049
  0.7116083273163246  0.1080210232067328  0.5000008425953119
  0.6981049848684586  0.3635666069357216  0.4999882135118090
  0.7067898869505354  0.6066035394131858  0.4999988862913121
  0.7132820709382337  0.8563041040144436  0.5000053081336775
  0.2505228426869062  0.1063451604843073  0.5911937701730716
  0.2505976439985818  0.3419967190704460  0.5909312849614238
  0.2507619311476383  0.6052732367881748  0.5909880908512868
  0.2505576858766611  0.8407767119592653  0.5911782289300779
  0.4237783447234689  0.0989993654768566  0.5934313875958019
  0.4238414496001596  0.3491916476754323  0.5937142630600607
  0.4240113102109010  0.5982826570816900  0.5936386854161547
  0.4238269301272660  0.8489410298851980  0.5934285857204161
  0.5961940288121003  0.0992192761083117  0.5928832463335393
  0.5984250451311653  0.3503454899191813  0.5950025199179978
  0.5969452183873135  0.5965842046156479  0.5924212311500967
  0.5971125629503087  0.8487707139823301  0.5929971191620392
  0.4246400725570886  0.2242224595961821  0.5930304235737847
  0.4228384269657825  0.4736321578713386  0.5926445597078813
  0.4247503176526775  0.7233971777587896  0.5929638151272832
  0.4228014486621607  0.9738230710663565  0.5924416374322911
  0.5968922111323908  0.2262226880410963  0.5924691909135159
  0.5983814043769892  0.4725426224843503  0.5949656516609776
  0.5965358490877377  0.7234942763557560  0.5928576647774454
  0.5970432461491453  0.9742436064263639  0.5930053601335483
  0.3353185175093776  0.0364782808699797  0.5928517509992314
  0.3381894852569686  0.2858149795747821  0.5954337102475746
  0.3353950944815763  0.5362409868003263  0.5927988975458954
  0.3383596903401915  0.7852784819128621  0.5955297608308160
  0.5099534636647785  0.0363410877745863  0.5929622709677055
  0.5106179665350187  0.2874657791699080  0.5932810199470440
  0.5102530620108416  0.5353088827038484  0.5932089772236528
  0.5104623086171161  0.7864045290315780  0.5930179456043054
  0.6855240059423348  0.0371378492922291  0.5885666230866387
  0.6882989533214625  0.2880465115174471  0.5913388387752468
  0.6882508327322132  0.5348904909737874  0.5912143836041084
  0.6855831285389993  0.7859126206872762  0.5885893406783579
  0.3382503770969364  0.1621681739828282  0.5955999888498154
  0.3353310648152419  0.4110990872858498  0.5928201307085205
  0.3383540077763571  0.6615469901126572  0.5954031150166834
  0.3353288799076508  0.9110289186916486  0.5928939319593464
  0.5104695406057098  0.1619706532073962  0.5933277882136258
  0.5102595780580339  0.4114931297405224  0.5930088899383172
  0.5106798847535300  0.6605730512434170  0.5932990278084428
  0.5102833265852728  0.9114905459915611  0.5931367289436200
  0.6801510984739583  0.1608462781534311  0.6005865159713565
  0.7348574312770620  0.4113631163686312  0.5975925448680330
  0.6804262916819890  0.6618884160586486  0.6005271578460429
  0.6828480927357793  0.9115477925732894  0.5979540862205706
  0.2505305428295792  0.1063381618147513  0.4087867224062056
  0.2506259614629266  0.3419875052703064  0.4089935836784395
  0.2507685787829207  0.6052667872744040  0.4089680481407719
  0.2505572587672798  0.8407985323406610  0.4087703576357133
  0.4237775904082219  0.0990010147636760  0.4065757998072119
  0.4238471092850939  0.3491874602079583  0.4063006555424491
  0.4240233997964557  0.5982744371066693  0.4063489807102453
  0.4238309693105340  0.8489443383096997  0.4065623799853832
  0.5961900733017196  0.0992214737620141  0.4071300713796926
  0.5984218571249327  0.3503412727736044  0.4050071012164642
  0.5969408455641455  0.5965857162737470  0.4075745337679738
  0.5971133555676875  0.8487700102607386  0.4070084446022411
  0.2248993583844645  0.2240362101206343  0.4999956587221501
  0.2314862912703105  0.4736111297103164  0.4999522964128309
  0.2250038931309904  0.7230570560492271  0.4999889655105312
  0.2332737456306946  0.9735620036172822  0.4999994480405976
  0.4246442791174180  0.2242293106339083  0.4069925505312074
  0.4228431527059287  0.4736322425926375  0.4073654160759247
  0.4247554723146578  0.7233981478660383  0.4070258531858521
  0.4228025332418254  0.9738250971563127  0.4075592441318491
  0.5968895646927665  0.2262236116008329  0.4075562884956589
  0.5983697353639575  0.4725395249276420  0.4050434495685510
  0.5965381721289873  0.7234970053045828  0.4071432276694028
  0.5970422651104000  0.9742451904591755  0.4070014987054451
  0.3353217084348335  0.0364786290700024  0.4071495471094755
  0.3381946883831021  0.2858119422923726  0.4045699638046531
  0.3354003525657281  0.5362381619603799  0.4071894252774392
  0.3383643631674214  0.7852788964629103  0.4044308418428774
  0.5099565508032721  0.0363426011504915  0.4070465154138777
  0.5106182554533067  0.2874631169750725  0.4067408404070170
  0.5102526395710386  0.5353039657133195  0.4068003082643997
  0.5104648125267240  0.7864060696458963  0.4069834758180310
  0.6855224580009632  0.0371384707060389  0.4114406085701222
  0.6882960299241405  0.2880409713799223  0.4086576160558747
  0.6882503488497049  0.5348962951415502  0.4087738869581921
  0.6855855774046121  0.7859129836513461  0.4114168778148831
  0.3382528555837773  0.1621690379511562  0.4044108391240930
  0.3353554246293756  0.4111048853169244  0.4071668055119995
  0.3383634370464656  0.6615487196100261  0.4045587762735110
  0.3353280389126631  0.9110326762465836  0.4070912545398734
  0.5104710753848661  0.1619723958185700  0.4066843036123154
  0.5102615807832456  0.4114839610322170  0.4070091929359703
  0.5106833676995302  0.6605702419413320  0.4067012277989981
  0.5102875315361254  0.9114936065306729  0.4068761122503364
  0.6801475730567871  0.1608465419744110  0.3994159586903373
  0.7348398649835975  0.4113603929501177  0.4023532041860680
  0.6804284737073616  0.6618901452031059  0.3994728682905975
  0.6828445860262523  0.9115455445912961  0.4020503459171820
  0.7741631021410605  0.9116712161358580  0.4999926235152972
  0.7664830070585369  0.7819882271571574  0.5000336398485902
  0.7707309184620362  0.6491254694476261  0.5000043106242326
  0.7706342444193026  0.1748439481080214  0.4999999873798208
  0.7664813232165735  0.0414516078649844  0.5000003124196284
  0.7980228028969695  0.5169359222821105  0.5000764158573965
  0.8440632322092837  0.4484974799837678  0.5000979500610656
  0.8209400213902510  0.4825090380926721  0.5000911922421106
 
  0.00000000E+00  0.00000000E+00  0.00000000E+00
  0.00000000E+00  0.00000000E+00  0.00000000E+00
  0.00000000E+00  0.00000000E+00  0.00000000E+00
  0.00000000E+00  0.00000000E+00  0.00000000E+00
  0.00000000E+00  0.00000000E+00  0.00000000E+00
  0.00000000E+00  0.00000000E+00  0.00000000E+00
  0.00000000E+00  0.00000000E+00  0.00000000E+00
  0.00000000E+00  0.00000000E+00  0.00000000E+00
  0.00000000E+00  0.00000000E+00  0.00000000E+00
  0.00000000E+00  0.00000000E+00  0.00000000E+00
  0.00000000E+00  0.00000000E+00  0.00000000E+00
  0.00000000E+00  0.00000000E+00  0.00000000E+00
  0.00000000E+00  0.00000000E+00  0.00000000E+00
  0.00000000E+00  0.00000000E+00  0.00000000E+00
  0.00000000E+00  0.00000000E+00  0.00000000E+00
  0.00000000E+00  0.00000000E+00  0.00000000E+00
  0.00000000E+00  0.00000000E+00  0.00000000E+00
  0.00000000E+00  0.00000000E+00  0.00000000E+00
  0.00000000E+00  0.00000000E+00  0.00000000E+00
  0.00000000E+00  0.00000000E+00  0.00000000E+00
  0.00000000E+00  0.00000000E+00  0.00000000E+00
  0.00000000E+00  0.00000000E+00  0.00000000E+00
  0.00000000E+00  0.00000000E+00  0.00000000E+00
  0.00000000E+00  0.00000000E+00  0.00000000E+00
  0.00000000E+00  0.00000000E+00  0.00000000E+00
  0.00000000E+00  0.00000000E+00  0.00000000E+00
  0.00000000E+00  0.00000000E+00  0.00000000E+00
  0.00000000E+00  0.00000000E+00  0.00000000E+00
  0.00000000E+00  0.00000000E+00  0.00000000E+00
  0.00000000E+00  0.00000000E+00  0.00000000E+00
  0.00000000E+00  0.00000000E+00  0.00000000E+00
  0.00000000E+00  0.00000000E+00  0.00000000E+00
  0.00000000E+00  0.00000000E+00  0.00000000E+00
  0.00000000E+00  0.00000000E+00  0.00000000E+00
  0.00000000E+00  0.00000000E+00  0.00000000E+00
  0.00000000E+00  0.00000000E+00  0.00000000E+00
  0.00000000E+00  0.00000000E+00  0.00000000E+00
  0.00000000E+00  0.00000000E+00  0.00000000E+00
  0.00000000E+00  0.00000000E+00  0.00000000E+00
  0.00000000E+00  0.00000000E+00  0.00000000E+00
  0.00000000E+00  0.00000000E+00  0.00000000E+00
  0.00000000E+00  0.00000000E+00  0.00000000E+00
  0.00000000E+00  0.00000000E+00  0.00000000E+00
  0.00000000E+00  0.00000000E+00  0.00000000E+00
  0.00000000E+00  0.00000000E+00  0.00000000E+00
  0.00000000E+00  0.00000000E+00  0.00000000E+00
  0.00000000E+00  0.00000000E+00  0.00000000E+00
  0.00000000E+00  0.00000000E+00  0.00000000E+00
  0.00000000E+00  0.00000000E+00  0.00000000E+00
  0.00000000E+00  0.00000000E+00  0.00000000E+00
  0.00000000E+00  0.00000000E+00  0.00000000E+00
  0.00000000E+00  0.00000000E+00  0.00000000E+00
  0.00000000E+00  0.00000000E+00  0.00000000E+00
  0.00000000E+00  0.00000000E+00  0.00000000E+00
  0.00000000E+00  0.00000000E+00  0.00000000E+00
  0.00000000E+00  0.00000000E+00  0.00000000E+00
  0.00000000E+00  0.00000000E+00  0.00000000E+00
  0.00000000E+00  0.00000000E+00  0.00000000E+00
  0.00000000E+00  0.00000000E+00  0.00000000E+00
  0.00000000E+00  0.00000000E+00  0.00000000E+00
  0.00000000E+00  0.00000000E+00  0.00000000E+00
  0.00000000E+00  0.00000000E+00  0.00000000E+00
  0.00000000E+00  0.00000000E+00  0.00000000E+00
  0.00000000E+00  0.00000000E+00  0.00000000E+00
  0.00000000E+00  0.00000000E+00  0.00000000E+00
  0.00000000E+00  0.00000000E+00  0.00000000E+00
  0.00000000E+00  0.00000000E+00  0.00000000E+00
  0.00000000E+00  0.00000000E+00  0.00000000E+00
  0.00000000E+00  0.00000000E+00  0.00000000E+00
  0.00000000E+00  0.00000000E+00  0.00000000E+00
  0.00000000E+00  0.00000000E+00  0.00000000E+00
  0.00000000E+00  0.00000000E+00  0.00000000E+00
  0.00000000E+00  0.00000000E+00  0.00000000E+00
  0.00000000E+00  0.00000000E+00  0.00000000E+00
  0.00000000E+00  0.00000000E+00  0.00000000E+00
  0.00000000E+00  0.00000000E+00  0.00000000E+00
  0.00000000E+00  0.00000000E+00  0.00000000E+00
  0.00000000E+00  0.00000000E+00  0.00000000E+00
  0.00000000E+00  0.00000000E+00  0.00000000E+00
  0.00000000E+00  0.00000000E+00  0.00000000E+00
  0.00000000E+00  0.00000000E+00  0.00000000E+00
  0.00000000E+00  0.00000000E+00  0.00000000E+00
  0.00000000E+00  0.00000000E+00  0.00000000E+00
  0.00000000E+00  0.00000000E+00  0.00000000E+00
  0.00000000E+00  0.00000000E+00  0.00000000E+00
  0.00000000E+00  0.00000000E+00  0.00000000E+00
  0.00000000E+00  0.00000000E+00  0.00000000E+00
  0.00000000E+00  0.00000000E+00  0.00000000E+00
  0.00000000E+00  0.00000000E+00  0.00000000E+00
  0.00000000E+00  0.00000000E+00  0.00000000E+00
  0.00000000E+00  0.00000000E+00  0.00000000E+00
  0.00000000E+00  0.00000000E+00  0.00000000E+00
  0.00000000E+00  0.00000000E+00  0.00000000E+00
  0.00000000E+00  0.00000000E+00  0.00000000E+00
  0.00000000E+00  0.00000000E+00  0.00000000E+00
  0.00000000E+00  0.00000000E+00  0.00000000E+00
  0.00000000E+00  0.00000000E+00  0.00000000E+00
  0.00000000E+00  0.00000000E+00  0.00000000E+00
  0.00000000E+00  0.00000000E+00  0.00000000E+00
  0.00000000E+00  0.00000000E+00  0.00000000E+00
  0.00000000E+00  0.00000000E+00  0.00000000E+00
  0.00000000E+00  0.00000000E+00  0.00000000E+00
  0.00000000E+00  0.00000000E+00  0.00000000E+00
  0.00000000E+00  0.00000000E+00  0.00000000E+00
  0.00000000E+00  0.00000000E+00  0.00000000E+00
  0.00000000E+00  0.00000000E+00  0.00000000E+00
  0.00000000E+00  0.00000000E+00  0.00000000E+00
  0.00000000E+00  0.00000000E+00  0.00000000E+00
  0.00000000E+00  0.00000000E+00  0.00000000E+00
  0.00000000E+00  0.00000000E+00  0.00000000E+00
  0.00000000E+00  0.00000000E+00  0.00000000E+00
  0.00000000E+00  0.00000000E+00  0.00000000E+00
  0.00000000E+00  0.00000000E+00  0.00000000E+00
  0.00000000E+00  0.00000000E+00  0.00000000E+00
  0.00000000E+00  0.00000000E+00  0.00000000E+00
  0.00000000E+00  0.00000000E+00  0.00000000E+00
  0.00000000E+00  0.00000000E+00  0.00000000E+00
  0.00000000E+00  0.00000000E+00  0.00000000E+00
  0.00000000E+00  0.00000000E+00  0.00000000E+00
  0.00000000E+00  0.00000000E+00  0.00000000E+00
  0.00000000E+00  0.00000000E+00  0.00000000E+00
  0.00000000E+00  0.00000000E+00  0.00000000E+00
  0.00000000E+00  0.00000000E+00  0.00000000E+00
  0.00000000E+00  0.00000000E+00  0.00000000E+00
  0.00000000E+00  0.00000000E+00  0.00000000E+00
  0.00000000E+00  0.00000000E+00  0.00000000E+00
  0.00000000E+00  0.00000000E+00  0.00000000E+00
  0.00000000E+00  0.00000000E+00  0.00000000E+00
  0.00000000E+00  0.00000000E+00  0.00000000E+00
  0.00000000E+00  0.00000000E+00  0.00000000E+00
  0.00000000E+00  0.00000000E+00  0.00000000E+00
  0.00000000E+00  0.00000000E+00  0.00000000E+00
  0.00000000E+00  0.00000000E+00  0.00000000E+00
  0.00000000E+00  0.00000000E+00  0.00000000E+00
  0.00000000E+00  0.00000000E+00  0.00000000E+00
  0.00000000E+00  0.00000000E+00  0.00000000E+00
  0.00000000E+00  0.00000000E+00  0.00000000E+00
  0.00000000E+00  0.00000000E+00  0.00000000E+00
  0.00000000E+00  0.00000000E+00  0.00000000E+00
  0.00000000E+00  0.00000000E+00  0.00000000E+00
  0.00000000E+00  0.00000000E+00  0.00000000E+00
  0.00000000E+00  0.00000000E+00  0.00000000E+00
  0.00000000E+00  0.00000000E+00  0.00000000E+00
  0.00000000E+00  0.00000000E+00  0.00000000E+00
  0.00000000E+00  0.00000000E+00  0.00000000E+00
  0.00000000E+00  0.00000000E+00  0.00000000E+00
  0.00000000E+00  0.00000000E+00  0.00000000E+00
  0.00000000E+00  0.00000000E+00  0.00000000E+00
