W48 Se97                                
    1.000000000000000     
    33.0000000000000000    0.0000000000000000    0.0000000000000000
     0.0000000000000000   26.2560005188000005    0.0000000000000000
     0.0000000000000000    0.0000000000000000   18.1299991608000006
   W    Se   O    C 
    48    97     2     1
Direct
  0.2787592528451986  0.0458390214887263  0.4999807591357204
  0.2837936686458657  0.2786265674717460  0.4999695832521107
  0.2785911117800923  0.5450648283895618  0.5000032733741343
  0.2845926190207336  0.7780475352019800  0.5000070962818556
  0.4520982719312858  0.0365437603611654  0.4999969631867678
  0.4527363656398075  0.2869940481260670  0.4999938043397297
  0.4523428886012902  0.5357588278967536  0.4999985323458799
  0.4529695593325411  0.7862812779091016  0.5000059214495637
  0.6249481479026475  0.0372750666342477  0.4999954362395163
  0.6262212619159283  0.2888252812224964  0.5000049149712017
  0.6263562158503622  0.5342009203260422  0.5000020319655900
  0.6253044842795322  0.7862187726848815  0.5000000499329024
  0.2840590663881303  0.1679668312111858  0.4999742382859719
  0.2784838901899622  0.4012165500473409  0.4999918150318376
  0.2843563817387770  0.6675904484409684  0.5000039193411281
  0.2790317815191566  0.8999718879736944  0.5000013444908197
  0.4527412269957388  0.1613715459741684  0.4999947851767687
  0.4521843389431184  0.4109462119119072  0.4999965952503646
  0.4531360263950823  0.6601659347282780  0.5000018303354674
  0.4524796471024955  0.9110387495254111  0.5000070731118412
  0.6252746604083115  0.1626874699728534  0.5000017377172012
  0.6261523706383613  0.4114388918973267  0.5000022400733731
  0.6256712650306286  0.6603710180772330  0.5000080171997396
  0.6261131488323257  0.9118515010774167  0.4999933035206049
  0.3663492938051425  0.2236391751493216  0.4999847689330657
  0.3644595254226917  0.4732417449576758  0.5000025249889712
  0.3668425487408652  0.7229420595594613  0.5000046099495148
  0.3646621560198822  0.9733397686800144  0.4999992096551768
  0.5389572783171650  0.2249207560814318  0.4999987927336446
  0.5395425871359968  0.4731326208364929  0.4999949029120028
  0.5390559227924788  0.7234195553548139  0.5000013860226964
  0.5391166722648089  0.9740663934487949  0.4999989849880122
  0.7064200467181460  0.2163166688475841  0.5000210183604994
  0.6979901122870451  0.4593041378849289  0.5000057555710902
  0.7119290958503621  0.7152365029429834  0.5000186418202192
  0.7132664160023693  0.9671804689332171  0.5000020397690939
  0.3662734337095179  0.0991273619410575  0.4999925896071576
  0.3662765306179662  0.3481517600541223  0.4999955830250651
  0.3666646882835753  0.5984438843491338  0.5000029355579243
  0.3666333278114435  0.8476939379449946  0.5000067901927475
  0.5385119311920655  0.0994522004695440  0.4999953027635847
  0.5397011701615686  0.3495690649350185  0.4999956333218203
  0.5391107071714953  0.5976789080687804  0.4999998020438146
  0.5393988433599981  0.8491479411649066  0.5000004764135844
  0.7115853872167645  0.1082183273139958  0.5000124375598228
  0.6978252685699687  0.3635760726463080  0.5000127382905440
  0.7067779911827020  0.6066437049387212  0.5000254720558945
  0.7134022649641306  0.8567064513763518  0.4999913053712142
  0.2503405631569522  0.1053039915393391  0.5910971821421328
  0.2502142616027718  0.3412556709915136  0.5909587156317974
  0.2505192761227926  0.6050804548773679  0.5910422254725333
  0.2507430596764255  0.8404502097640689  0.5911941198939311
  0.4235885786869166  0.0988549233021762  0.5934373762252217
  0.4234998162432125  0.3489579326650288  0.5936548648655723
  0.4239046029960454  0.5979878270102469  0.5936518442028255
  0.4239318483657505  0.8486846269931665  0.5934652492765242
  0.5960614680960289  0.0994643782678229  0.5928778476265011
  0.5982308908424696  0.3503204630516359  0.5950734864180877
  0.5969934611533323  0.5967492235559442  0.5923550293627035
  0.5972069398093807  0.8490171867673831  0.5929561505327483
  0.4242322815116867  0.2240624422874940  0.5930567293450913
  0.4226026426765322  0.4733374604176988  0.5925946467005775
  0.4247375554219838  0.7231168025514622  0.5929748962631273
  0.4228267526195686  0.9736337371163516  0.5924375814238160
  0.5967540162164475  0.2262785934644725  0.5924702278038765
  0.5981952669929433  0.4726607919953573  0.5948257055318923
  0.5966837017699905  0.7237216077789287  0.5927976133415517
  0.5969813316397864  0.9745453172520582  0.5929769447106337
  0.3352383245726779  0.0359647956201829  0.5927636885965625
  0.3378195274163394  0.2854424840268172  0.5953273818925098
  0.3351130217381167  0.5358024031969016  0.5927676585990193
  0.3384399722997456  0.7847727968466002  0.5955422438592216
  0.5098328411616472  0.0364519135210593  0.5929605632305061
  0.5103898861182065  0.2873906168449579  0.5932201404485957
  0.5101469214422455  0.5352567122665530  0.5930907806996051
  0.5105360320037685  0.7865203723546907  0.5930229299711643
  0.6854281775002742  0.0373704749875616  0.5886018485489853
  0.6882077016121506  0.2878248191347917  0.5912996515289348
  0.6882458412687880  0.5348370894148579  0.5912744370044255
  0.6858131140731648  0.7861760866081958  0.5884644955656283
  0.3379088934944559  0.1617324688232656  0.5955733876254738
  0.3349677897923224  0.4107843551867910  0.5928556303597684
  0.3382955845327752  0.6610710536765098  0.5954839917632664
  0.3354810666689730  0.9105557558795370  0.5928775639773758
  0.5102593822240189  0.1620775019171283  0.5933114322840277
  0.5100523900543503  0.4113102613160031  0.5929474268168277
  0.5107005505378882  0.6605160969120204  0.5932667341621269
  0.5102910999386189  0.9115467151076866  0.5931155281373166
  0.6800932865780719  0.1609262362585424  0.6005520075973547
  0.7341548564409878  0.4109551463542473  0.5980327655291373
  0.6806216240409959  0.6620836505774322  0.6004303855943102
  0.6828924617810777  0.9118530360881740  0.5979243793271785
  0.2503521166236467  0.1052978890840728  0.4088287225721179
  0.2502206239587287  0.3412714661189625  0.4089770326160526
  0.2505217159980535  0.6050854665801128  0.4089703945288944
  0.2507459178363784  0.8404501953930907  0.4088134194317810
  0.4235873834826571  0.0988537543435242  0.4065591810300538
  0.4235012116712654  0.3489626748777609  0.4063441206286142
  0.4239035798399018  0.5979874631312488  0.4063565483367013
  0.4239344313728824  0.8486888763390134  0.4065609334706475
  0.5960637200005043  0.0994700522169508  0.4071241357058997
  0.5982361262011872  0.3503191622796235  0.4049345831940530
  0.5969971860947068  0.5967524664095887  0.4076563454890854
  0.5972070804074577  0.8490092454802720  0.4070403571459963
  0.2244958935820927  0.2231111919992959  0.4999653411259415
  0.2313220096796172  0.4731774308459907  0.4999823714518613
  0.2249896238943467  0.7228525808858771  0.5000202449893882
  0.2327444892339572  0.9727459405990362  0.5000007424048315
  0.4242399123613536  0.2240645287754914  0.4069360413595734
  0.4225977047350825  0.4733427413347426  0.4074044053581110
  0.4247339187710691  0.7231188814550680  0.4070396245572657
  0.4228298790526527  0.9736335543815522  0.4075716709844189
  0.5967592545693333  0.2262819235910338  0.4075332227988895
  0.5981977910483365  0.4726647678683648  0.4051762597274593
  0.5966864627844650  0.7237179445301569  0.4072136862862278
  0.5969805434190596  0.9745483417632244  0.4070221457359013
  0.3352445268294798  0.0359642405358073  0.4072231869102427
  0.3378321178280899  0.2854523772811943  0.4046479363135398
  0.3351132613298785  0.5358025217525864  0.4072368477585690
  0.3384416145081887  0.7847718682988899  0.4044641487010819
  0.5098308319974887  0.0364504291771170  0.4070433278399809
  0.5103934056387845  0.2873889393678762  0.4067827367218559
  0.5101483186938028  0.5352590195800598  0.4069075193389147
  0.5105378338507446  0.7865236020966508  0.4069883347632461
  0.6854382525029000  0.0373780985340891  0.4114044873676378
  0.6882280442514489  0.2878187597340266  0.4087385789940530
  0.6882604842905595  0.5348470668107245  0.4087491849354186
  0.6858145433487115  0.7861471703446139  0.4115270586351312
  0.3379158617783890  0.1617300855206333  0.4043915342397663
  0.3349721459370061  0.4107910556418273  0.4071447341471564
  0.3382974547459928  0.6610701377227074  0.4045260840977273
  0.3354790453565159  0.9105512714613557  0.4071361698873780
  0.5102593558943261  0.1620801483876529  0.4066966703708439
  0.5100485546177326  0.4113125877828982  0.4070509303082525
  0.5106994685612218  0.6605158832094056  0.4067382281219954
  0.5102886664488937  0.9115486154069306  0.4068928293499107
  0.6801042249634727  0.1609358354767303  0.3994747266910501
  0.7341344618928110  0.4109395128984665  0.4019701043891358
  0.6806355549084755  0.6620811194565238  0.3996055933565406
  0.6828935672932562  0.9118532957257178  0.4020730048355896
  0.7742477597351086  0.9121260371728981  0.4999987729314812
  0.7666178660212241  0.7821464802316989  0.5000005665239220
  0.7708574864013078  0.6486561213115076  0.5000468852892350
  0.7707546251118770  0.1750407493763807  0.4999896165075099
  0.7665015553129139  0.0417743732749748  0.5000537197754729
  0.7944438608479519  0.5104498081524839  0.4999448078769600
  0.8574385100519172  0.4682097133004739  0.4999709161352011
  0.8260537925580539  0.4892774344653362  0.4999474672542308
 
  0.00000000E+00  0.00000000E+00  0.00000000E+00
  0.00000000E+00  0.00000000E+00  0.00000000E+00
  0.00000000E+00  0.00000000E+00  0.00000000E+00
  0.00000000E+00  0.00000000E+00  0.00000000E+00
  0.00000000E+00  0.00000000E+00  0.00000000E+00
  0.00000000E+00  0.00000000E+00  0.00000000E+00
  0.00000000E+00  0.00000000E+00  0.00000000E+00
  0.00000000E+00  0.00000000E+00  0.00000000E+00
  0.00000000E+00  0.00000000E+00  0.00000000E+00
  0.00000000E+00  0.00000000E+00  0.00000000E+00
  0.00000000E+00  0.00000000E+00  0.00000000E+00
  0.00000000E+00  0.00000000E+00  0.00000000E+00
  0.00000000E+00  0.00000000E+00  0.00000000E+00
  0.00000000E+00  0.00000000E+00  0.00000000E+00
  0.00000000E+00  0.00000000E+00  0.00000000E+00
  0.00000000E+00  0.00000000E+00  0.00000000E+00
  0.00000000E+00  0.00000000E+00  0.00000000E+00
  0.00000000E+00  0.00000000E+00  0.00000000E+00
  0.00000000E+00  0.00000000E+00  0.00000000E+00
  0.00000000E+00  0.00000000E+00  0.00000000E+00
  0.00000000E+00  0.00000000E+00  0.00000000E+00
  0.00000000E+00  0.00000000E+00  0.00000000E+00
  0.00000000E+00  0.00000000E+00  0.00000000E+00
  0.00000000E+00  0.00000000E+00  0.00000000E+00
  0.00000000E+00  0.00000000E+00  0.00000000E+00
  0.00000000E+00  0.00000000E+00  0.00000000E+00
  0.00000000E+00  0.00000000E+00  0.00000000E+00
  0.00000000E+00  0.00000000E+00  0.00000000E+00
  0.00000000E+00  0.00000000E+00  0.00000000E+00
  0.00000000E+00  0.00000000E+00  0.00000000E+00
  0.00000000E+00  0.00000000E+00  0.00000000E+00
  0.00000000E+00  0.00000000E+00  0.00000000E+00
  0.00000000E+00  0.00000000E+00  0.00000000E+00
  0.00000000E+00  0.00000000E+00  0.00000000E+00
  0.00000000E+00  0.00000000E+00  0.00000000E+00
  0.00000000E+00  0.00000000E+00  0.00000000E+00
  0.00000000E+00  0.00000000E+00  0.00000000E+00
  0.00000000E+00  0.00000000E+00  0.00000000E+00
  0.00000000E+00  0.00000000E+00  0.00000000E+00
  0.00000000E+00  0.00000000E+00  0.00000000E+00
  0.00000000E+00  0.00000000E+00  0.00000000E+00
  0.00000000E+00  0.00000000E+00  0.00000000E+00
  0.00000000E+00  0.00000000E+00  0.00000000E+00
  0.00000000E+00  0.00000000E+00  0.00000000E+00
  0.00000000E+00  0.00000000E+00  0.00000000E+00
  0.00000000E+00  0.00000000E+00  0.00000000E+00
  0.00000000E+00  0.00000000E+00  0.00000000E+00
  0.00000000E+00  0.00000000E+00  0.00000000E+00
  0.00000000E+00  0.00000000E+00  0.00000000E+00
  0.00000000E+00  0.00000000E+00  0.00000000E+00
  0.00000000E+00  0.00000000E+00  0.00000000E+00
  0.00000000E+00  0.00000000E+00  0.00000000E+00
  0.00000000E+00  0.00000000E+00  0.00000000E+00
  0.00000000E+00  0.00000000E+00  0.00000000E+00
  0.00000000E+00  0.00000000E+00  0.00000000E+00
  0.00000000E+00  0.00000000E+00  0.00000000E+00
  0.00000000E+00  0.00000000E+00  0.00000000E+00
  0.00000000E+00  0.00000000E+00  0.00000000E+00
  0.00000000E+00  0.00000000E+00  0.00000000E+00
  0.00000000E+00  0.00000000E+00  0.00000000E+00
  0.00000000E+00  0.00000000E+00  0.00000000E+00
  0.00000000E+00  0.00000000E+00  0.00000000E+00
  0.00000000E+00  0.00000000E+00  0.00000000E+00
  0.00000000E+00  0.00000000E+00  0.00000000E+00
  0.00000000E+00  0.00000000E+00  0.00000000E+00
  0.00000000E+00  0.00000000E+00  0.00000000E+00
  0.00000000E+00  0.00000000E+00  0.00000000E+00
  0.00000000E+00  0.00000000E+00  0.00000000E+00
  0.00000000E+00  0.00000000E+00  0.00000000E+00
  0.00000000E+00  0.00000000E+00  0.00000000E+00
  0.00000000E+00  0.00000000E+00  0.00000000E+00
  0.00000000E+00  0.00000000E+00  0.00000000E+00
  0.00000000E+00  0.00000000E+00  0.00000000E+00
  0.00000000E+00  0.00000000E+00  0.00000000E+00
  0.00000000E+00  0.00000000E+00  0.00000000E+00
  0.00000000E+00  0.00000000E+00  0.00000000E+00
  0.00000000E+00  0.00000000E+00  0.00000000E+00
  0.00000000E+00  0.00000000E+00  0.00000000E+00
  0.00000000E+00  0.00000000E+00  0.00000000E+00
  0.00000000E+00  0.00000000E+00  0.00000000E+00
  0.00000000E+00  0.00000000E+00  0.00000000E+00
  0.00000000E+00  0.00000000E+00  0.00000000E+00
  0.00000000E+00  0.00000000E+00  0.00000000E+00
  0.00000000E+00  0.00000000E+00  0.00000000E+00
  0.00000000E+00  0.00000000E+00  0.00000000E+00
  0.00000000E+00  0.00000000E+00  0.00000000E+00
  0.00000000E+00  0.00000000E+00  0.00000000E+00
  0.00000000E+00  0.00000000E+00  0.00000000E+00
  0.00000000E+00  0.00000000E+00  0.00000000E+00
  0.00000000E+00  0.00000000E+00  0.00000000E+00
  0.00000000E+00  0.00000000E+00  0.00000000E+00
  0.00000000E+00  0.00000000E+00  0.00000000E+00
  0.00000000E+00  0.00000000E+00  0.00000000E+00
  0.00000000E+00  0.00000000E+00  0.00000000E+00
  0.00000000E+00  0.00000000E+00  0.00000000E+00
  0.00000000E+00  0.00000000E+00  0.00000000E+00
  0.00000000E+00  0.00000000E+00  0.00000000E+00
  0.00000000E+00  0.00000000E+00  0.00000000E+00
  0.00000000E+00  0.00000000E+00  0.00000000E+00
  0.00000000E+00  0.00000000E+00  0.00000000E+00
  0.00000000E+00  0.00000000E+00  0.00000000E+00
  0.00000000E+00  0.00000000E+00  0.00000000E+00
  0.00000000E+00  0.00000000E+00  0.00000000E+00
  0.00000000E+00  0.00000000E+00  0.00000000E+00
  0.00000000E+00  0.00000000E+00  0.00000000E+00
  0.00000000E+00  0.00000000E+00  0.00000000E+00
  0.00000000E+00  0.00000000E+00  0.00000000E+00
  0.00000000E+00  0.00000000E+00  0.00000000E+00
  0.00000000E+00  0.00000000E+00  0.00000000E+00
  0.00000000E+00  0.00000000E+00  0.00000000E+00
  0.00000000E+00  0.00000000E+00  0.00000000E+00
  0.00000000E+00  0.00000000E+00  0.00000000E+00
  0.00000000E+00  0.00000000E+00  0.00000000E+00
  0.00000000E+00  0.00000000E+00  0.00000000E+00
  0.00000000E+00  0.00000000E+00  0.00000000E+00
  0.00000000E+00  0.00000000E+00  0.00000000E+00
  0.00000000E+00  0.00000000E+00  0.00000000E+00
  0.00000000E+00  0.00000000E+00  0.00000000E+00
  0.00000000E+00  0.00000000E+00  0.00000000E+00
  0.00000000E+00  0.00000000E+00  0.00000000E+00
  0.00000000E+00  0.00000000E+00  0.00000000E+00
  0.00000000E+00  0.00000000E+00  0.00000000E+00
  0.00000000E+00  0.00000000E+00  0.00000000E+00
  0.00000000E+00  0.00000000E+00  0.00000000E+00
  0.00000000E+00  0.00000000E+00  0.00000000E+00
  0.00000000E+00  0.00000000E+00  0.00000000E+00
  0.00000000E+00  0.00000000E+00  0.00000000E+00
  0.00000000E+00  0.00000000E+00  0.00000000E+00
  0.00000000E+00  0.00000000E+00  0.00000000E+00
  0.00000000E+00  0.00000000E+00  0.00000000E+00
  0.00000000E+00  0.00000000E+00  0.00000000E+00
  0.00000000E+00  0.00000000E+00  0.00000000E+00
  0.00000000E+00  0.00000000E+00  0.00000000E+00
  0.00000000E+00  0.00000000E+00  0.00000000E+00
  0.00000000E+00  0.00000000E+00  0.00000000E+00
  0.00000000E+00  0.00000000E+00  0.00000000E+00
  0.00000000E+00  0.00000000E+00  0.00000000E+00
  0.00000000E+00  0.00000000E+00  0.00000000E+00
  0.00000000E+00  0.00000000E+00  0.00000000E+00
  0.00000000E+00  0.00000000E+00  0.00000000E+00
  0.00000000E+00  0.00000000E+00  0.00000000E+00
  0.00000000E+00  0.00000000E+00  0.00000000E+00
  0.00000000E+00  0.00000000E+00  0.00000000E+00
  0.00000000E+00  0.00000000E+00  0.00000000E+00
  0.00000000E+00  0.00000000E+00  0.00000000E+00
  0.00000000E+00  0.00000000E+00  0.00000000E+00
  0.00000000E+00  0.00000000E+00  0.00000000E+00
  0.00000000E+00  0.00000000E+00  0.00000000E+00
