Mo  S                                   
   1.00000000000000     
    33.0000000000000000    0.0000000000000000    0.0000000000000000
     0.0000000000000000   25.5200004577999984    0.0000000000000000
     0.0000000000000000    0.0000000000000000   17.4729003905999996
   Mo   S    O    C 
    48    99     1     1
Direct
  0.2854313541207957  0.1053052223920854  0.4965615418591581
  0.3697600546175664  0.0351597261355597  0.4979792929149005
  0.2870901603385339  0.2196716751529966  0.4963499884295753
  0.3706140830381212  0.1598239546126038  0.4976858127718468
  0.4527352654377995  0.0970124004661433  0.4989906824548279
  0.5354111259411963  0.0343660895539782  0.5002906059634589
  0.2888912195827203  0.3378006481223823  0.4965120150195628
  0.3714704965194529  0.2833338083354919  0.4975343528811843
  0.4537302650254081  0.2215887675197183  0.4986951841947269
  0.5358986878945941  0.1589761682573494  0.5000007635313042
  0.6176019080036922  0.0965834235179368  0.5019472109129576
  0.2839406114803071  0.4629683534532936  0.4967042382535513
  0.3690388987951904  0.4080288252596471  0.4979547019284186
  0.4526137356142896  0.3466197059850857  0.4986775142584747
  0.5357214614544715  0.2845946746217839  0.4998069330748396
  0.2838787751618886  0.6049099568430157  0.5004024532543175
  0.3667510079105439  0.5328081401176914  0.4988764594454600
  0.4508530738857711  0.4715554026366445  0.4989403628375922
  0.5347537355754071  0.4093821563283318  0.4998039576963915
  0.2850162313552772  0.7171467177263386  0.4950511089020326
  0.3678478527600674  0.6591098827499151  0.4977863266339095
  0.4503939731579322  0.5961492888372306  0.4994967139414824
  0.5338879469052051  0.5342704056938081  0.5000731057217990
  0.4511272691550477  0.7214603388010068  0.4998903089909449
  0.5335700693321027  0.6586996810259047  0.5003691717221825
  0.6190638369280193  0.2219149071487357  0.5017904578433552
  0.7006792480256063  0.0352775905764025  0.4999990424541327
  0.6171778173911030  0.3471884765307938  0.5016465542330759
  0.7007567739686837  0.1575930480735180  0.5089743958011778
  0.6178190420397872  0.4720994178791419  0.5007050292044783
  0.7005731427737667  0.2864779264347398  0.5087002919888463
  0.6158086737597911  0.5967396815887013  0.4998286500945852
  0.7001775967239099  0.4086523558907178  0.4999922350597115
  0.6172191715444484  0.7213593725616595  0.4999225288986369
  0.6995104679489053  0.5362311200976633  0.5018681859442202
  0.6990553466613100  0.6579161874176931  0.4946653698429660
  0.2854297311213319  0.8555329294582179  0.4958617059061252
  0.3689588578162246  0.7848114572721920  0.4984115462476148
  0.2854836128517699  0.9657207260577860  0.4963353993989402
  0.3694711219472867  0.9101092831868445  0.4981441179665722
  0.4516907886264486  0.8469168598730549  0.4998535031488948
  0.5341432880134817  0.7841464105719814  0.5005968491899639
  0.4521984003856473  0.9721111997284917  0.4994929213881409
  0.5346873956125208  0.9090302226541476  0.5006054716507268
  0.6163296957901540  0.8463456586151625  0.5001112731901356
  0.6184495589728510  0.9713828097021772  0.5010958125384415
  0.6992272863626151  0.7847474961529388  0.4944673442282043
  0.7000095211881108  0.9066729932211572  0.5023744803135387
  0.3123983759066388  0.0357545358937053  0.4114665121193208
  0.3115748137815809  0.0356820713094994  0.5825176560198130
  0.3156033439366929  0.1603903561499505  0.4043890423750577
  0.3149062701486173  0.1604948183774669  0.5893993062878401
  0.3976902558413329  0.0968865796102244  0.4086777818805232
  0.3969665955070034  0.0970914107831810  0.5877538841621267
  0.4803709359277240  0.0342301631476084  0.4102723146027443
  0.4796885472707609  0.0344870894497607  0.5889174629910934
  0.3166909852850829  0.2804003520378299  0.4050144601301037
  0.3158807037797342  0.2802385268094461  0.5884218955168273
  0.3992363375830284  0.2214142204080926  0.4084118442221908
  0.3985491704657258  0.2214802035959196  0.5875097498541705
  0.4811166166074740  0.1589385743218882  0.4096223149202124
  0.4803851267658316  0.1591061707177694  0.5887899503349489
  0.5634226555428454  0.0965869645235104  0.4107690328985488
  0.5623858521233991  0.0964967854127682  0.5906169709678618
  0.3122798214640172  0.4039573897899191  0.4068899629469148
  0.3114187072735669  0.4035990800711309  0.5872707438101219
  0.3978946590087228  0.3468142841144546  0.4083800571622284
  0.3972707970693258  0.3464852087004697  0.5876773674111774
  0.4809801572654229  0.2843702730188089  0.4095081024923083
  0.4802727775507057  0.2843865156768866  0.5885406788504149
  0.5641725445639632  0.2217661984693200  0.4113322264455910
  0.5628418629623311  0.2218812748372470  0.5894843951127481
  0.6460202960397324  0.0338010079066227  0.4123754044283071
  0.6469146402445775  0.0336018686445267  0.5905796925517334
  0.6487155157104462  0.1591811594187263  0.4146523913332083
  0.6446821818415053  0.1595843515494108  0.5927226091793572
  0.3069009650882600  0.5337690906777189  0.4148043136673739
  0.3088658351904611  0.5309553562228890  0.5858729284001145
  0.3952411138083720  0.4715891862834193  0.4090867046893334
  0.3949838254626540  0.4710911664626930  0.5878699841574799
  0.4796203137307921  0.4096390547859767  0.4097977847899460
  0.4790208364082270  0.4094986770640082  0.5884064085827320
  0.5629729449180595  0.3470689832682811  0.4104616719127986
  0.5619136931582089  0.3473110699620692  0.5902367680951113
  0.3146872425783940  0.6602989044842960  0.4027075173076711
  0.3133221564256136  0.6612526973013741  0.5915643856235786
  0.3948853641549512  0.5951120144202313  0.4099529840046528
  0.3943068923228485  0.5953713305649670  0.5876937387891211
  0.4785617238818788  0.5341008029838828  0.4102364780156322
  0.4780781933532586  0.5338266260795417  0.5887806873721289
  0.5623421882187742  0.4720731021124023  0.4110358546870085
  0.5618996109397014  0.4719528054872728  0.5893693688134425
  0.3962740672857004  0.7220939680064866  0.4098409454058372
  0.3952677924639746  0.7217769513038292  0.5878470301579718
  0.4782706429912369  0.6587926845215929  0.4105841145141428
  0.4778783210112271  0.6585905100448881  0.5893592677994874
  0.5608731780552425  0.5965754419425918  0.4102543948270481
  0.5610296409173284  0.5966141694812674  0.5900918323861380
  0.5612690069709356  0.7213915709939330  0.4113707116192906
  0.5617354914919870  0.7212625107042272  0.5895185133051987
  0.6484578069855530  0.2846542239131456  0.4144858680627120
  0.6445074157342248  0.2844387422220851  0.5925476520160190
  0.7281445663906926  0.0961307185989259  0.4175796112473342
  0.7264455688247804  0.0965344522547713  0.5932090117133809
  0.6455904711240189  0.4098408503914582  0.4120069467386271
  0.6463246888036661  0.4101013047710910  0.5903910706566583
  0.7494893876700017  0.2221033759900399  0.5061396059412994
  0.6457765643930432  0.5343503728762066  0.4112867711893088
  0.6447072125638196  0.5345744366177299  0.5896983158384018
  0.7278457118670071  0.3478492572627171  0.4174602915676652
  0.7261151032716197  0.3475904673477502  0.5931626205596943
  0.6434193933961966  0.6593725364808486  0.4093550154050981
  0.6463110689929484  0.6590608407740736  0.5878430065632871
  0.7491522145056380  0.4727705597490196  0.5008838819329636
  0.7252993013297375  0.5972593032427175  0.4095119292472448
  0.7264839653638435  0.5969924057370471  0.5857216951517751
  0.7487033386865899  0.7212632366198832  0.4967638795381619
  0.2300901944337360  0.1646958499293921  0.4967303097493230
  0.2310966663137394  0.2926235510590890  0.4941025020265975
  0.2288375656029192  0.6623675451965956  0.4759411853695717
  0.2356131193832334  0.0374518914006075  0.4955048663838395
  0.3125201939860642  0.7859203944645331  0.4102421630425102
  0.3108752326781174  0.7857918023284698  0.5826793521080255
  0.3155256744243647  0.9108450167360016  0.4028054492852742
  0.3143018894992397  0.9104507200981957  0.5907723004453798
  0.3968737323734112  0.8470164142064751  0.4095834927168443
  0.3959172453431565  0.8471141460961209  0.5881571505889788
  0.4790256542878914  0.7840645490770830  0.4109041460530433
  0.4785842770703622  0.7840497858056932  0.5894765920409959
  0.3972453045612723  0.9726358026021579  0.4092494561198285
  0.3963725707424114  0.9727494815335963  0.5878983171892993
  0.4795942463837122  0.9093116524163333  0.4106585838321821
  0.4790537519884104  0.9094838706792678  0.5894669898254566
  0.5614457370782338  0.8466006175117676  0.4106719800970848
  0.5616585294433264  0.8463566291357766  0.5904189754582709
  0.5629815422201710  0.9714505015961671  0.4116050468940487
  0.5625935764387403  0.9715931931653662  0.5897872614890162
  0.6435053462842656  0.7834985361644097  0.4094851239846728
  0.6466044001252007  0.7836629968895462  0.5878316220510085
  0.6463489003698655  0.9089167838735124  0.4117284950555266
  0.6452001770450737  0.9086708130798377  0.5899712034616905
  0.7255638517853251  0.8454588723347217  0.4097524657376275
  0.7267481331599771  0.8457281520665958  0.5858453337492426
  0.7492788359627076  0.9706535623839573  0.5005258741898780
  0.2287137420665271  0.9113288479647023  0.4948929332597977
  0.2353004871077218  0.7856580527164200  0.4945309770486664
  0.2198751991167202  0.4553657830955887  0.4931290522844926
  0.2079816818449812  0.5675521828120773  0.6025924516161414
  0.2353050600718216  0.5783591682219223  0.5642606248410379
 
  0.00000000E+00  0.00000000E+00  0.00000000E+00
  0.00000000E+00  0.00000000E+00  0.00000000E+00
  0.00000000E+00  0.00000000E+00  0.00000000E+00
  0.00000000E+00  0.00000000E+00  0.00000000E+00
  0.00000000E+00  0.00000000E+00  0.00000000E+00
  0.00000000E+00  0.00000000E+00  0.00000000E+00
  0.00000000E+00  0.00000000E+00  0.00000000E+00
  0.00000000E+00  0.00000000E+00  0.00000000E+00
  0.00000000E+00  0.00000000E+00  0.00000000E+00
  0.00000000E+00  0.00000000E+00  0.00000000E+00
  0.00000000E+00  0.00000000E+00  0.00000000E+00
  0.00000000E+00  0.00000000E+00  0.00000000E+00
  0.00000000E+00  0.00000000E+00  0.00000000E+00
  0.00000000E+00  0.00000000E+00  0.00000000E+00
  0.00000000E+00  0.00000000E+00  0.00000000E+00
  0.00000000E+00  0.00000000E+00  0.00000000E+00
  0.00000000E+00  0.00000000E+00  0.00000000E+00
  0.00000000E+00  0.00000000E+00  0.00000000E+00
  0.00000000E+00  0.00000000E+00  0.00000000E+00
  0.00000000E+00  0.00000000E+00  0.00000000E+00
  0.00000000E+00  0.00000000E+00  0.00000000E+00
  0.00000000E+00  0.00000000E+00  0.00000000E+00
  0.00000000E+00  0.00000000E+00  0.00000000E+00
  0.00000000E+00  0.00000000E+00  0.00000000E+00
  0.00000000E+00  0.00000000E+00  0.00000000E+00
  0.00000000E+00  0.00000000E+00  0.00000000E+00
  0.00000000E+00  0.00000000E+00  0.00000000E+00
  0.00000000E+00  0.00000000E+00  0.00000000E+00
  0.00000000E+00  0.00000000E+00  0.00000000E+00
  0.00000000E+00  0.00000000E+00  0.00000000E+00
  0.00000000E+00  0.00000000E+00  0.00000000E+00
  0.00000000E+00  0.00000000E+00  0.00000000E+00
  0.00000000E+00  0.00000000E+00  0.00000000E+00
  0.00000000E+00  0.00000000E+00  0.00000000E+00
  0.00000000E+00  0.00000000E+00  0.00000000E+00
  0.00000000E+00  0.00000000E+00  0.00000000E+00
  0.00000000E+00  0.00000000E+00  0.00000000E+00
  0.00000000E+00  0.00000000E+00  0.00000000E+00
  0.00000000E+00  0.00000000E+00  0.00000000E+00
  0.00000000E+00  0.00000000E+00  0.00000000E+00
  0.00000000E+00  0.00000000E+00  0.00000000E+00
  0.00000000E+00  0.00000000E+00  0.00000000E+00
  0.00000000E+00  0.00000000E+00  0.00000000E+00
  0.00000000E+00  0.00000000E+00  0.00000000E+00
  0.00000000E+00  0.00000000E+00  0.00000000E+00
  0.00000000E+00  0.00000000E+00  0.00000000E+00
  0.00000000E+00  0.00000000E+00  0.00000000E+00
  0.00000000E+00  0.00000000E+00  0.00000000E+00
  0.00000000E+00  0.00000000E+00  0.00000000E+00
  0.00000000E+00  0.00000000E+00  0.00000000E+00
  0.00000000E+00  0.00000000E+00  0.00000000E+00
  0.00000000E+00  0.00000000E+00  0.00000000E+00
  0.00000000E+00  0.00000000E+00  0.00000000E+00
  0.00000000E+00  0.00000000E+00  0.00000000E+00
  0.00000000E+00  0.00000000E+00  0.00000000E+00
  0.00000000E+00  0.00000000E+00  0.00000000E+00
  0.00000000E+00  0.00000000E+00  0.00000000E+00
  0.00000000E+00  0.00000000E+00  0.00000000E+00
  0.00000000E+00  0.00000000E+00  0.00000000E+00
  0.00000000E+00  0.00000000E+00  0.00000000E+00
  0.00000000E+00  0.00000000E+00  0.00000000E+00
  0.00000000E+00  0.00000000E+00  0.00000000E+00
  0.00000000E+00  0.00000000E+00  0.00000000E+00
  0.00000000E+00  0.00000000E+00  0.00000000E+00
  0.00000000E+00  0.00000000E+00  0.00000000E+00
  0.00000000E+00  0.00000000E+00  0.00000000E+00
  0.00000000E+00  0.00000000E+00  0.00000000E+00
  0.00000000E+00  0.00000000E+00  0.00000000E+00
  0.00000000E+00  0.00000000E+00  0.00000000E+00
  0.00000000E+00  0.00000000E+00  0.00000000E+00
  0.00000000E+00  0.00000000E+00  0.00000000E+00
  0.00000000E+00  0.00000000E+00  0.00000000E+00
  0.00000000E+00  0.00000000E+00  0.00000000E+00
  0.00000000E+00  0.00000000E+00  0.00000000E+00
  0.00000000E+00  0.00000000E+00  0.00000000E+00
  0.00000000E+00  0.00000000E+00  0.00000000E+00
  0.00000000E+00  0.00000000E+00  0.00000000E+00
  0.00000000E+00  0.00000000E+00  0.00000000E+00
  0.00000000E+00  0.00000000E+00  0.00000000E+00
  0.00000000E+00  0.00000000E+00  0.00000000E+00
  0.00000000E+00  0.00000000E+00  0.00000000E+00
  0.00000000E+00  0.00000000E+00  0.00000000E+00
  0.00000000E+00  0.00000000E+00  0.00000000E+00
  0.00000000E+00  0.00000000E+00  0.00000000E+00
  0.00000000E+00  0.00000000E+00  0.00000000E+00
  0.00000000E+00  0.00000000E+00  0.00000000E+00
  0.00000000E+00  0.00000000E+00  0.00000000E+00
  0.00000000E+00  0.00000000E+00  0.00000000E+00
  0.00000000E+00  0.00000000E+00  0.00000000E+00
  0.00000000E+00  0.00000000E+00  0.00000000E+00
  0.00000000E+00  0.00000000E+00  0.00000000E+00
  0.00000000E+00  0.00000000E+00  0.00000000E+00
  0.00000000E+00  0.00000000E+00  0.00000000E+00
  0.00000000E+00  0.00000000E+00  0.00000000E+00
  0.00000000E+00  0.00000000E+00  0.00000000E+00
  0.00000000E+00  0.00000000E+00  0.00000000E+00
  0.00000000E+00  0.00000000E+00  0.00000000E+00
  0.00000000E+00  0.00000000E+00  0.00000000E+00
  0.00000000E+00  0.00000000E+00  0.00000000E+00
  0.00000000E+00  0.00000000E+00  0.00000000E+00
  0.00000000E+00  0.00000000E+00  0.00000000E+00
  0.00000000E+00  0.00000000E+00  0.00000000E+00
  0.00000000E+00  0.00000000E+00  0.00000000E+00
  0.00000000E+00  0.00000000E+00  0.00000000E+00
  0.00000000E+00  0.00000000E+00  0.00000000E+00
  0.00000000E+00  0.00000000E+00  0.00000000E+00
  0.00000000E+00  0.00000000E+00  0.00000000E+00
  0.00000000E+00  0.00000000E+00  0.00000000E+00
  0.00000000E+00  0.00000000E+00  0.00000000E+00
  0.00000000E+00  0.00000000E+00  0.00000000E+00
  0.00000000E+00  0.00000000E+00  0.00000000E+00
  0.00000000E+00  0.00000000E+00  0.00000000E+00
  0.00000000E+00  0.00000000E+00  0.00000000E+00
  0.00000000E+00  0.00000000E+00  0.00000000E+00
  0.00000000E+00  0.00000000E+00  0.00000000E+00
  0.00000000E+00  0.00000000E+00  0.00000000E+00
  0.00000000E+00  0.00000000E+00  0.00000000E+00
  0.00000000E+00  0.00000000E+00  0.00000000E+00
  0.00000000E+00  0.00000000E+00  0.00000000E+00
  0.00000000E+00  0.00000000E+00  0.00000000E+00
  0.00000000E+00  0.00000000E+00  0.00000000E+00
  0.00000000E+00  0.00000000E+00  0.00000000E+00
  0.00000000E+00  0.00000000E+00  0.00000000E+00
  0.00000000E+00  0.00000000E+00  0.00000000E+00
  0.00000000E+00  0.00000000E+00  0.00000000E+00
  0.00000000E+00  0.00000000E+00  0.00000000E+00
  0.00000000E+00  0.00000000E+00  0.00000000E+00
  0.00000000E+00  0.00000000E+00  0.00000000E+00
  0.00000000E+00  0.00000000E+00  0.00000000E+00
  0.00000000E+00  0.00000000E+00  0.00000000E+00
  0.00000000E+00  0.00000000E+00  0.00000000E+00
  0.00000000E+00  0.00000000E+00  0.00000000E+00
  0.00000000E+00  0.00000000E+00  0.00000000E+00
  0.00000000E+00  0.00000000E+00  0.00000000E+00
  0.00000000E+00  0.00000000E+00  0.00000000E+00
  0.00000000E+00  0.00000000E+00  0.00000000E+00
  0.00000000E+00  0.00000000E+00  0.00000000E+00
  0.00000000E+00  0.00000000E+00  0.00000000E+00
  0.00000000E+00  0.00000000E+00  0.00000000E+00
  0.00000000E+00  0.00000000E+00  0.00000000E+00
  0.00000000E+00  0.00000000E+00  0.00000000E+00
  0.00000000E+00  0.00000000E+00  0.00000000E+00
  0.00000000E+00  0.00000000E+00  0.00000000E+00
  0.00000000E+00  0.00000000E+00  0.00000000E+00
  0.00000000E+00  0.00000000E+00  0.00000000E+00
  0.00000000E+00  0.00000000E+00  0.00000000E+00
  0.00000000E+00  0.00000000E+00  0.00000000E+00
  0.00000000E+00  0.00000000E+00  0.00000000E+00
  0.00000000E+00  0.00000000E+00  0.00000000E+00
