Mo48 Se99                               
   1.00000000000000     
    33.0000000000000000    0.0000000000000000    0.0000000000000000
     0.0000000000000000   26.3120002747000008    0.0000000000000000
     0.0000000000000000    0.0000000000000000   18.0970001220999990
   Mo   Se   O    C 
    48    99     1     1
Direct
  0.2879429551463358  0.0254605480846221  0.5047387590221700
  0.2849913027137170  0.2766187554019055  0.5061695561319903
  0.2857767944469556  0.5331135684172639  0.5005582987055377
  0.2817816961544887  0.7920617221316819  0.5021073574045903
  0.4549271115817325  0.0356646699293419  0.5016275512611401
  0.4525546504406815  0.2850531991019670  0.4992907297992853
  0.4546121041540835  0.5353776010061990  0.5006593121354657
  0.4555268286740576  0.7855654109283992  0.5026475256593338
  0.6272886962345172  0.0366888057184041  0.4998108804523068
  0.6259614138416653  0.2852256627876136  0.4991722617343631
  0.6269600126713691  0.5338173909648769  0.5001137095023012
  0.6279499156996123  0.7851522968539995  0.5007404167319141
  0.2871006098100017  0.1676745884025719  0.5052613681977625
  0.2847057739444436  0.4191927912562135  0.4914807970375614
  0.2817602103334509  0.6585344594914581  0.4965810159009947
  0.2888435078237346  0.9181734620372559  0.5033737865499793
  0.4535663717811980  0.1603889135318881  0.5002825409593551
  0.4535853395743500  0.4099854404330825  0.4991583109760022
  0.4551731203105809  0.6602235938627988  0.5019235335810438
  0.4558565412019931  0.9104311504633372  0.5023395001333354
  0.6264802393342084  0.1617543123029032  0.4993436646167758
  0.6263349009390305  0.4087735233495426  0.4994624763023478
  0.6279982068620710  0.6593204436423646  0.5005861303606169
  0.6282740455039419  0.9110152890105313  0.5004028825336475
  0.3671947622669382  0.2213551836447134  0.5011984939232378
  0.3673404705620716  0.4723642026198584  0.4989753672517166
  0.3681869363571104  0.7231639836591063  0.5027539187061115
  0.3692616254698228  0.9737412178175278  0.5031996767979667
  0.5393094605780711  0.2231493429495437  0.4994048764188474
  0.5408408285443251  0.4718331124920681  0.4999486348933687
  0.5419087579272605  0.7224297664776355  0.5016161563128170
  0.5418055088111576  0.9733535272168395  0.5010348515665947
  0.7137184322780673  0.2270970059266464  0.4991508579280098
  0.7148654445074485  0.4612211219682749  0.4994002575420075
  0.7150792403902347  0.7138320573619650  0.4995624327206003
  0.7149626746152707  0.9656441817836143  0.4993154724164353
  0.3666134362390440  0.0974189355294981  0.5030088840206171
  0.3659145585133418  0.3483527423690607  0.4991876480194569
  0.3694142290416363  0.5976527973043280  0.5012063239786400
  0.3703574054554035  0.8488679874237730  0.5030476738167239
  0.5411095873809616  0.0986990172537366  0.5000954578676696
  0.5392618699262984  0.3473895399714209  0.4992261506797897
  0.5414096023622326  0.5973057375960561  0.5010554389319901
  0.5421359233470002  0.8480892498880037  0.5016475312187835
  0.7150734051443510  0.1092729990168299  0.4991299404195431
  0.7136270758946438  0.3434312740196711  0.4992084355126772
  0.7147184837794596  0.6047152045668297  0.4995747563374430
  0.7152162837351775  0.8564309027191364  0.4994578590651060
  0.2439412305810430  0.0963638941668932  0.5704568092030625
  0.2457889424413907  0.3477137543053007  0.5573272949572662
  0.2523632309420299  0.5947924900634279  0.5850088549983359
  0.2551742855349081  0.8535446433681012  0.5916850066632008
  0.4255727945096031  0.0979817681611613  0.5937420511765921
  0.4237796841943420  0.3480075097892008  0.5913602775425326
  0.4264996347681517  0.5977564434881522  0.5944654559990321
  0.4276313785307304  0.8479813173649048  0.5959330927292230
  0.5989953310440645  0.0987564390034649  0.5926893696293851
  0.5967517120218150  0.3471918116783768  0.5918005161402269
  0.5993436603470914  0.5965703091204804  0.5931889905033465
  0.6002226168135252  0.8478892383699344  0.5934919041021498
  0.4251772046008897  0.2226146400339007  0.5931984264433128
  0.4251756249577039  0.4723264155155339  0.5920284595721711
  0.4262069834702283  0.7227907806946017  0.5947831391115955
  0.4274827328500831  0.9731883148709676  0.5951620416192447
  0.5968600569002663  0.2232495336432642  0.5918693829456236
  0.5986403715383626  0.4717124568970688  0.5928109105149073
  0.5999966314282290  0.7224980038610588  0.5934509230042184
  0.5998457132806000  0.9738936826835473  0.5929712769477474
  0.3391721537455788  0.0344842893914420  0.6003187574801555
  0.3385788058595972  0.2837724932741292  0.5971302243672791
  0.3407895678436918  0.5341106616141250  0.5949238153503346
  0.3386735989765848  0.7857948181731144  0.5942123242068752
  0.5130885396921748  0.0361017298525403  0.5933539165548831
  0.5102298947573339  0.2853724927065441  0.5920131049222483
  0.5124321937071746  0.5344623262501266  0.5930031534827634
  0.5136658504922942  0.7852313266084009  0.5943994862416356
  0.6883061320187918  0.0374982358359103  0.5869196718608809
  0.6842278356268019  0.2852086001707564  0.5950365734496611
  0.6879889228020278  0.5329879943516744  0.5872180750982114
  0.6889783422404615  0.7851651032156655  0.5878015639092693
  0.3390908554773723  0.1605780757468396  0.5999836305954480
  0.3362530763484365  0.4108588049951874  0.5926059895428510
  0.3370578069974379  0.6597217938041132  0.5923221755385696
  0.3419655349674612  0.9111185881585251  0.5985231967931954
  0.5114951176692604  0.1605581373244827  0.5925662933367253
  0.5110700553568743  0.4099140211681275  0.5921700395345668
  0.5131550826338128  0.6599223434775153  0.5941866768368801
  0.5138553854804843  0.9107372665635576  0.5943985783266457
  0.6844998198359504  0.1640301067140180  0.5949562239163610
  0.6843313154946188  0.4064126457129552  0.5951160946149077
  0.6848146590564320  0.6592578687203426  0.5980273414236896
  0.6850763342209931  0.9111446900034049  0.5978725891985510
  0.2420824154635857  0.0958721151884338  0.4427263834888043
  0.2556297455849281  0.5986497366898866  0.4060798962175144
  0.2560328091743049  0.8543065708112754  0.4124625580672541
  0.4244312083047784  0.0971964723214337  0.4094619449062844
  0.4239532881306881  0.3475515232230807  0.4066587848554119
  0.4266426522244321  0.5984669673574982  0.4080879669451585
  0.4272530708730455  0.8478542689692485  0.4095718530352824
  0.5986328798090770  0.0983956124858447  0.4067755881163544
  0.5967873787907010  0.3473678375491746  0.4066797403832956
  0.5989178213122133  0.5969301226692706  0.4080535439694170
  0.5995649100814916  0.8476797297982712  0.4084812551038370
  0.2269032623673875  0.2211382336612961  0.4954520540315556
  0.2283274704611756  0.4801704886093058  0.4723459854798813
  0.2306151096900194  0.7250345693910110  0.4985086899864298
  0.2284730615599981  0.9700133105059138  0.5046420829087778
  0.4240914192448802  0.2221191968133033  0.4070021673678073
  0.4257257790274789  0.4734589127578401  0.4072576584304166
  0.4261374575001403  0.7232871856547394  0.4102647778121839
  0.4267457024616422  0.9728011149954515  0.4096062316840576
  0.5967362821523570  0.2231046564087473  0.4067072738909978
  0.5985184946047079  0.4721647981112458  0.4068790952501238
  0.5994005830915168  0.7226315436283057  0.4085269788325779
  0.5992411727951958  0.9734877467603129  0.4078824943358250
  0.3379514312863629  0.0343277888086293  0.4071041392876881
  0.3342835747437731  0.2843800636002723  0.4073540313921167
  0.3393586613155081  0.5367555364657253  0.4056681923796981
  0.3390080245797638  0.7863434528449248  0.4113010034681969
  0.5123865336878839  0.0355229298726348  0.4085123491528950
  0.5101807169077550  0.2851860430514943  0.4065926889187524
  0.5123818475682247  0.5352409469638264  0.4082392372547079
  0.5130783412545831  0.7853008601286694  0.4096386921616713
  0.6879388054570016  0.0372787268213138  0.4117840159680485
  0.6842216544408837  0.2852383928734814  0.4032748939272942
  0.6876288145314355  0.5331565726523487  0.4121758426844911
  0.6882565032618675  0.7851061356671688  0.4120244627567911
  0.3368738747747640  0.1593140640169617  0.4069771513754543
  0.3397100831346203  0.4113123375247643  0.4015047281034264
  0.3402637603372815  0.6615519728388062  0.4090015945267138
  0.3417478900791394  0.9113047995486605  0.4078738777681075
  0.5110558257380658  0.1601126309213833  0.4072071489269103
  0.5112619116092884  0.4103506690512627  0.4066096301582283
  0.5128124400213647  0.6603670393066641  0.4089362384676005
  0.5132256758278989  0.9103811918381804  0.4089984392223586
  0.6843731016267616  0.1640157145646339  0.4034387379432871
  0.7758909329321636  0.9122021894499749  0.4983822753926492
  0.7681202413962011  0.7850447782886469  0.4985918420361001
  0.7757045199957017  0.6580042328141640  0.4983326477510701
  0.7673328058075217  0.5317113955028537  0.4991711377503705
  0.7737143743098589  0.4051044846834170  0.4995930638695364
  0.7733429007494174  0.2852868931423894  0.4990024485053370
  0.7738694814037065  0.1654319975416157  0.4994052855061192
  0.7675636171120468  0.0387198630885401  0.4991507589855104
  0.6842264315169490  0.4066015245188239  0.4035851411574466
  0.6841272325988172  0.6592857533802007  0.4018776876293202
  0.6844102263143372  0.9109669894787251  0.4016096487648916
  0.2351336149335714  0.3633215965203619  0.3649841445744308
  0.2522841839199205  0.3831480570388847  0.4131674843685924
 
  0.00000000E+00  0.00000000E+00  0.00000000E+00
  0.00000000E+00  0.00000000E+00  0.00000000E+00
  0.00000000E+00  0.00000000E+00  0.00000000E+00
  0.00000000E+00  0.00000000E+00  0.00000000E+00
  0.00000000E+00  0.00000000E+00  0.00000000E+00
  0.00000000E+00  0.00000000E+00  0.00000000E+00
  0.00000000E+00  0.00000000E+00  0.00000000E+00
  0.00000000E+00  0.00000000E+00  0.00000000E+00
  0.00000000E+00  0.00000000E+00  0.00000000E+00
  0.00000000E+00  0.00000000E+00  0.00000000E+00
  0.00000000E+00  0.00000000E+00  0.00000000E+00
  0.00000000E+00  0.00000000E+00  0.00000000E+00
  0.00000000E+00  0.00000000E+00  0.00000000E+00
  0.00000000E+00  0.00000000E+00  0.00000000E+00
  0.00000000E+00  0.00000000E+00  0.00000000E+00
  0.00000000E+00  0.00000000E+00  0.00000000E+00
  0.00000000E+00  0.00000000E+00  0.00000000E+00
  0.00000000E+00  0.00000000E+00  0.00000000E+00
  0.00000000E+00  0.00000000E+00  0.00000000E+00
  0.00000000E+00  0.00000000E+00  0.00000000E+00
  0.00000000E+00  0.00000000E+00  0.00000000E+00
  0.00000000E+00  0.00000000E+00  0.00000000E+00
  0.00000000E+00  0.00000000E+00  0.00000000E+00
  0.00000000E+00  0.00000000E+00  0.00000000E+00
  0.00000000E+00  0.00000000E+00  0.00000000E+00
  0.00000000E+00  0.00000000E+00  0.00000000E+00
  0.00000000E+00  0.00000000E+00  0.00000000E+00
  0.00000000E+00  0.00000000E+00  0.00000000E+00
  0.00000000E+00  0.00000000E+00  0.00000000E+00
  0.00000000E+00  0.00000000E+00  0.00000000E+00
  0.00000000E+00  0.00000000E+00  0.00000000E+00
  0.00000000E+00  0.00000000E+00  0.00000000E+00
  0.00000000E+00  0.00000000E+00  0.00000000E+00
  0.00000000E+00  0.00000000E+00  0.00000000E+00
  0.00000000E+00  0.00000000E+00  0.00000000E+00
  0.00000000E+00  0.00000000E+00  0.00000000E+00
  0.00000000E+00  0.00000000E+00  0.00000000E+00
  0.00000000E+00  0.00000000E+00  0.00000000E+00
  0.00000000E+00  0.00000000E+00  0.00000000E+00
  0.00000000E+00  0.00000000E+00  0.00000000E+00
  0.00000000E+00  0.00000000E+00  0.00000000E+00
  0.00000000E+00  0.00000000E+00  0.00000000E+00
  0.00000000E+00  0.00000000E+00  0.00000000E+00
  0.00000000E+00  0.00000000E+00  0.00000000E+00
  0.00000000E+00  0.00000000E+00  0.00000000E+00
  0.00000000E+00  0.00000000E+00  0.00000000E+00
  0.00000000E+00  0.00000000E+00  0.00000000E+00
  0.00000000E+00  0.00000000E+00  0.00000000E+00
  0.00000000E+00  0.00000000E+00  0.00000000E+00
  0.00000000E+00  0.00000000E+00  0.00000000E+00
  0.00000000E+00  0.00000000E+00  0.00000000E+00
  0.00000000E+00  0.00000000E+00  0.00000000E+00
  0.00000000E+00  0.00000000E+00  0.00000000E+00
  0.00000000E+00  0.00000000E+00  0.00000000E+00
  0.00000000E+00  0.00000000E+00  0.00000000E+00
  0.00000000E+00  0.00000000E+00  0.00000000E+00
  0.00000000E+00  0.00000000E+00  0.00000000E+00
  0.00000000E+00  0.00000000E+00  0.00000000E+00
  0.00000000E+00  0.00000000E+00  0.00000000E+00
  0.00000000E+00  0.00000000E+00  0.00000000E+00
  0.00000000E+00  0.00000000E+00  0.00000000E+00
  0.00000000E+00  0.00000000E+00  0.00000000E+00
  0.00000000E+00  0.00000000E+00  0.00000000E+00
  0.00000000E+00  0.00000000E+00  0.00000000E+00
  0.00000000E+00  0.00000000E+00  0.00000000E+00
  0.00000000E+00  0.00000000E+00  0.00000000E+00
  0.00000000E+00  0.00000000E+00  0.00000000E+00
  0.00000000E+00  0.00000000E+00  0.00000000E+00
  0.00000000E+00  0.00000000E+00  0.00000000E+00
  0.00000000E+00  0.00000000E+00  0.00000000E+00
  0.00000000E+00  0.00000000E+00  0.00000000E+00
  0.00000000E+00  0.00000000E+00  0.00000000E+00
  0.00000000E+00  0.00000000E+00  0.00000000E+00
  0.00000000E+00  0.00000000E+00  0.00000000E+00
  0.00000000E+00  0.00000000E+00  0.00000000E+00
  0.00000000E+00  0.00000000E+00  0.00000000E+00
  0.00000000E+00  0.00000000E+00  0.00000000E+00
  0.00000000E+00  0.00000000E+00  0.00000000E+00
  0.00000000E+00  0.00000000E+00  0.00000000E+00
  0.00000000E+00  0.00000000E+00  0.00000000E+00
  0.00000000E+00  0.00000000E+00  0.00000000E+00
  0.00000000E+00  0.00000000E+00  0.00000000E+00
  0.00000000E+00  0.00000000E+00  0.00000000E+00
  0.00000000E+00  0.00000000E+00  0.00000000E+00
  0.00000000E+00  0.00000000E+00  0.00000000E+00
  0.00000000E+00  0.00000000E+00  0.00000000E+00
  0.00000000E+00  0.00000000E+00  0.00000000E+00
  0.00000000E+00  0.00000000E+00  0.00000000E+00
  0.00000000E+00  0.00000000E+00  0.00000000E+00
  0.00000000E+00  0.00000000E+00  0.00000000E+00
  0.00000000E+00  0.00000000E+00  0.00000000E+00
  0.00000000E+00  0.00000000E+00  0.00000000E+00
  0.00000000E+00  0.00000000E+00  0.00000000E+00
  0.00000000E+00  0.00000000E+00  0.00000000E+00
  0.00000000E+00  0.00000000E+00  0.00000000E+00
  0.00000000E+00  0.00000000E+00  0.00000000E+00
  0.00000000E+00  0.00000000E+00  0.00000000E+00
  0.00000000E+00  0.00000000E+00  0.00000000E+00
  0.00000000E+00  0.00000000E+00  0.00000000E+00
  0.00000000E+00  0.00000000E+00  0.00000000E+00
  0.00000000E+00  0.00000000E+00  0.00000000E+00
  0.00000000E+00  0.00000000E+00  0.00000000E+00
  0.00000000E+00  0.00000000E+00  0.00000000E+00
  0.00000000E+00  0.00000000E+00  0.00000000E+00
  0.00000000E+00  0.00000000E+00  0.00000000E+00
  0.00000000E+00  0.00000000E+00  0.00000000E+00
  0.00000000E+00  0.00000000E+00  0.00000000E+00
  0.00000000E+00  0.00000000E+00  0.00000000E+00
  0.00000000E+00  0.00000000E+00  0.00000000E+00
  0.00000000E+00  0.00000000E+00  0.00000000E+00
  0.00000000E+00  0.00000000E+00  0.00000000E+00
  0.00000000E+00  0.00000000E+00  0.00000000E+00
  0.00000000E+00  0.00000000E+00  0.00000000E+00
  0.00000000E+00  0.00000000E+00  0.00000000E+00
  0.00000000E+00  0.00000000E+00  0.00000000E+00
  0.00000000E+00  0.00000000E+00  0.00000000E+00
  0.00000000E+00  0.00000000E+00  0.00000000E+00
  0.00000000E+00  0.00000000E+00  0.00000000E+00
  0.00000000E+00  0.00000000E+00  0.00000000E+00
  0.00000000E+00  0.00000000E+00  0.00000000E+00
  0.00000000E+00  0.00000000E+00  0.00000000E+00
  0.00000000E+00  0.00000000E+00  0.00000000E+00
  0.00000000E+00  0.00000000E+00  0.00000000E+00
  0.00000000E+00  0.00000000E+00  0.00000000E+00
  0.00000000E+00  0.00000000E+00  0.00000000E+00
  0.00000000E+00  0.00000000E+00  0.00000000E+00
  0.00000000E+00  0.00000000E+00  0.00000000E+00
  0.00000000E+00  0.00000000E+00  0.00000000E+00
  0.00000000E+00  0.00000000E+00  0.00000000E+00
  0.00000000E+00  0.00000000E+00  0.00000000E+00
  0.00000000E+00  0.00000000E+00  0.00000000E+00
  0.00000000E+00  0.00000000E+00  0.00000000E+00
  0.00000000E+00  0.00000000E+00  0.00000000E+00
  0.00000000E+00  0.00000000E+00  0.00000000E+00
  0.00000000E+00  0.00000000E+00  0.00000000E+00
  0.00000000E+00  0.00000000E+00  0.00000000E+00
  0.00000000E+00  0.00000000E+00  0.00000000E+00
  0.00000000E+00  0.00000000E+00  0.00000000E+00
  0.00000000E+00  0.00000000E+00  0.00000000E+00
  0.00000000E+00  0.00000000E+00  0.00000000E+00
  0.00000000E+00  0.00000000E+00  0.00000000E+00
  0.00000000E+00  0.00000000E+00  0.00000000E+00
  0.00000000E+00  0.00000000E+00  0.00000000E+00
  0.00000000E+00  0.00000000E+00  0.00000000E+00
  0.00000000E+00  0.00000000E+00  0.00000000E+00
  0.00000000E+00  0.00000000E+00  0.00000000E+00
  0.00000000E+00  0.00000000E+00  0.00000000E+00
  0.00000000E+00  0.00000000E+00  0.00000000E+00
  0.00000000E+00  0.00000000E+00  0.00000000E+00
