W36 S72                                 
   1.00000000000000     
    18.9192008971999996    0.0000000000000000    0.0000000000000000
    -9.4596004485999998   16.3845085963000017    0.0000000000000000
     0.0000000000000000    0.0000000000000000   24.6459999084000003
   W    S    O    C 
    36    71     1     1
Direct
  0.1205150009167610  0.0465553286324294  0.5002857940762695
  0.1208816771646894  0.2134465882780816  0.4999326376423028
  0.1208820722520230  0.3796575082917073  0.4999322784357716
  0.1205146946240987  0.5461813275470462  0.5002858750092543
  0.1204150755311346  0.7129180578434742  0.5005192087730208
  0.1204149129714409  0.8797188030809693  0.5005194624215079
  0.2871513168423760  0.0465553422512812  0.5002858106804453
  0.2875407412317159  0.2139703112863245  0.4993293479395504
  0.2880227701126685  0.3801223447525786  0.4980292821919150
  0.2875406551477653  0.5457915861359766  0.4993288724923701
  0.2871508788008086  0.7128174510316896  0.5002855980791949
  0.2870482529037588  0.8796351142457652  0.5005753547992882
  0.4536782075781645  0.0464079345566688  0.5006219124193052
  0.4536760012600567  0.2134464588788987  0.4999327308486770
  0.4532108948211047  0.3801221346446297  0.4980293525815824
  0.4532110408647299  0.5453107737764142  0.4980292860523363
  0.4536752313568115  0.7124505174926199  0.4999325022424728
  0.4536782495220208  0.8794926617057399  0.5006217796975676
  0.6203514304179052  0.0462869360558500  0.5008017793919777
  0.6202957045830999  0.2130376378827208  0.5005579913794094
  0.6198861511200207  0.3796569847950053  0.4999326386888256
  0.6193616103969575  0.5457914962777366  0.4993288839728081
  0.6198862901703563  0.7124508782417038  0.4999325418234903
  0.6202955724457979  0.8794800940443182  0.5005578321732713
  0.7870464808823812  0.0462866945700071  0.5008017577849131
  0.7870462770834052  0.2129814550175695  0.5008018199671369
  0.7869250746189351  0.3796546343860854  0.5006218213770097
  0.7867779822430307  0.5461813821166217  0.5002863412049052
  0.7867778321702446  0.7128179179007788  0.5002858738443621
  0.7869255840253118  0.8794926396195351  0.5006217583634296
  0.9538407322560829  0.0464078375811638  0.5006219256044133
  0.9538529517900898  0.2130371981117491  0.5005579087160967
  0.9538407018628519  0.3796547142171818  0.5006216141310915
  0.9536981753846518  0.5462847406440972  0.5005751762670911
  0.9536142015346130  0.7129178617865364  0.5005193649569506
  0.9536977830019211  0.8796350875858394  0.5005751663785460
  0.0655593135616144  0.1026167236014288  0.5644786720459507
  0.0655756376588457  0.2688987295012879  0.5643684396330571
  0.0655593875096727  0.4351641678952944  0.5644787101177116
  0.0650498757113951  0.6017328874165031  0.5646532447737940
  0.0648147074636043  0.7685181261879350  0.5647077142506021
  0.0650498792695231  0.9355388430368592  0.5646533158992000
  0.2321658554670520  0.1032206072902611  0.5640726801815177
  0.2334407306936868  0.2707139868338686  0.5634083563374972
  0.2334408115226125  0.4349488128707719  0.5634079587679324
  0.2321657152216545  0.6011671284644464  0.5640723878797615
  0.2315998320758723  0.7682829969910543  0.5646532984069808
  0.2316000011327475  0.9355387977193530  0.5646533148933699
  0.3981687844357182  0.1026169646372068  0.5644789360573412
  0.3983843476796878  0.2707138931256310  0.5634084626267750
  0.3983842913478455  0.5998924956214964  0.5634083132754455
  0.3981685799510828  0.7677733442402754  0.5644787570350331
  0.3981021013424026  0.9351620315362013  0.5647916980546839
  0.5647031841943075  0.1020131264733237  0.5648671084514305
  0.5644342691988911  0.2688988154312071  0.5643685025116838
  0.5626192917416049  0.4349488677596298  0.5634082115548438
  0.5626192413251800  0.5998924223857642  0.5634082944352201
  0.5644344438290929  0.7677574915148497  0.5643683588843302
  0.5647033478455299  0.9349120679526521  0.5648669615267536
  0.7314814465542199  0.1018515994395415  0.5650284652271651
  0.7313197567044440  0.2686296401330637  0.5648670858868670
  0.7307160189856248  0.4351641016592751  0.5644789469349334
  0.7301122746758821  0.6011671820166455  0.5640723991463403
  0.7307161828031852  0.7677735959574150  0.5644788973377928
  0.7313199722646431  0.9349120900334427  0.5648670469554560
  0.8984210975559890  0.1020131104022894  0.5648668550269704
  0.8984211115455096  0.2686297220816698  0.5648669750189939
  0.8981712175312353  0.4352309459321972  0.5647918406649453
  0.8977945811708707  0.6017330841626674  0.5646533779036886
  0.8977945684260575  0.7682832557695463  0.5646534597282056
  0.8981710677788257  0.9351621338327334  0.5647917227298507
  0.0645925765445554  0.1017377380313675  0.4361460779211939
  0.0645121007882850  0.2683667833819641  0.4359802743783305
  0.0645927453446831  0.4350762766071625  0.4361451815472392
  0.0647477702179771  0.6018353816096038  0.4363015560499335
  0.0648145749362641  0.7685179093825383  0.4363667208170199
  0.0647477930754690  0.9351340827809196  0.4363015177980145
  0.2313991457973827  0.1016869444037951  0.4358881837049253
  0.2309212416198179  0.2680887423368006  0.4346779745917857
  0.2309224600478927  0.4350536727357408  0.4346776409557620
  0.2313975570498243  0.6019321597210521  0.4358885115336122
  0.2314974879579950  0.7685850956619191  0.4363014633638826
  0.2314973754529817  0.9351341851189616  0.4363016836923848
  0.3982564969355664  0.1017380160528489  0.4361460513027495
  0.3982789205461188  0.2680889262914761  0.4346781155497084
  0.3981480558065229  0.4351848942278878  0.4333332605567435
  0.3982795150711951  0.6024105653105423  0.4346776678056443
  0.3982564553912411  0.7687403368909642  0.4361456674759623
  0.3982261946478332  0.9352241067731484  0.4364782146536683
  0.5648680132890078  0.1017786401078880  0.4365124702261411
  0.5649660059881754  0.2683668391759468  0.4359803245925775
  0.5652424163517651  0.4350536299332859  0.4346776706278490
  0.5652423534563553  0.6024105275424034  0.4346777860991011
  0.5649663153355888  0.7688211218003005  0.4359800985443272
  0.5648680431519679  0.9353114710042618  0.4365124910213467
  0.7314814738054451  0.1018516285752540  0.4366337780012230
  0.7315542741411107  0.2684648996723240  0.4365126245151103
  0.7315950776280644  0.4350767599355621  0.4361458556489879
  0.7316458896568463  0.6019321455648452  0.4358885960675210
  0.7315952947900328  0.7687404174700490  0.4361457549067964
  0.7315547379208596  0.9353114966657472  0.4365123937550663
  0.8980217767636631  0.1017784565881357  0.4365124565267635
  0.8980216015815330  0.2684648548137218  0.4365125313768985
  0.8981089684898791  0.4351067352750491  0.4364782539543413
  0.8981988995329573  0.6018355706002794  0.4363015977481624
  0.8981987858905995  0.7685850590509702  0.4363015395981122
  0.8981090231940527  0.9352239783414120  0.4364780703587812
  0.3981472399876438  0.4351840885996552  0.6018777948413145
  0.3981478274035766  0.4351847713452699  0.5521483299576033
 
  0.00000000E+00  0.00000000E+00  0.00000000E+00
  0.00000000E+00  0.00000000E+00  0.00000000E+00
  0.00000000E+00  0.00000000E+00  0.00000000E+00
  0.00000000E+00  0.00000000E+00  0.00000000E+00
  0.00000000E+00  0.00000000E+00  0.00000000E+00
  0.00000000E+00  0.00000000E+00  0.00000000E+00
  0.00000000E+00  0.00000000E+00  0.00000000E+00
  0.00000000E+00  0.00000000E+00  0.00000000E+00
  0.00000000E+00  0.00000000E+00  0.00000000E+00
  0.00000000E+00  0.00000000E+00  0.00000000E+00
  0.00000000E+00  0.00000000E+00  0.00000000E+00
  0.00000000E+00  0.00000000E+00  0.00000000E+00
  0.00000000E+00  0.00000000E+00  0.00000000E+00
  0.00000000E+00  0.00000000E+00  0.00000000E+00
  0.00000000E+00  0.00000000E+00  0.00000000E+00
  0.00000000E+00  0.00000000E+00  0.00000000E+00
  0.00000000E+00  0.00000000E+00  0.00000000E+00
  0.00000000E+00  0.00000000E+00  0.00000000E+00
  0.00000000E+00  0.00000000E+00  0.00000000E+00
  0.00000000E+00  0.00000000E+00  0.00000000E+00
  0.00000000E+00  0.00000000E+00  0.00000000E+00
  0.00000000E+00  0.00000000E+00  0.00000000E+00
  0.00000000E+00  0.00000000E+00  0.00000000E+00
  0.00000000E+00  0.00000000E+00  0.00000000E+00
  0.00000000E+00  0.00000000E+00  0.00000000E+00
  0.00000000E+00  0.00000000E+00  0.00000000E+00
  0.00000000E+00  0.00000000E+00  0.00000000E+00
  0.00000000E+00  0.00000000E+00  0.00000000E+00
  0.00000000E+00  0.00000000E+00  0.00000000E+00
  0.00000000E+00  0.00000000E+00  0.00000000E+00
  0.00000000E+00  0.00000000E+00  0.00000000E+00
  0.00000000E+00  0.00000000E+00  0.00000000E+00
  0.00000000E+00  0.00000000E+00  0.00000000E+00
  0.00000000E+00  0.00000000E+00  0.00000000E+00
  0.00000000E+00  0.00000000E+00  0.00000000E+00
  0.00000000E+00  0.00000000E+00  0.00000000E+00
  0.00000000E+00  0.00000000E+00  0.00000000E+00
  0.00000000E+00  0.00000000E+00  0.00000000E+00
  0.00000000E+00  0.00000000E+00  0.00000000E+00
  0.00000000E+00  0.00000000E+00  0.00000000E+00
  0.00000000E+00  0.00000000E+00  0.00000000E+00
  0.00000000E+00  0.00000000E+00  0.00000000E+00
  0.00000000E+00  0.00000000E+00  0.00000000E+00
  0.00000000E+00  0.00000000E+00  0.00000000E+00
  0.00000000E+00  0.00000000E+00  0.00000000E+00
  0.00000000E+00  0.00000000E+00  0.00000000E+00
  0.00000000E+00  0.00000000E+00  0.00000000E+00
  0.00000000E+00  0.00000000E+00  0.00000000E+00
  0.00000000E+00  0.00000000E+00  0.00000000E+00
  0.00000000E+00  0.00000000E+00  0.00000000E+00
  0.00000000E+00  0.00000000E+00  0.00000000E+00
  0.00000000E+00  0.00000000E+00  0.00000000E+00
  0.00000000E+00  0.00000000E+00  0.00000000E+00
  0.00000000E+00  0.00000000E+00  0.00000000E+00
  0.00000000E+00  0.00000000E+00  0.00000000E+00
  0.00000000E+00  0.00000000E+00  0.00000000E+00
  0.00000000E+00  0.00000000E+00  0.00000000E+00
  0.00000000E+00  0.00000000E+00  0.00000000E+00
  0.00000000E+00  0.00000000E+00  0.00000000E+00
  0.00000000E+00  0.00000000E+00  0.00000000E+00
  0.00000000E+00  0.00000000E+00  0.00000000E+00
  0.00000000E+00  0.00000000E+00  0.00000000E+00
  0.00000000E+00  0.00000000E+00  0.00000000E+00
  0.00000000E+00  0.00000000E+00  0.00000000E+00
  0.00000000E+00  0.00000000E+00  0.00000000E+00
  0.00000000E+00  0.00000000E+00  0.00000000E+00
  0.00000000E+00  0.00000000E+00  0.00000000E+00
  0.00000000E+00  0.00000000E+00  0.00000000E+00
  0.00000000E+00  0.00000000E+00  0.00000000E+00
  0.00000000E+00  0.00000000E+00  0.00000000E+00
  0.00000000E+00  0.00000000E+00  0.00000000E+00
  0.00000000E+00  0.00000000E+00  0.00000000E+00
  0.00000000E+00  0.00000000E+00  0.00000000E+00
  0.00000000E+00  0.00000000E+00  0.00000000E+00
  0.00000000E+00  0.00000000E+00  0.00000000E+00
  0.00000000E+00  0.00000000E+00  0.00000000E+00
  0.00000000E+00  0.00000000E+00  0.00000000E+00
  0.00000000E+00  0.00000000E+00  0.00000000E+00
  0.00000000E+00  0.00000000E+00  0.00000000E+00
  0.00000000E+00  0.00000000E+00  0.00000000E+00
  0.00000000E+00  0.00000000E+00  0.00000000E+00
  0.00000000E+00  0.00000000E+00  0.00000000E+00
  0.00000000E+00  0.00000000E+00  0.00000000E+00
  0.00000000E+00  0.00000000E+00  0.00000000E+00
  0.00000000E+00  0.00000000E+00  0.00000000E+00
  0.00000000E+00  0.00000000E+00  0.00000000E+00
  0.00000000E+00  0.00000000E+00  0.00000000E+00
  0.00000000E+00  0.00000000E+00  0.00000000E+00
  0.00000000E+00  0.00000000E+00  0.00000000E+00
  0.00000000E+00  0.00000000E+00  0.00000000E+00
  0.00000000E+00  0.00000000E+00  0.00000000E+00
  0.00000000E+00  0.00000000E+00  0.00000000E+00
  0.00000000E+00  0.00000000E+00  0.00000000E+00
  0.00000000E+00  0.00000000E+00  0.00000000E+00
  0.00000000E+00  0.00000000E+00  0.00000000E+00
  0.00000000E+00  0.00000000E+00  0.00000000E+00
  0.00000000E+00  0.00000000E+00  0.00000000E+00
  0.00000000E+00  0.00000000E+00  0.00000000E+00
  0.00000000E+00  0.00000000E+00  0.00000000E+00
  0.00000000E+00  0.00000000E+00  0.00000000E+00
  0.00000000E+00  0.00000000E+00  0.00000000E+00
  0.00000000E+00  0.00000000E+00  0.00000000E+00
  0.00000000E+00  0.00000000E+00  0.00000000E+00
  0.00000000E+00  0.00000000E+00  0.00000000E+00
  0.00000000E+00  0.00000000E+00  0.00000000E+00
  0.00000000E+00  0.00000000E+00  0.00000000E+00
  0.00000000E+00  0.00000000E+00  0.00000000E+00
  0.00000000E+00  0.00000000E+00  0.00000000E+00
  0.00000000E+00  0.00000000E+00  0.00000000E+00
