W48 Se97                                
   1.00000000000000     
    33.0000000000000000    0.0000000000000000    0.0000000000000000
     0.0000000000000000   26.2560005188000005    0.0000000000000000
     0.0000000000000000    0.0000000000000000   18.1299991608000006
   W    Se   O    C 
    48    97     1     1
Direct
  0.2800433333959688  0.0458141338051527  0.5000036136161774
  0.2854072723807834  0.2785022261803539  0.4999962649746932
  0.2808467744653206  0.5448015796542894  0.4999972002625714
  0.2859705584744444  0.7773989417917969  0.4999859929051578
  0.4530107954316683  0.0353412772602505  0.4999872504775035
  0.4539733942864532  0.2857741540310676  0.4999979302135801
  0.4544726362175133  0.5347529261572653  0.4999903669862509
  0.4541693634516146  0.7853464127773867  0.4999812091590974
  0.6257834557490012  0.0356989220751049  0.5000026897218058
  0.6266084278512919  0.2862496799414750  0.4999447955656988
  0.6303851166717164  0.5319939926866903  0.5000313035190289
  0.6261273981106724  0.7851948405364505  0.5000868997672168
  0.2852811154026985  0.1675030542306798  0.4999925769214878
  0.2804675244187692  0.4007945949273032  0.5000016644414110
  0.2860851211673486  0.6668928387130851  0.4999886816725079
  0.2801238769889177  0.8990020499556006  0.5000005218599637
  0.4537515524475866  0.1599970622773431  0.4999859206773853
  0.4540004101865644  0.4100407543118225  0.4999985646290831
  0.4548671932195767  0.6592643243764402  0.4999801047288051
  0.4535118111201179  0.9099605414911878  0.4999932989579701
  0.6260627262137434  0.1607965941289569  0.4999230372628565
  0.6264507630304293  0.4065036620874747  0.4999963608605326
  0.6270564008581039  0.6598949445619446  0.5000670643901307
  0.6268858143661221  0.9105545510336820  0.5000690307349202
  0.3675730722833571  0.2228493680443986  0.4999869323118580
  0.3664889451654185  0.4726472159506815  0.4999943116103247
  0.3683114501596728  0.7223257089199276  0.4999807105677935
  0.3656723294557738  0.9726018466493140  0.4999829652753050
  0.5397460706736494  0.2231974683087792  0.4999904119475626
  0.5422692235137250  0.4723257155841989  0.4999982079587990
  0.5403124056816665  0.7223023437837827  0.5000068295150489
  0.5399830962098429  0.9727474353835275  0.5000144259256715
  0.7071567829494129  0.2149421148244264  0.4997682574237288
  0.7054313234988471  0.4605869752689684  0.5000303462269435
  0.7129269043583172  0.7156550559541569  0.5002106243851300
  0.7140693709251852  0.9660840833156771  0.5000825358894841
  0.3673322645592665  0.0982469000828129  0.4999819745466589
  0.3680101386359491  0.3475021333660397  0.4999967822919216
  0.3685699433851641  0.5978236709497698  0.4999849664039399
  0.3677297970413096  0.8470371242164778  0.4999873597519047
  0.5394261232186336  0.0978781081352167  0.4999962582489469
  0.5406369564977168  0.3474107411139624  0.5000012729072646
  0.5408004385254546  0.5964224629085186  0.4999979736128042
  0.5403259482839100  0.8479565337900391  0.5000159402422082
  0.7123929552933188  0.1068837293351376  0.4998068361396955
  0.6962950261855348  0.3633510218321453  0.4999501893914681
  0.7087324771399438  0.6082548944204170  0.5001443883591452
  0.7141886851001864  0.8558867976444440  0.5001809433252901
  0.2514948906723852  0.1051091618361076  0.5912366391945726
  0.2519516658213530  0.3410944031728335  0.5910410904579377
  0.2524763957569501  0.6044299671863403  0.5911938048501560
  0.2518802904873830  0.8395612063822526  0.5912863633360570
  0.4246057517625335  0.0976735535552848  0.5935564250513670
  0.4252263631547686  0.3480886606861721  0.5937273293756984
  0.4258536279545530  0.5970233548294015  0.5935315652508686
  0.4250493110901484  0.8477036497700976  0.5935181185779305
  0.5969708446203836  0.0977532685549920  0.5929872979406813
  0.5985571929836924  0.3473970500993409  0.5958004074507072
  0.5991776176130547  0.5947317386739271  0.5914078960955672
  0.5980005280154244  0.8478233901177409  0.5931346307086693
  0.4254327705397352  0.2228612596254837  0.5929902103221363
  0.4246617545885977  0.4724873849369371  0.5926423057421917
  0.4262154887945345  0.7221904863959526  0.5929502961442060
  0.4238269892056301  0.9724974366855750  0.5925122974785096
  0.5974328946417532  0.2240056350548627  0.5927141885230208
  0.6013446027697368  0.4704354024192170  0.5943543933880633
  0.5976225616017147  0.7227200960923489  0.5930878909655837
  0.5977669830837421  0.9731230134753812  0.5931319712887122
  0.3363882935079251  0.0352205445640202  0.5929800660329452
  0.3393982539108464  0.2848911498390896  0.5954123535133590
  0.3373197162778376  0.5352027944696466  0.5929014146066847
  0.3397524951194872  0.7841592439774790  0.5955982134188499
  0.5106646669221884  0.0350472897239681  0.5930314308387189
  0.5112792745365879  0.2856760893006836  0.5935746064021443
  0.5123537191505909  0.5339418236754359  0.5931556333715553
  0.5116509754819424  0.7852517121764503  0.5930838976002649
  0.6862837814059770  0.0361691928570375  0.5886203126173540
  0.6884903220637361  0.2865054591782493  0.5906527557273563
  0.6908191024965830  0.5365935119473699  0.5918966846054720
  0.6864868246135352  0.7858173289296586  0.5890184353495388
  0.3390974300205105  0.1610298820803613  0.5955564522713401
  0.3369014151381359  0.4102962470495511  0.5929021944635109
  0.3400535870229997  0.6604051435570966  0.5954599265389480
  0.3364655306260952  0.9099363384864479  0.5929021320516338
  0.5111720901082010  0.1604452102845419  0.5933895836358548
  0.5120618239986618  0.4104214355508795  0.5925398376869544
  0.5123625733791417  0.6593629294695230  0.5933638146366185
  0.5112406678289017  0.9103544229345517  0.5932299592743984
  0.6810051639310165  0.1596100510337751  0.6004503921838208
  0.7357490060298223  0.4066674445056605  0.5988246191743581
  0.6816212831593449  0.6626401440378593  0.6009872107684358
  0.6836164717005289  0.9109204051607489  0.5981270706988338
  0.2514885168640759  0.1051075905998387  0.4087699576398814
  0.2519445311312060  0.3410967631579127  0.4089625723668062
  0.2524745629457143  0.6044239948796393  0.4087918061754143
  0.2518690616958306  0.8395644419529745  0.4087221450511509
  0.4245991322362023  0.0976718478672442  0.4064005275496414
  0.4252257910809755  0.3480901828929018  0.4062720230378732
  0.4258581141351607  0.5970158828823089  0.4064358405916932
  0.4250525021786988  0.8477128675528286  0.4064549397858702
  0.5969482326701537  0.0977020374150617  0.4069727356264556
  0.5985371893024286  0.3474332005266666  0.4041736736331777
  0.5992118633273701  0.5947520903935797  0.4086432644744870
  0.5980430038779174  0.8478020803283136  0.4069775318522758
  0.2259908197029846  0.2232533600737161  0.5000031081368793
  0.2336620099829833  0.4729617826044242  0.5000022102872019
  0.2265407549734085  0.7218966513889740  0.5000010584178413
  0.2344077989985724  0.9723757807511441  0.5000035149124106
  0.4254384140340283  0.2228662407406468  0.4069875891665987
  0.4246599450708415  0.4724863463391449  0.4073466755307386
  0.4262190967517453  0.7221930932059651  0.4070092453606473
  0.4238344348330438  0.9724976624487758  0.4074626443221047
  0.5973938234221120  0.2240128045479803  0.4071955619698889
  0.6013603884115074  0.4704529073236518  0.4056559615277676
  0.5976652330843445  0.7227296053364755  0.4070061818729137
  0.5977764098543975  0.9730682287697021  0.4069416332731351
  0.3363702974858872  0.0352201224878167  0.4069910317322991
  0.3393966465424855  0.2848915674672606  0.4045748688360490
  0.3373150462531171  0.5352003116927687  0.4070864621981891
  0.3397551017477260  0.7841644286076795  0.4043716900407174
  0.5106699733614469  0.0350378190962665  0.4069662465751975
  0.5112768114028389  0.2856833588721504  0.4064223523228924
  0.5123619165790189  0.5339402096731981  0.4068330407547524
  0.5116766287928254  0.7852580322091839  0.4069098117789505
  0.6862682559219049  0.0360430307099006  0.4113262016311078
  0.6884493219868726  0.2865817781176189  0.4090967776611231
  0.6908535445060223  0.5366610124829870  0.4082657262680920
  0.6865676584136226  0.7858064542856750  0.4113233482167209
  0.3390929172396528  0.1610279095468290  0.4044151874285110
  0.3368962914858118  0.4102942290309557  0.4070919245052469
  0.3400502778480657  0.6604019126805029  0.4045118211126444
  0.3364602376575779  0.9099349434125767  0.4070822263701875
  0.5111719749228982  0.1604429048817001  0.4065973941810824
  0.5120619202421353  0.4104202471912077  0.4074619336080587
  0.5123812938719519  0.6593659230631682  0.4066188595415077
  0.5112542764083108  0.9103509068201824  0.4067833718309402
  0.6808785192972936  0.1595833936477193  0.3992052997329648
  0.7357701652030191  0.4067349884264515  0.4011756555216397
  0.6816950879242214  0.6626941165343856  0.3992965463452841
  0.6836530927627362  0.9108555221630472  0.4021005029651507
  0.7750708189968308  0.9109473073382816  0.5000239850184593
  0.7678022452928469  0.7819860031773449  0.5004014826272616
  0.7728085594145537  0.6496354289901131  0.5002096168646838
  0.7714789192842192  0.1733864835363784  0.4990036864465206
  0.7673512991187916  0.0402145636372900  0.5000686397032291
  0.7958433119401476  0.5074734726133542  0.5000078510583262
  0.7627135438385385  0.4930120905298866  0.5000288223456344
 
  0.00000000E+00  0.00000000E+00  0.00000000E+00
  0.00000000E+00  0.00000000E+00  0.00000000E+00
  0.00000000E+00  0.00000000E+00  0.00000000E+00
  0.00000000E+00  0.00000000E+00  0.00000000E+00
  0.00000000E+00  0.00000000E+00  0.00000000E+00
  0.00000000E+00  0.00000000E+00  0.00000000E+00
  0.00000000E+00  0.00000000E+00  0.00000000E+00
  0.00000000E+00  0.00000000E+00  0.00000000E+00
  0.00000000E+00  0.00000000E+00  0.00000000E+00
  0.00000000E+00  0.00000000E+00  0.00000000E+00
  0.00000000E+00  0.00000000E+00  0.00000000E+00
  0.00000000E+00  0.00000000E+00  0.00000000E+00
  0.00000000E+00  0.00000000E+00  0.00000000E+00
  0.00000000E+00  0.00000000E+00  0.00000000E+00
  0.00000000E+00  0.00000000E+00  0.00000000E+00
  0.00000000E+00  0.00000000E+00  0.00000000E+00
  0.00000000E+00  0.00000000E+00  0.00000000E+00
  0.00000000E+00  0.00000000E+00  0.00000000E+00
  0.00000000E+00  0.00000000E+00  0.00000000E+00
  0.00000000E+00  0.00000000E+00  0.00000000E+00
  0.00000000E+00  0.00000000E+00  0.00000000E+00
  0.00000000E+00  0.00000000E+00  0.00000000E+00
  0.00000000E+00  0.00000000E+00  0.00000000E+00
  0.00000000E+00  0.00000000E+00  0.00000000E+00
  0.00000000E+00  0.00000000E+00  0.00000000E+00
  0.00000000E+00  0.00000000E+00  0.00000000E+00
  0.00000000E+00  0.00000000E+00  0.00000000E+00
  0.00000000E+00  0.00000000E+00  0.00000000E+00
  0.00000000E+00  0.00000000E+00  0.00000000E+00
  0.00000000E+00  0.00000000E+00  0.00000000E+00
  0.00000000E+00  0.00000000E+00  0.00000000E+00
  0.00000000E+00  0.00000000E+00  0.00000000E+00
  0.00000000E+00  0.00000000E+00  0.00000000E+00
  0.00000000E+00  0.00000000E+00  0.00000000E+00
  0.00000000E+00  0.00000000E+00  0.00000000E+00
  0.00000000E+00  0.00000000E+00  0.00000000E+00
  0.00000000E+00  0.00000000E+00  0.00000000E+00
  0.00000000E+00  0.00000000E+00  0.00000000E+00
  0.00000000E+00  0.00000000E+00  0.00000000E+00
  0.00000000E+00  0.00000000E+00  0.00000000E+00
  0.00000000E+00  0.00000000E+00  0.00000000E+00
  0.00000000E+00  0.00000000E+00  0.00000000E+00
  0.00000000E+00  0.00000000E+00  0.00000000E+00
  0.00000000E+00  0.00000000E+00  0.00000000E+00
  0.00000000E+00  0.00000000E+00  0.00000000E+00
  0.00000000E+00  0.00000000E+00  0.00000000E+00
  0.00000000E+00  0.00000000E+00  0.00000000E+00
  0.00000000E+00  0.00000000E+00  0.00000000E+00
  0.00000000E+00  0.00000000E+00  0.00000000E+00
  0.00000000E+00  0.00000000E+00  0.00000000E+00
  0.00000000E+00  0.00000000E+00  0.00000000E+00
  0.00000000E+00  0.00000000E+00  0.00000000E+00
  0.00000000E+00  0.00000000E+00  0.00000000E+00
  0.00000000E+00  0.00000000E+00  0.00000000E+00
  0.00000000E+00  0.00000000E+00  0.00000000E+00
  0.00000000E+00  0.00000000E+00  0.00000000E+00
  0.00000000E+00  0.00000000E+00  0.00000000E+00
  0.00000000E+00  0.00000000E+00  0.00000000E+00
  0.00000000E+00  0.00000000E+00  0.00000000E+00
  0.00000000E+00  0.00000000E+00  0.00000000E+00
  0.00000000E+00  0.00000000E+00  0.00000000E+00
  0.00000000E+00  0.00000000E+00  0.00000000E+00
  0.00000000E+00  0.00000000E+00  0.00000000E+00
  0.00000000E+00  0.00000000E+00  0.00000000E+00
  0.00000000E+00  0.00000000E+00  0.00000000E+00
  0.00000000E+00  0.00000000E+00  0.00000000E+00
  0.00000000E+00  0.00000000E+00  0.00000000E+00
  0.00000000E+00  0.00000000E+00  0.00000000E+00
  0.00000000E+00  0.00000000E+00  0.00000000E+00
  0.00000000E+00  0.00000000E+00  0.00000000E+00
  0.00000000E+00  0.00000000E+00  0.00000000E+00
  0.00000000E+00  0.00000000E+00  0.00000000E+00
  0.00000000E+00  0.00000000E+00  0.00000000E+00
  0.00000000E+00  0.00000000E+00  0.00000000E+00
  0.00000000E+00  0.00000000E+00  0.00000000E+00
  0.00000000E+00  0.00000000E+00  0.00000000E+00
  0.00000000E+00  0.00000000E+00  0.00000000E+00
  0.00000000E+00  0.00000000E+00  0.00000000E+00
  0.00000000E+00  0.00000000E+00  0.00000000E+00
  0.00000000E+00  0.00000000E+00  0.00000000E+00
  0.00000000E+00  0.00000000E+00  0.00000000E+00
  0.00000000E+00  0.00000000E+00  0.00000000E+00
  0.00000000E+00  0.00000000E+00  0.00000000E+00
  0.00000000E+00  0.00000000E+00  0.00000000E+00
  0.00000000E+00  0.00000000E+00  0.00000000E+00
  0.00000000E+00  0.00000000E+00  0.00000000E+00
  0.00000000E+00  0.00000000E+00  0.00000000E+00
  0.00000000E+00  0.00000000E+00  0.00000000E+00
  0.00000000E+00  0.00000000E+00  0.00000000E+00
  0.00000000E+00  0.00000000E+00  0.00000000E+00
  0.00000000E+00  0.00000000E+00  0.00000000E+00
  0.00000000E+00  0.00000000E+00  0.00000000E+00
  0.00000000E+00  0.00000000E+00  0.00000000E+00
  0.00000000E+00  0.00000000E+00  0.00000000E+00
  0.00000000E+00  0.00000000E+00  0.00000000E+00
  0.00000000E+00  0.00000000E+00  0.00000000E+00
  0.00000000E+00  0.00000000E+00  0.00000000E+00
  0.00000000E+00  0.00000000E+00  0.00000000E+00
  0.00000000E+00  0.00000000E+00  0.00000000E+00
  0.00000000E+00  0.00000000E+00  0.00000000E+00
  0.00000000E+00  0.00000000E+00  0.00000000E+00
  0.00000000E+00  0.00000000E+00  0.00000000E+00
  0.00000000E+00  0.00000000E+00  0.00000000E+00
  0.00000000E+00  0.00000000E+00  0.00000000E+00
  0.00000000E+00  0.00000000E+00  0.00000000E+00
  0.00000000E+00  0.00000000E+00  0.00000000E+00
  0.00000000E+00  0.00000000E+00  0.00000000E+00
  0.00000000E+00  0.00000000E+00  0.00000000E+00
  0.00000000E+00  0.00000000E+00  0.00000000E+00
  0.00000000E+00  0.00000000E+00  0.00000000E+00
  0.00000000E+00  0.00000000E+00  0.00000000E+00
  0.00000000E+00  0.00000000E+00  0.00000000E+00
  0.00000000E+00  0.00000000E+00  0.00000000E+00
  0.00000000E+00  0.00000000E+00  0.00000000E+00
  0.00000000E+00  0.00000000E+00  0.00000000E+00
  0.00000000E+00  0.00000000E+00  0.00000000E+00
  0.00000000E+00  0.00000000E+00  0.00000000E+00
  0.00000000E+00  0.00000000E+00  0.00000000E+00
  0.00000000E+00  0.00000000E+00  0.00000000E+00
  0.00000000E+00  0.00000000E+00  0.00000000E+00
  0.00000000E+00  0.00000000E+00  0.00000000E+00
  0.00000000E+00  0.00000000E+00  0.00000000E+00
  0.00000000E+00  0.00000000E+00  0.00000000E+00
  0.00000000E+00  0.00000000E+00  0.00000000E+00
  0.00000000E+00  0.00000000E+00  0.00000000E+00
  0.00000000E+00  0.00000000E+00  0.00000000E+00
  0.00000000E+00  0.00000000E+00  0.00000000E+00
  0.00000000E+00  0.00000000E+00  0.00000000E+00
  0.00000000E+00  0.00000000E+00  0.00000000E+00
  0.00000000E+00  0.00000000E+00  0.00000000E+00
  0.00000000E+00  0.00000000E+00  0.00000000E+00
  0.00000000E+00  0.00000000E+00  0.00000000E+00
  0.00000000E+00  0.00000000E+00  0.00000000E+00
  0.00000000E+00  0.00000000E+00  0.00000000E+00
  0.00000000E+00  0.00000000E+00  0.00000000E+00
  0.00000000E+00  0.00000000E+00  0.00000000E+00
  0.00000000E+00  0.00000000E+00  0.00000000E+00
  0.00000000E+00  0.00000000E+00  0.00000000E+00
  0.00000000E+00  0.00000000E+00  0.00000000E+00
  0.00000000E+00  0.00000000E+00  0.00000000E+00
  0.00000000E+00  0.00000000E+00  0.00000000E+00
  0.00000000E+00  0.00000000E+00  0.00000000E+00
  0.00000000E+00  0.00000000E+00  0.00000000E+00
  0.00000000E+00  0.00000000E+00  0.00000000E+00
  0.00000000E+00  0.00000000E+00  0.00000000E+00
  0.00000000E+00  0.00000000E+00  0.00000000E+00
  0.00000000E+00  0.00000000E+00  0.00000000E+00
