W48 Se97
1.0
  33.0000000000         0.0000000000         0.0000000000
   0.0000000000        26.2560005188         0.0000000000
   0.0000000000         0.0000000000        18.1299991608
W Se O C
48 97 1 1
Cartesian
     9.254595570         1.206383668         9.064932862
     9.426186330         7.308523945         9.064990334
     9.255561150        14.310340258         9.065012453
     9.427330770        20.433711924         9.064916364
    14.969712120         0.940543238         9.064913282
    14.997754860         7.517589712         9.064867775
    14.975270310        14.052409185         9.064923978
    14.984135430        20.630906303         9.064936125
    20.669223630         0.940847545         9.064945553
    20.714402940         7.554479918         9.064874121
    20.707530690        13.999984092         9.064958788
    20.667286860        20.607944380         9.065019523
     9.430989150         4.411161947         9.064984532
     9.252389520        10.525961030         9.064864512
     9.423561510        17.525718609         9.065041098
     9.250455060        23.639535192         9.065011184
    14.997089580         4.217677541         9.064950992
    14.976314760        10.772903703         9.064897690
    14.991715200        17.322594838         9.064948998
    14.976187050        23.902032971         9.064922165
    20.685609450         4.239830779         9.064922890
    20.712639420        10.778060119         9.064965677
    20.678706180        17.308660253         9.065009008
    20.700486510        23.902850845         9.065062129
    12.148837470         5.862815257         9.064914732
    12.083595150        12.417282620         9.064925247
    12.142784610        18.979481063         9.065032758
    12.082662570        25.550208768         9.064963502
    17.837340840         5.881139319         9.064899865
    17.852321190        12.401797619         9.064919627
    17.823015210        18.970087979         9.064878291
    17.835087270        25.546427379         9.064972204
    23.359565130         5.646142601         9.064831515
    23.076025170        12.034276101         9.064921077
    23.524945290        18.739426126         9.065478575
    23.578826370        25.349740003         9.065177254
    12.144884730         2.595467878         9.064907299
    12.145893870         9.130334612         9.064903310
    12.146476650        15.707968695         9.065035659
    12.138758610        22.253963510         9.065041642
    17.822809950         2.581731789         9.064973473
    17.859638280         9.155984887         9.064884999
    17.826953100        15.671185614         9.064898959
    17.836840890        22.266637019         9.064892795
    23.528809590         2.802129646         9.064977099
    23.081046450         9.518508050         9.064849827
    23.349121290        15.896576312         9.065179249
    23.578770930        22.447770340         9.065513928
     8.317030260         2.767637926        10.717401788
     8.317254000         8.954576945        10.714151986
     8.318775630        15.879762232        10.715991637
     8.313716400        22.075017576        10.716237117
    14.035255740         2.579547290        10.760358464
    14.033375070         9.145208374        10.764082548
    14.034570000        15.689070676        10.762202285
    14.029338840        22.270546800        10.760963100
    19.721908140         2.577533979        10.748703232
    19.792803360         9.172577366        10.787158410
    19.733115600        15.640668264        10.742098473
    19.742299170        22.256553664        10.751136459
    14.058510840         5.866020327        10.751699939
    14.000803740        12.412080519        10.744528618
    14.052036900        18.977064986        10.751166011
    14.002133310        25.546967465        10.741889978
    19.742971710         5.911017335        10.741608057
    19.785687900        12.383254318        10.785588715
    19.719890850        18.972195286        10.749398880
    19.742463510        25.551172626        10.751398800
    11.119427550         0.941968939        10.747814137
    11.206395420         7.485405107        10.795350813
    11.117878860        14.060925319        10.749526515
    11.205168480        20.605096130        10.796912894
    16.872432390         0.930241171        10.751431978
    16.897177110         7.523153359        10.757376080
    16.878667080        14.030946480        10.755393020
    16.882536330        20.624728004        10.752764533
    22.664469630         0.940973574        10.670761278
    22.759888140         7.532514148        10.718342010
    22.750200990        14.014551446        10.721559178
    22.662692250        20.601528202        10.670467390
    11.207887680         4.240188911        10.797861999
    11.113647930        10.777017493        10.749148142
    11.205159900        17.353981786        10.794610203
    11.112831510        23.906843858        10.749023952
    16.893930240         4.228650449        10.756660488
    16.883026380        10.779121387        10.751352750
    16.888220910        17.324424093        10.756587425
    16.882532040        23.908064236        10.754286728
    22.494217680         4.192677365        10.888634917
    24.289689930        10.775506723        10.831288641
    22.486744500        17.351968476        10.888665556
    22.574691810        23.899426012        10.841060348
     8.317092960         2.767711180         7.412646867
     8.317389960         8.954383963         7.415725704
     8.318827110        15.879535905         7.413907809
     8.313858300        22.075442661         7.413583826
    14.035294680         2.579519983         7.369636708
    14.033385960         9.145209162         7.365833940
    14.034617190        15.689172550         7.367776207
    14.029420020        22.270541024         7.369142847
    19.721860620         2.577410576         7.381276530
    19.792747920         9.172577104         7.342770769
    19.733151240        15.640713950         7.387955440
    19.742323260        22.256586747         7.378956071
     7.464532680         5.859708647         9.064983445
     7.703765190        12.418768710         9.064923072
     7.465055070        18.979305673         9.063450916
     7.725128400        25.552598064         9.064654748
    14.058535260         5.865937358         7.378255891
    14.000870400        12.412182917         7.385372459
    14.052052410        18.977107521         7.378933046
    14.002262670        25.546964051         7.388171187
    19.742913630         5.910993442         7.388259480
    19.785679320        12.383228062         7.344429663
    19.719964770        18.972240971         7.380675158
    19.742410380        25.551005375         7.378733797
    11.119521930         0.941926929         7.382071168
    11.206392780         7.485352070         7.334562774
    11.117828040        14.061048985         7.380573267
    11.205177390        20.605259179         7.333211545
    16.872616200         0.930137723         7.378679045
    16.897205490         7.523115812         7.372429997
    16.878704700        14.030957245         7.374514947
    16.882565700        20.624859284         7.377206889
    22.664411220         0.940831529         7.459320737
    22.759779570         7.532496556         7.411291287
    22.750169970        14.014717909         7.408511596
    22.663335420        20.601556033         7.460178830
    11.207971500         4.240145588         7.332061559
    11.113748250        10.777106764         7.380575624
    11.205104790        17.353987037         7.335577510
    11.112935460        23.906826791         7.381123150
    16.893925290         4.228571943         7.373369493
    16.882979520        10.779166022         7.378480340
    16.888202100        17.324507587         7.373405209
    16.882538310        23.908054522         7.375749962
    22.494186000         4.192502763         7.241247306
    24.289306470        10.775533504         7.298195990
    22.486961310        17.352098443         7.241814049
    22.574851530        23.899246421         7.289498123
    25.588633290        23.898558777         9.064999218
    25.336123230        20.488091252         9.068140603
    25.472552490        16.979254046         9.065082978
    25.479345540         4.551878882         9.064598545
    25.336656510         1.047706054         9.064969122
    26.159000000        12.635000000         9.065000000
    25.009000000        12.635000000         9.065000000
