CO2                                     
   1.00000000000000     
    20.0000000000000000    0.0000000000000000    0.0000000000000000
     0.0000000000000000   20.0000000000000000    0.0000000000000000
     0.0000000000000000    0.0000000000000000   20.0000000000000000
   C    O 
     1     1
Direct
  0.5000000000200302  0.4994153829690546  0.5000000000648939
  0.4999999999799698  0.5565846170309428  0.4999999999351061
 
  0.00000000E+00  0.00000000E+00  0.00000000E+00
  0.00000000E+00  0.00000000E+00  0.00000000E+00
