Mo1 S2                                  
   1.00000000000000     
    19.1418952942000011    0.0000000000000000    0.0000000000000000
    -9.5709489007999995   16.5773646751000001    0.0000000000000000
     0.0000000000000000    0.0000000000000000   23.1298294067000008
   Mo   S    O    C 
    36    69     1     1
Direct
  0.1123608349216489  0.0562492204624921  0.4985564717776269
  0.1127922722272043  0.2230882475600723  0.4991860371050141
  0.1123923337916865  0.3888374480740311  0.5002073062692888
  0.1116529592033448  0.5550337164461903  0.5009074841618161
  0.1114664304218642  0.7219399752515714  0.5002621638871378
  0.1118227663571551  0.8889182333414363  0.4989295627780054
  0.2796343145261917  0.0573427642253126  0.4989250437345059
  0.2805027284703445  0.2255885040633126  0.5009725185785725
  0.2812010134116553  0.3903746119327788  0.5038949258404122
  0.2794918170445564  0.5542049703868085  0.5024190120829336
  0.2787624470677735  0.7219460156106424  0.5002165826543252
  0.2788856973650197  0.8894571096415494  0.4991059044884921
  0.4460563124091879  0.0573436061540963  0.4990002454572171
  0.4472125864835457  0.2260871922221018  0.5001363414855237
  0.4454316521210483  0.3909871706227855  0.5047782939793375
  0.4443062726225781  0.5517369854314211  0.5055135114942606
  0.4452112258948497  0.7207905969523816  0.5003751286722752
  0.4454100550673730  0.8889193697331583  0.4989647534885002
  0.6122156258721594  0.0562580532645028  0.4987177995555103
  0.6134044626915510  0.2255748753261120  0.5011528965983530
  0.6138950722432406  0.3909961996726525  0.5048841834544116
  0.6100116362334712  0.5517365729586511  0.5057783566009838
  0.6106190517007583  0.7193498399602525  0.5003256659060734
  0.6116642502583934  0.8880563853100701  0.4985268279226138
  0.7783763722024619  0.0552973503557926  0.4979713133642618
  0.7785981963444534  0.2230853990455998  0.4993892273309023
  0.7774470243056413  0.3903504245860258  0.5041401018192780
  0.7757072502892395  0.5517268110205473  0.5056686911991816
  0.7770232375026757  0.7193454965324266  0.5003633923549751
  0.7777924351609354  0.8872916431443240  0.4981807049786643
  0.9452255523674529  0.0552994754924439  0.4978809749231603
  0.9452275373221893  0.2221718443179925  0.4986091524087246
  0.9446989159629429  0.3888322139094886  0.5003295415123539
  0.9429716797283597  0.5541878913921702  0.5025857554748178
  0.9438756393978087  0.7207921042169231  0.5004561106671158
  0.9446843694278333  0.8880487993695039  0.4984788525205180
  0.0576132037589403  0.1123074187247726  0.4311914080672778
  0.0574262035997188  0.2788971342809445  0.4319429768639463
  0.0564816810810896  0.4448303780520895  0.4331567005174628
  0.0540942040692397  0.6095288799927817  0.4343081187567378
  0.0549420163435830  0.7760237500218645  0.4326691109689895
  0.0564712659706576  0.9443143266792140  0.4314245577145490
  0.2251282409695075  0.1145785928710221  0.4324011505330002
  0.2283802098826332  0.2834740314045122  0.4339695425839616
  0.2275798741404112  0.4448750173226988  0.4348782046315351
  0.2236417085417886  0.6095679447628167  0.4342230266646474
  0.2225774776948483  0.7769073780456887  0.4327527124700674
  0.2235099181208864  0.9453133087972592  0.4318397658306751
  0.3916904890718645  0.1149428735032246  0.4321936947812713
  0.3925606675427806  0.2863591415458386  0.4344832174175884
  0.3900851757406459  0.6050019276122266  0.4357119329757450
  0.3894028869043555  0.7760885893748036  0.4326342158325323
  0.3901757396442107  0.9453529264934897  0.4318820811044828
  0.5578642157840915  0.1146177976874950  0.4325511229143417
  0.5622393975023635  0.2863830148399393  0.4345902083678866
  0.5516713201439198  0.6013809369023213  0.4364061907262202
  0.5553676495187758  0.7748446197348141  0.4324262336952773
  0.5562018797486618  0.9444082205804576  0.4315136936479387
  0.7230058589153953  0.1123610420163056  0.4313617402044508
  0.7234283088196354  0.2834836734040872  0.4342037154037999
  0.7180415686325532  0.6013457230222033  0.4364803960290435
  0.7208728591319151  0.7734028939438257  0.4322259910015042
  0.7223639587421176  0.9432423314011732  0.4309143070740921
  0.8897516013459316  0.1113107711449206  0.4307917303511474
  0.8896527352821176  0.2789068059585484  0.4320663955149029
  0.8854768896530122  0.4448494007788598  0.4350776129502680
  0.8831651977085616  0.6049377810419335  0.4358677682075231
  0.8877552035354146  0.7747631737499692  0.4324511720814356
  0.8891190713799491  0.9431987391827552  0.4308645508111831
  0.0559058497367297  0.1108610423905955  0.5656021949171202
  0.0556967924583112  0.2768238667283748  0.5663669398177946
  0.0559446131505877  0.4435062392331707  0.5676405046534090
  0.0565606870133398  0.6113231783733881  0.5682319646781259
  0.0562728411385123  0.7784201997248557  0.5669417635957138
  0.0561057308604748  0.9446917520081318  0.5656880893364886
  0.2231465000926587  0.1117150585422494  0.5663485112179419
  0.2221758932517005  0.2781113875571236  0.5686874293899156
  0.2219633991068676  0.4426284926008368  0.5695750181213983
  0.2231032075259147  0.6113067658433259  0.5681511691278355
  0.2235167788816176  0.7787082733842894  0.5669369744153889
  0.2234499854008670  0.9455244644380869  0.5659833552640243
  0.3905980414077019  0.1129332706477439  0.5662595589239571
  0.3909030815345719  0.2791468474707113  0.5693653411772729
  0.3888639420293160  0.4433567564042594  0.5720798888294562
  0.3908051582172919  0.6115440719002978  0.5700561578886626
  0.3904302808144653  0.7783393320371417  0.5669063825657639
  0.3903463892379485  0.9454729250737900  0.5660231812418001
  0.5568282356601789  0.1116621810710007  0.5665064524627670
  0.5564738813390797  0.2791379734841591  0.5694631039385117
  0.5547817402721612  0.4413467318968485  0.5729498023514015
  0.5554446215379254  0.6115155784766296  0.5712601574309953
  0.5568962349378552  0.7777980361811324  0.5666119244062742
  0.5568515373788263  0.9446156825960020  0.5657781965010066
  0.7232910277481144  0.1108128479018503  0.5657706408533173
  0.7242046347493764  0.2780603698669667  0.5689178646144447
  0.7227359612264814  0.4433701103881226  0.5722720990553981
  0.7242949410816248  0.6115418682393590  0.5713336421596724
  0.7227605211428998  0.7772490406416531  0.5665217957915715
  0.7231176381043654  0.9440017282619523  0.5652598219216952
  0.8893740439691810  0.1103420075642486  0.5652410480264881
  0.8895188960496614  0.2768135286818758  0.5664878529366373
  0.8889874099636601  0.4426256615354420  0.5697772184095741
  0.8890517790944009  0.6116090629448474  0.5702035398601141
  0.8892088442811866  0.7778690267514982  0.5666341451008271
  0.8892281807311144  0.9440511753722249  0.5652038340967014
  0.5556615266573429  0.4429143740486934  0.3953154181271570
  0.5557589553072653  0.4431379992626918  0.4477265751709620
 
  0.00000000E+00  0.00000000E+00  0.00000000E+00
  0.00000000E+00  0.00000000E+00  0.00000000E+00
  0.00000000E+00  0.00000000E+00  0.00000000E+00
  0.00000000E+00  0.00000000E+00  0.00000000E+00
  0.00000000E+00  0.00000000E+00  0.00000000E+00
  0.00000000E+00  0.00000000E+00  0.00000000E+00
  0.00000000E+00  0.00000000E+00  0.00000000E+00
  0.00000000E+00  0.00000000E+00  0.00000000E+00
  0.00000000E+00  0.00000000E+00  0.00000000E+00
  0.00000000E+00  0.00000000E+00  0.00000000E+00
  0.00000000E+00  0.00000000E+00  0.00000000E+00
  0.00000000E+00  0.00000000E+00  0.00000000E+00
  0.00000000E+00  0.00000000E+00  0.00000000E+00
  0.00000000E+00  0.00000000E+00  0.00000000E+00
  0.00000000E+00  0.00000000E+00  0.00000000E+00
  0.00000000E+00  0.00000000E+00  0.00000000E+00
  0.00000000E+00  0.00000000E+00  0.00000000E+00
  0.00000000E+00  0.00000000E+00  0.00000000E+00
  0.00000000E+00  0.00000000E+00  0.00000000E+00
  0.00000000E+00  0.00000000E+00  0.00000000E+00
  0.00000000E+00  0.00000000E+00  0.00000000E+00
  0.00000000E+00  0.00000000E+00  0.00000000E+00
  0.00000000E+00  0.00000000E+00  0.00000000E+00
  0.00000000E+00  0.00000000E+00  0.00000000E+00
  0.00000000E+00  0.00000000E+00  0.00000000E+00
  0.00000000E+00  0.00000000E+00  0.00000000E+00
  0.00000000E+00  0.00000000E+00  0.00000000E+00
  0.00000000E+00  0.00000000E+00  0.00000000E+00
  0.00000000E+00  0.00000000E+00  0.00000000E+00
  0.00000000E+00  0.00000000E+00  0.00000000E+00
  0.00000000E+00  0.00000000E+00  0.00000000E+00
  0.00000000E+00  0.00000000E+00  0.00000000E+00
  0.00000000E+00  0.00000000E+00  0.00000000E+00
  0.00000000E+00  0.00000000E+00  0.00000000E+00
  0.00000000E+00  0.00000000E+00  0.00000000E+00
  0.00000000E+00  0.00000000E+00  0.00000000E+00
  0.00000000E+00  0.00000000E+00  0.00000000E+00
  0.00000000E+00  0.00000000E+00  0.00000000E+00
  0.00000000E+00  0.00000000E+00  0.00000000E+00
  0.00000000E+00  0.00000000E+00  0.00000000E+00
  0.00000000E+00  0.00000000E+00  0.00000000E+00
  0.00000000E+00  0.00000000E+00  0.00000000E+00
  0.00000000E+00  0.00000000E+00  0.00000000E+00
  0.00000000E+00  0.00000000E+00  0.00000000E+00
  0.00000000E+00  0.00000000E+00  0.00000000E+00
  0.00000000E+00  0.00000000E+00  0.00000000E+00
  0.00000000E+00  0.00000000E+00  0.00000000E+00
  0.00000000E+00  0.00000000E+00  0.00000000E+00
  0.00000000E+00  0.00000000E+00  0.00000000E+00
  0.00000000E+00  0.00000000E+00  0.00000000E+00
  0.00000000E+00  0.00000000E+00  0.00000000E+00
  0.00000000E+00  0.00000000E+00  0.00000000E+00
  0.00000000E+00  0.00000000E+00  0.00000000E+00
  0.00000000E+00  0.00000000E+00  0.00000000E+00
  0.00000000E+00  0.00000000E+00  0.00000000E+00
  0.00000000E+00  0.00000000E+00  0.00000000E+00
  0.00000000E+00  0.00000000E+00  0.00000000E+00
  0.00000000E+00  0.00000000E+00  0.00000000E+00
  0.00000000E+00  0.00000000E+00  0.00000000E+00
  0.00000000E+00  0.00000000E+00  0.00000000E+00
  0.00000000E+00  0.00000000E+00  0.00000000E+00
  0.00000000E+00  0.00000000E+00  0.00000000E+00
  0.00000000E+00  0.00000000E+00  0.00000000E+00
  0.00000000E+00  0.00000000E+00  0.00000000E+00
  0.00000000E+00  0.00000000E+00  0.00000000E+00
  0.00000000E+00  0.00000000E+00  0.00000000E+00
  0.00000000E+00  0.00000000E+00  0.00000000E+00
  0.00000000E+00  0.00000000E+00  0.00000000E+00
  0.00000000E+00  0.00000000E+00  0.00000000E+00
  0.00000000E+00  0.00000000E+00  0.00000000E+00
  0.00000000E+00  0.00000000E+00  0.00000000E+00
  0.00000000E+00  0.00000000E+00  0.00000000E+00
  0.00000000E+00  0.00000000E+00  0.00000000E+00
  0.00000000E+00  0.00000000E+00  0.00000000E+00
  0.00000000E+00  0.00000000E+00  0.00000000E+00
  0.00000000E+00  0.00000000E+00  0.00000000E+00
  0.00000000E+00  0.00000000E+00  0.00000000E+00
  0.00000000E+00  0.00000000E+00  0.00000000E+00
  0.00000000E+00  0.00000000E+00  0.00000000E+00
  0.00000000E+00  0.00000000E+00  0.00000000E+00
  0.00000000E+00  0.00000000E+00  0.00000000E+00
  0.00000000E+00  0.00000000E+00  0.00000000E+00
  0.00000000E+00  0.00000000E+00  0.00000000E+00
  0.00000000E+00  0.00000000E+00  0.00000000E+00
  0.00000000E+00  0.00000000E+00  0.00000000E+00
  0.00000000E+00  0.00000000E+00  0.00000000E+00
  0.00000000E+00  0.00000000E+00  0.00000000E+00
  0.00000000E+00  0.00000000E+00  0.00000000E+00
  0.00000000E+00  0.00000000E+00  0.00000000E+00
  0.00000000E+00  0.00000000E+00  0.00000000E+00
  0.00000000E+00  0.00000000E+00  0.00000000E+00
  0.00000000E+00  0.00000000E+00  0.00000000E+00
  0.00000000E+00  0.00000000E+00  0.00000000E+00
  0.00000000E+00  0.00000000E+00  0.00000000E+00
  0.00000000E+00  0.00000000E+00  0.00000000E+00
  0.00000000E+00  0.00000000E+00  0.00000000E+00
  0.00000000E+00  0.00000000E+00  0.00000000E+00
  0.00000000E+00  0.00000000E+00  0.00000000E+00
  0.00000000E+00  0.00000000E+00  0.00000000E+00
  0.00000000E+00  0.00000000E+00  0.00000000E+00
  0.00000000E+00  0.00000000E+00  0.00000000E+00
  0.00000000E+00  0.00000000E+00  0.00000000E+00
  0.00000000E+00  0.00000000E+00  0.00000000E+00
  0.00000000E+00  0.00000000E+00  0.00000000E+00
  0.00000000E+00  0.00000000E+00  0.00000000E+00
  0.00000000E+00  0.00000000E+00  0.00000000E+00
  0.00000000E+00  0.00000000E+00  0.00000000E+00
