Mo1 S2                                  
1.0
       19.1418952942         0.0000000000         0.0000000000
       -9.5709489008        16.5773646751         0.0000000000
        0.0000000000         0.0000000000        23.1298294067
   Mo    S    O    C
   36   69    1    1
Cartesian
     1.612493576         0.925265402        11.515935571
     0.023453776         3.695854289        11.497415576
    -1.597309614         6.450550244        11.545587736
    -3.190390260         9.209008631        11.597277104
    -4.786520838        11.969893605        11.598698667
    -6.373232479        14.731309654        11.555328572
     4.809093601         0.941048179        11.571165961
     3.222528097         3.719246356        11.538097255
     1.597856843         6.486313887        11.499536446
     0.007548581         9.214436162        11.575618887
    -1.588500675        11.978730609        11.591310841
    -3.179011630        14.746467424        11.585256002
     7.999233932         0.945328527        11.605890938
     6.427691548         3.722289298        11.660892865
     5.000267736         6.434960126        11.642098358
     3.184407451         9.185539242        11.557297211
     1.607385809        11.978647082        11.573242868
     0.014852742        14.746022758        11.583987844
    11.182520329         0.940056609        11.580286591
     9.592353113         3.750475603        11.658271920
     8.024947011         6.513253193        11.796942725
     6.417529011         9.104058321        11.712821748
     4.806072288        11.944820334        11.564382836
     3.207693588        14.731317443        11.552467571
    14.373160192         0.919020222        11.534346745
    12.772500565         3.700774327        11.586064752
    11.148352297         6.478848058        11.713936108
     9.566952703         9.112557660        11.746737079
     7.981927138        11.899606317        11.563590293
     6.398962147        14.709316443        11.523752361
    17.564445558         0.914748273        11.505910901
    15.965974918         3.682303900        11.532161974
    14.354014231         6.446977764        11.596757610
    12.740449824         9.188049153        11.662097466
    11.157106971        11.939713543        11.592726269
     9.578615239        14.711274020        11.523822030
     0.023023790         1.841757452         9.948495856
    -1.596168544         4.620669153         9.967015319
    -3.220327841         7.384083014        10.023191724
    -4.821430385        10.109818772        10.070136828
    -6.382839693        12.856384546        10.028057927
    -7.953203044        15.637121943         9.975410848
     3.237366596         1.862227768         9.987544872
     1.645548495         4.642176510         9.956737716
    -0.034653433         7.396142655         9.987336628
    -1.601485896        10.139621431        10.034117901
    -3.189801414        12.893601756        10.039577437
    -4.760235950        15.667192081        10.017062252
     6.430251659         1.900743524        10.059409437
     4.916818101         4.629494356        10.066677430
     1.601732374        10.154194747        10.022063351
     0.001101044        12.903943414        10.029754117
    -1.579843304        15.683716218        10.039154125
     9.576927012         1.916757897        10.065560058
     8.009033023         4.817567504        10.153609718
     4.865886315        10.030301108        10.081970190
     3.206903568        12.875017112        10.006598559
     1.597918085        15.673186025        10.018415727
    12.754268215         1.868476549        10.009774353
    11.125862657         4.705409433        10.095129364
     7.997818986         9.838501116        10.106854362
     6.402039575        12.827184043         9.991228073
     4.792073253        15.643683061         9.980631249
    15.955173138         1.843549292         9.965245369
    14.343271261         4.626735984        10.012849668
    12.676528447         7.377153919        10.099996595
    11.103446670        10.006057114        10.117855290
     9.576722206        12.819978449        10.001843543
     7.989525202        15.629624138         9.959693036
     0.014972082         1.851905165        13.056423867
    -1.565727633         4.589664573        13.077139679
    -3.167828320         7.354529420        13.137073124
    -4.768714046        10.137776303        13.171210666
    -6.390541249        12.904657921        13.133229048
    -7.982016403        15.663225068        13.081102494
     3.182681923         1.866175840        13.087368411
     1.596417236         4.646132439        13.054008295
     0.026722129         7.342893341        13.097519231
    -1.581214888        10.130942888        13.144370264
    -3.184486607        12.905410441        13.146048598
    -4.790583796        15.668541331        13.122221429
     6.392082396         1.836635499        13.165815710
     4.777570444         4.600531785        13.181462584
     3.251328420         7.312706952        13.038592913
     1.623800324        10.122400255        13.123878502
     0.018494068        12.899577381        13.139285625
    -1.579027439        15.662542845        13.145352567
     9.604052052         1.853016009        13.162894654
     8.011770125         4.644333264        13.269012485
     6.430778068         7.352897948        13.316563926
     4.762861907        10.114001384        13.153002072
     3.217807623        12.894322217        13.117070518
     1.627363254        15.661104727        13.124763318
    12.801498333         1.837551826        13.118945008
    11.222025010         4.611334741        13.208895058
     9.616234069         7.341991175        13.328765197
     7.969702243        10.129470650        13.225905649
     6.403186164        12.876511148        13.095542357
     4.819736828        15.648869604        13.087681476
    15.983069799         1.830758872        13.076342207
    14.395323563         4.586615935        13.123275206
    12.792521426         7.339386502        13.219929329
    11.158596845        10.143292298        13.224748849
     9.553142673        12.886053966        13.102966742
     7.990715839        15.651015025        13.068037931
     6.430778068         7.352897948         8.699309065
     6.430778068         7.352897948         9.849309065
