Mo36 H4 C1 S69 O1                       
   1.00000000000000     
    19.1418952942000011    0.0000000000000000    0.0000000000000000
    -9.5709489007999995   16.5773646751000001    0.0000000000000000
     0.0000000000000000    0.0000000000000000   23.1298294067000008
   Mo   S    O    C    H 
    36    69     1     1     4
Direct
  0.1138933157020696  0.0570403188297997  0.4978656665346059
  0.1140405999997496  0.2235480847402222  0.4982096012752158
  0.1134716094310055  0.3889840869168991  0.4995223499763056
  0.1126463072729130  0.5551390179268849  0.5005442983544012
  0.1124324440544815  0.7221049000561620  0.5002074034490757
  0.1128689502770600  0.8892256965359971  0.4987844567986510
  0.2805747431613841  0.0575359538026130  0.4984871048453118
  0.2824871061326339  0.2270427596540232  0.4997947926227646
  0.2828347306785977  0.3912379946802199  0.5033543450145241
  0.2805436752215110  0.5541915559917379  0.5025529588413099
  0.2797123189753165  0.7218168037858653  0.5002335218857299
  0.2797336195090910  0.8893717208590485  0.4989678766372234
  0.4467047112086286  0.0568549961530079  0.4985246440463835
  0.4472551627026130  0.2259456702179167  0.4996609344061383
  0.4492715459468029  0.3948761013182152  0.5048781626699987
  0.4450440841446110  0.5501932607740411  0.5065415538232491
  0.4462659676306385  0.7202193736680781  0.5004022464400135
  0.4462401912717887  0.8884362278708470  0.4986094548165027
  0.6129304210522785  0.0555533616594389  0.4977414305286644
  0.6138115592589939  0.2236872930290668  0.4994024039749790
  0.6157732440203993  0.3930747574417705  0.4989414465976012
  0.6106724751324933  0.5508193973319020  0.5077869830256507
  0.6111678736366710  0.7180605963284511  0.5002187567949536
  0.6124693243318403  0.8873567319839097  0.4978747295792847
  0.7792803691579643  0.0552509416887876  0.4969295565163419
  0.7795450722946314  0.2230886898003634  0.4977990660446074
  0.7793990079643971  0.3914407717740555  0.5020264287272086
  0.7773667873940879  0.5526481305508656  0.5058922707949269
  0.7783931434716009  0.7208970374275357  0.5012666670959797
  0.7785850792444615  0.8874048330840837  0.4978036575842707
  0.9463473254497821  0.0555908808909183  0.4971081538002666
  0.9462694848718853  0.2223192695357927  0.4974540291116935
  0.9456596013582308  0.3890209024059433  0.4991407960331277
  0.9439345289796591  0.5544874644748713  0.5020235400308759
  0.9447564391069906  0.7210240092296081  0.5005808904690214
  0.9460363751386632  0.8885821863337547  0.4983818098748103
  0.0587978880905056  0.1125683722406700  0.4303812377991684
  0.0587332042525610  0.2793376890768409  0.4309871175040451
  0.0579239052434441  0.4453231170883316  0.4324354106666239
  0.0553418853727492  0.6100309680695241  0.4340420859724660
  0.0556762658283377  0.7761186580913466  0.4327276250181242
  0.0576441090204396  0.9445897658904893  0.4311458780340492
  0.2267843065159096  0.1153580543823972  0.4316967616179631
  0.2299337387545477  0.2844749010913226  0.4331438814250437
  0.2289621800415706  0.4456320111754862  0.4345112207032962
  0.2249261494827130  0.6096361210919967  0.4341851862606932
  0.2235096966728764  0.7767988294668128  0.4327381520100571
  0.2243300860687335  0.9452164498249142  0.4316420703093723
  0.3918753000452790  0.1143663451203391  0.4317508432488082
  0.3974864339673777  0.2913525534607074  0.4343481543176506
  0.3914747641273833  0.6040213698250694  0.4362604302580402
  0.3902351679178413  0.7753437619258003  0.4325859557229496
  0.3906932376608962  0.9447247973298514  0.4315735971138820
  0.5577818737160688  0.1125665558543306  0.4313541786446792
  0.5579112634819083  0.2796079150044404  0.4341658738851293
  0.5503096388041285  0.5945268400169754  0.4369178108181469
  0.5559549102641028  0.7733360974436212  0.4321235234597685
  0.5566940544142476  0.9433061633341754  0.4308483587380198
  0.7237027960626838  0.1118072480299843  0.4301439874135730
  0.7241400736099927  0.2832992449893849  0.4324617016216246
  0.7183461845652095  0.6029294237108300  0.4385905194943517
  0.7215348887704378  0.7730535821828323  0.4322750659397360
  0.7231252733046050  0.9427531259165230  0.4301860620927195
  0.8907971711871843  0.1112206432849150  0.4297954760388518
  0.8908987144439965  0.2790815747895244  0.4307533355891732
  0.8875486934426431  0.4462068980714870  0.4334808394817061
  0.8839967211776369  0.6054303434542204  0.4354931089308220
  0.8885477394849847  0.7750033344956276  0.4327599246056609
  0.8901082680790677  0.9430607390286173  0.4305036253694363
  0.0571952677425706  0.1115154913670418  0.5647608413709231
  0.0565349630484038  0.2767831780736300  0.5654195398086070
  0.0564619263838376  0.4432048361705381  0.5668645011526686
  0.0573030091900986  0.6111891285428716  0.5679138690151441
  0.0573698680040712  0.7787554475246148  0.5668937548284241
  0.0577518595976353  0.9458047680523805  0.5653540175149498
  0.2249418067896297  0.1132103489521404  0.5654808634325207
  0.2235225252735571  0.2783640577876386  0.5676308187529355
  0.2226925178137874  0.4421757217687355  0.5692777345613955
  0.2237859243681839  0.6111681001104100  0.5681138249932194
  0.2244563004579894  0.7787181636603512  0.5669051921835531
  0.2245091243285890  0.9458980385264149  0.5657517288697901
  0.3916422972854203  0.1131235161015549  0.5658305823259172
  0.3931272248308461  0.2818921879320385  0.5685035135056197
  0.3896332809903104  0.4414815402564380  0.5727885838934894
  0.3916001943612729  0.6112314960492962  0.5704753007661573
  0.3915329241072005  0.7781653536017484  0.5667867284261973
  0.3913600513476169  0.9452721432390008  0.5657016018450324
  0.5578661532538264  0.1113218241457066  0.5656224148144247
  0.5594877283343938  0.2817461087119365  0.5662229648727347
  0.5582217567032650  0.4391508770812660  0.5702422665525708
  0.5573671394109748  0.6110223014067455  0.5722422369973649
  0.5581079814101790  0.7773433740945653  0.5662263902337764
  0.5579916064827374  0.9442865485946788  0.5651100397914111
  0.7243792972825491  0.1111272620339564  0.5645109428933159
  0.7249489406543492  0.2782475259724723  0.5668542427936568
  0.7204401843058257  0.4409708255451921  0.5690479350943752
  0.7250964246440343  0.6123927039823960  0.5721673158383762
  0.7231187524251403  0.7779209175646229  0.5665849883561845
  0.7239982737935104  0.9443346466003592  0.5645567906271691
  0.8903045296909157  0.1106490903331768  0.5642251764285393
  0.8901872300182980  0.2768200893806798  0.5650817400542560
  0.8894393431723914  0.4422562830307061  0.5686640932994815
  0.8901580605861791  0.6115593828893796  0.5703087068350676
  0.8910213068493817  0.7789840882959352  0.5670582468553086
  0.8903133189989020  0.9447073837913457  0.5647405275804463
  0.6555246275939107  0.4421065528153355  0.4013560171134522
  0.6044842704796525  0.4369976294843298  0.3532455502141546
  0.5626430244370146  0.3739108244997093  0.3413593998880804
  0.6933779660092479  0.4246184607275307  0.3895221373841143
  0.6426972569500149  0.4704097671798742  0.3163488738014005
  0.5704613345430291  0.4656710837626832  0.3680407851828988
 
  0.00000000E+00  0.00000000E+00  0.00000000E+00
  0.00000000E+00  0.00000000E+00  0.00000000E+00
  0.00000000E+00  0.00000000E+00  0.00000000E+00
  0.00000000E+00  0.00000000E+00  0.00000000E+00
  0.00000000E+00  0.00000000E+00  0.00000000E+00
  0.00000000E+00  0.00000000E+00  0.00000000E+00
  0.00000000E+00  0.00000000E+00  0.00000000E+00
  0.00000000E+00  0.00000000E+00  0.00000000E+00
  0.00000000E+00  0.00000000E+00  0.00000000E+00
  0.00000000E+00  0.00000000E+00  0.00000000E+00
  0.00000000E+00  0.00000000E+00  0.00000000E+00
  0.00000000E+00  0.00000000E+00  0.00000000E+00
  0.00000000E+00  0.00000000E+00  0.00000000E+00
  0.00000000E+00  0.00000000E+00  0.00000000E+00
  0.00000000E+00  0.00000000E+00  0.00000000E+00
  0.00000000E+00  0.00000000E+00  0.00000000E+00
  0.00000000E+00  0.00000000E+00  0.00000000E+00
  0.00000000E+00  0.00000000E+00  0.00000000E+00
  0.00000000E+00  0.00000000E+00  0.00000000E+00
  0.00000000E+00  0.00000000E+00  0.00000000E+00
  0.00000000E+00  0.00000000E+00  0.00000000E+00
  0.00000000E+00  0.00000000E+00  0.00000000E+00
  0.00000000E+00  0.00000000E+00  0.00000000E+00
  0.00000000E+00  0.00000000E+00  0.00000000E+00
  0.00000000E+00  0.00000000E+00  0.00000000E+00
  0.00000000E+00  0.00000000E+00  0.00000000E+00
  0.00000000E+00  0.00000000E+00  0.00000000E+00
  0.00000000E+00  0.00000000E+00  0.00000000E+00
  0.00000000E+00  0.00000000E+00  0.00000000E+00
  0.00000000E+00  0.00000000E+00  0.00000000E+00
  0.00000000E+00  0.00000000E+00  0.00000000E+00
  0.00000000E+00  0.00000000E+00  0.00000000E+00
  0.00000000E+00  0.00000000E+00  0.00000000E+00
  0.00000000E+00  0.00000000E+00  0.00000000E+00
  0.00000000E+00  0.00000000E+00  0.00000000E+00
  0.00000000E+00  0.00000000E+00  0.00000000E+00
  0.00000000E+00  0.00000000E+00  0.00000000E+00
  0.00000000E+00  0.00000000E+00  0.00000000E+00
  0.00000000E+00  0.00000000E+00  0.00000000E+00
  0.00000000E+00  0.00000000E+00  0.00000000E+00
  0.00000000E+00  0.00000000E+00  0.00000000E+00
  0.00000000E+00  0.00000000E+00  0.00000000E+00
  0.00000000E+00  0.00000000E+00  0.00000000E+00
  0.00000000E+00  0.00000000E+00  0.00000000E+00
  0.00000000E+00  0.00000000E+00  0.00000000E+00
  0.00000000E+00  0.00000000E+00  0.00000000E+00
  0.00000000E+00  0.00000000E+00  0.00000000E+00
  0.00000000E+00  0.00000000E+00  0.00000000E+00
  0.00000000E+00  0.00000000E+00  0.00000000E+00
  0.00000000E+00  0.00000000E+00  0.00000000E+00
  0.00000000E+00  0.00000000E+00  0.00000000E+00
  0.00000000E+00  0.00000000E+00  0.00000000E+00
  0.00000000E+00  0.00000000E+00  0.00000000E+00
  0.00000000E+00  0.00000000E+00  0.00000000E+00
  0.00000000E+00  0.00000000E+00  0.00000000E+00
  0.00000000E+00  0.00000000E+00  0.00000000E+00
  0.00000000E+00  0.00000000E+00  0.00000000E+00
  0.00000000E+00  0.00000000E+00  0.00000000E+00
  0.00000000E+00  0.00000000E+00  0.00000000E+00
  0.00000000E+00  0.00000000E+00  0.00000000E+00
  0.00000000E+00  0.00000000E+00  0.00000000E+00
  0.00000000E+00  0.00000000E+00  0.00000000E+00
  0.00000000E+00  0.00000000E+00  0.00000000E+00
  0.00000000E+00  0.00000000E+00  0.00000000E+00
  0.00000000E+00  0.00000000E+00  0.00000000E+00
  0.00000000E+00  0.00000000E+00  0.00000000E+00
  0.00000000E+00  0.00000000E+00  0.00000000E+00
  0.00000000E+00  0.00000000E+00  0.00000000E+00
  0.00000000E+00  0.00000000E+00  0.00000000E+00
  0.00000000E+00  0.00000000E+00  0.00000000E+00
  0.00000000E+00  0.00000000E+00  0.00000000E+00
  0.00000000E+00  0.00000000E+00  0.00000000E+00
  0.00000000E+00  0.00000000E+00  0.00000000E+00
  0.00000000E+00  0.00000000E+00  0.00000000E+00
  0.00000000E+00  0.00000000E+00  0.00000000E+00
  0.00000000E+00  0.00000000E+00  0.00000000E+00
  0.00000000E+00  0.00000000E+00  0.00000000E+00
  0.00000000E+00  0.00000000E+00  0.00000000E+00
  0.00000000E+00  0.00000000E+00  0.00000000E+00
  0.00000000E+00  0.00000000E+00  0.00000000E+00
  0.00000000E+00  0.00000000E+00  0.00000000E+00
  0.00000000E+00  0.00000000E+00  0.00000000E+00
  0.00000000E+00  0.00000000E+00  0.00000000E+00
  0.00000000E+00  0.00000000E+00  0.00000000E+00
  0.00000000E+00  0.00000000E+00  0.00000000E+00
  0.00000000E+00  0.00000000E+00  0.00000000E+00
  0.00000000E+00  0.00000000E+00  0.00000000E+00
  0.00000000E+00  0.00000000E+00  0.00000000E+00
  0.00000000E+00  0.00000000E+00  0.00000000E+00
  0.00000000E+00  0.00000000E+00  0.00000000E+00
  0.00000000E+00  0.00000000E+00  0.00000000E+00
  0.00000000E+00  0.00000000E+00  0.00000000E+00
  0.00000000E+00  0.00000000E+00  0.00000000E+00
  0.00000000E+00  0.00000000E+00  0.00000000E+00
  0.00000000E+00  0.00000000E+00  0.00000000E+00
  0.00000000E+00  0.00000000E+00  0.00000000E+00
  0.00000000E+00  0.00000000E+00  0.00000000E+00
  0.00000000E+00  0.00000000E+00  0.00000000E+00
  0.00000000E+00  0.00000000E+00  0.00000000E+00
  0.00000000E+00  0.00000000E+00  0.00000000E+00
  0.00000000E+00  0.00000000E+00  0.00000000E+00
  0.00000000E+00  0.00000000E+00  0.00000000E+00
  0.00000000E+00  0.00000000E+00  0.00000000E+00
  0.00000000E+00  0.00000000E+00  0.00000000E+00
  0.00000000E+00  0.00000000E+00  0.00000000E+00
  0.00000000E+00  0.00000000E+00  0.00000000E+00
  0.00000000E+00  0.00000000E+00  0.00000000E+00
  0.00000000E+00  0.00000000E+00  0.00000000E+00
  0.00000000E+00  0.00000000E+00  0.00000000E+00
  0.00000000E+00  0.00000000E+00  0.00000000E+00
  0.00000000E+00  0.00000000E+00  0.00000000E+00
