Mo1 S2                                  
   1.00000000000000     
    19.1418952942000011    0.0000000000000000    0.0000000000000000
    -9.5709489007999995   16.5773646751000001    0.0000000000000000
     0.0000000000000000    0.0000000000000000   23.1298294067000008
   Mo   S    O    C 
    36    71     2     1
Direct
  0.1103950399049285  0.0545349779590352  0.5029503867638377
  0.1106694813549008  0.2213395144621517  0.5047066683673593
  0.1122182088057200  0.3887445133273115  0.5053353534883662
  0.1128361230893764  0.5562107176745300  0.5035882112510478
  0.1121221219989079  0.7227445675316874  0.5017074649470267
  0.1109685430394154  0.8884271404980340  0.5016029765165598
  0.2772182349964911  0.0551892912122160  0.5015877282571898
  0.2764234077966337  0.2213263246861328  0.5033168091282351
  0.2765257348287958  0.3887441377726219  0.5053352228017486
  0.2780618780597203  0.5561241636717837  0.5049184824266659
  0.2785625511543419  0.7231321361250183  0.5032519161640199
  0.2782682622779193  0.8894898473044330  0.5017545793737598
  0.4447733438003732  0.0564037857294945  0.4994114776051367
  0.4428541868943154  0.2217586374125902  0.4985225558863594
  0.4398272747004093  0.3883863696560170  0.5024121835459779
  0.4433741220728901  0.5562096106489022  0.5035870961738341
  0.4445705472149860  0.7231314654028238  0.5032514169448250
  0.4449562361270433  0.8899111173691852  0.5015846201117841
  0.6116309115815460  0.0564036858697603  0.4994109465431921
  0.6118275451599225  0.2236548354544804  0.4944064228223586
  0.6054890903018383  0.3905700282253151  0.4899097716669115
  0.6087589152282448  0.5557455102382571  0.4986741894736260
  0.6106229753577481  0.7227444526234041  0.5017061977653526
  0.6112225965170793  0.8894900193283288  0.5017535471012667
  0.7779719078742887  0.0551895952414834  0.5015862373724845
  0.7789048201405878  0.2217593948605793  0.4985215092277352
  0.7850819923552274  0.3905706115812368  0.4899100925074642
  0.7783031766825315  0.5566057815371502  0.4935302452550031
  0.7767944256355594  0.7215315879739029  0.4992157297646236
  0.7774594172871444  0.8884273415673110  0.5016017636342694
  0.9441400074420878  0.0545352669754809  0.5029497527948896
  0.9449031862461846  0.2213271183973389  0.5033159758907396
  0.9485596534359830  0.3883874871700815  0.5024119628556007
  0.9469870300254004  0.5557459572945534  0.4986750030647448
  0.9447377464313480  0.7215316715407478  0.4992162809011084
  0.9439033060571674  0.8878063859158107  0.5012915978063206
  0.0556652524032711  0.1113299209254302  0.4363351494401286
  0.0570625402087928  0.2779696520215887  0.4373651854044131
  0.0605499073073594  0.4448718712848984  0.4365395563714622
  0.0602979061902940  0.6124397385421034  0.4340281764709102
  0.0573939242847106  0.7784272380803156  0.4335293641020912
  0.0555913724238489  0.9445653163520963  0.4346972807874657
  0.2207473282771912  0.1109182807667437  0.4353948847769585
  0.2209069133039036  0.2779689713953500  0.4373655089217654
  0.2222803450089358  0.4445609098748873  0.4379204770974902
  0.2237214224224541  0.6113763312824283  0.4366588294284414
  0.2235514996827515  0.7780680879202261  0.4349591430100288
  0.2219460409095139  0.9442045374864583  0.4343788405441916
  0.3860812450304167  0.1094151123044798  0.4325674997651902
  0.3843766876163372  0.2774405861395336  0.4341446595141874
  0.3843210930182095  0.4448699284471293  0.4365391042722781
  0.3876543889226763  0.6113756076121277  0.4366581872815183
  0.3888335510131313  0.7776656964130652  0.4354034485296632
  0.3884524238634579  0.9437983952439020  0.4336235228103603
  0.5545610941240162  0.1091222648809367  0.4304174342864354
  0.5493616811501899  0.2737999213417060  0.4281429465093309
  0.5415795203373518  0.4459809048604390  0.4318793354767066
  0.5521420081617527  0.6124389763542387  0.4340270789051550
  0.5545172003801208  0.7780673877493600  0.4349579476003222
  0.5553462745512243  0.9437985275932901  0.4336227908960061
  0.7233342525494204  0.1094156696737206  0.4325665178395297
  0.7244380201272195  0.2738005122630341  0.4281426122430089
  0.7192428453886772  0.6124611783290572  0.4300127461167601
  0.7210339984226851  0.7784270849941900  0.4335282059327147
  0.7222594627580166  0.9442049251143277  0.4343774786737445
  0.8901718359722585  0.1109189837386617  0.4353937488079337
  0.8930643227781978  0.2774421065542302  0.4341442088711169
  0.9044026698904616  0.4459825530334937  0.4318792687233871
  0.8932190979089500  0.6124614473512369  0.4300132158483498
  0.8891168774786926  0.7782326283998093  0.4326546898910866
  0.8889744972461830  0.9445651648118066  0.4346965474517659
  0.0544677068439430  0.1089362069200896  0.5709768749903381
  0.0546059340990877  0.2763863131842590  0.5719916371213400
  0.0564944500096592  0.4452132891465438  0.5716516678392007
  0.0546750549432305  0.6113467852612933  0.5688118394483347
  0.0540852891064770  0.7765488951239546  0.5681592614453728
  0.0543132764352743  0.9423490551042742  0.5693004183374478
  0.2218108124473411  0.1095861419835377  0.5700537762525799
  0.2217794992908521  0.2763859558971494  0.5719920291413583
  0.2225635078255898  0.4451270424197056  0.5729576881441414
  0.2229724376505932  0.6128731092075888  0.5714896802264187
  0.2225176093351428  0.7790736040431625  0.5696603035759655
  0.2221723934163676  0.9443619064769680  0.5690360781478377
  0.3904758759163866  0.1124851074443360  0.5671516108481470
  0.3893984912109496  0.2764053714378911  0.5690041870741370
  0.3887187454430420  0.4452129568155133  0.5716514162183972
  0.3899010816206240  0.6128723657105294  0.5714892622577294
  0.3900750629703470  0.7801481114389709  0.5701087434936916
  0.3904306228414757  0.9470495823685274  0.5682152838821284
  0.5580248041169340  0.1160485525868257  0.5646873035793039
  0.5587499172572178  0.2826363728810596  0.5607896198258882
  0.5565690667604434  0.4431466424773720  0.5645050622047088
  0.5566716331394935  0.6113465800123837  0.5688107921237919
  0.5565577223605161  0.7790738708218249  0.5696594533888434
  0.5566214766132097  0.9470501866003198  0.5682147364999195
  0.7220101721723413  0.1124851951692993  0.5671506179788106
  0.7238870294717233  0.2826365009885006  0.5607890293736817
  0.7207622592583768  0.4415237520071826  0.5540605546438727
  0.7219529551477091  0.6081803095435553  0.5642347359263503
  0.7224637267280983  0.7765489974107469  0.5681583376748601
  0.7221905618175229  0.9443622917927273  0.5690348652697939
  0.8877749448952306  0.1095866072780943  0.5700525789366800
  0.8870073013902584  0.2764059004903774  0.5690034616955770
  0.8865779802958643  0.4431466204729743  0.5645048788013229
  0.8862271579540059  0.6081803361315489  0.5642352723369817
  0.8874556464746222  0.7749112267281083  0.5669833196597440
  0.8880359146489664  0.9423497087517426  0.5692998192719375
  0.7737412946211550  0.4337845030576680  0.4044371043584755
  0.6600466450526018  0.4337855062249982  0.4044386261609911
  0.7315732888651428  0.4631507963740951  0.4251812824411682
 
  0.00000000E+00  0.00000000E+00  0.00000000E+00
  0.00000000E+00  0.00000000E+00  0.00000000E+00
  0.00000000E+00  0.00000000E+00  0.00000000E+00
  0.00000000E+00  0.00000000E+00  0.00000000E+00
  0.00000000E+00  0.00000000E+00  0.00000000E+00
  0.00000000E+00  0.00000000E+00  0.00000000E+00
  0.00000000E+00  0.00000000E+00  0.00000000E+00
  0.00000000E+00  0.00000000E+00  0.00000000E+00
  0.00000000E+00  0.00000000E+00  0.00000000E+00
  0.00000000E+00  0.00000000E+00  0.00000000E+00
  0.00000000E+00  0.00000000E+00  0.00000000E+00
  0.00000000E+00  0.00000000E+00  0.00000000E+00
  0.00000000E+00  0.00000000E+00  0.00000000E+00
  0.00000000E+00  0.00000000E+00  0.00000000E+00
  0.00000000E+00  0.00000000E+00  0.00000000E+00
  0.00000000E+00  0.00000000E+00  0.00000000E+00
  0.00000000E+00  0.00000000E+00  0.00000000E+00
  0.00000000E+00  0.00000000E+00  0.00000000E+00
  0.00000000E+00  0.00000000E+00  0.00000000E+00
  0.00000000E+00  0.00000000E+00  0.00000000E+00
  0.00000000E+00  0.00000000E+00  0.00000000E+00
  0.00000000E+00  0.00000000E+00  0.00000000E+00
  0.00000000E+00  0.00000000E+00  0.00000000E+00
  0.00000000E+00  0.00000000E+00  0.00000000E+00
  0.00000000E+00  0.00000000E+00  0.00000000E+00
  0.00000000E+00  0.00000000E+00  0.00000000E+00
  0.00000000E+00  0.00000000E+00  0.00000000E+00
  0.00000000E+00  0.00000000E+00  0.00000000E+00
  0.00000000E+00  0.00000000E+00  0.00000000E+00
  0.00000000E+00  0.00000000E+00  0.00000000E+00
  0.00000000E+00  0.00000000E+00  0.00000000E+00
  0.00000000E+00  0.00000000E+00  0.00000000E+00
  0.00000000E+00  0.00000000E+00  0.00000000E+00
  0.00000000E+00  0.00000000E+00  0.00000000E+00
  0.00000000E+00  0.00000000E+00  0.00000000E+00
  0.00000000E+00  0.00000000E+00  0.00000000E+00
  0.00000000E+00  0.00000000E+00  0.00000000E+00
  0.00000000E+00  0.00000000E+00  0.00000000E+00
  0.00000000E+00  0.00000000E+00  0.00000000E+00
  0.00000000E+00  0.00000000E+00  0.00000000E+00
  0.00000000E+00  0.00000000E+00  0.00000000E+00
  0.00000000E+00  0.00000000E+00  0.00000000E+00
  0.00000000E+00  0.00000000E+00  0.00000000E+00
  0.00000000E+00  0.00000000E+00  0.00000000E+00
  0.00000000E+00  0.00000000E+00  0.00000000E+00
  0.00000000E+00  0.00000000E+00  0.00000000E+00
  0.00000000E+00  0.00000000E+00  0.00000000E+00
  0.00000000E+00  0.00000000E+00  0.00000000E+00
  0.00000000E+00  0.00000000E+00  0.00000000E+00
  0.00000000E+00  0.00000000E+00  0.00000000E+00
  0.00000000E+00  0.00000000E+00  0.00000000E+00
  0.00000000E+00  0.00000000E+00  0.00000000E+00
  0.00000000E+00  0.00000000E+00  0.00000000E+00
  0.00000000E+00  0.00000000E+00  0.00000000E+00
  0.00000000E+00  0.00000000E+00  0.00000000E+00
  0.00000000E+00  0.00000000E+00  0.00000000E+00
  0.00000000E+00  0.00000000E+00  0.00000000E+00
  0.00000000E+00  0.00000000E+00  0.00000000E+00
  0.00000000E+00  0.00000000E+00  0.00000000E+00
  0.00000000E+00  0.00000000E+00  0.00000000E+00
  0.00000000E+00  0.00000000E+00  0.00000000E+00
  0.00000000E+00  0.00000000E+00  0.00000000E+00
  0.00000000E+00  0.00000000E+00  0.00000000E+00
  0.00000000E+00  0.00000000E+00  0.00000000E+00
  0.00000000E+00  0.00000000E+00  0.00000000E+00
  0.00000000E+00  0.00000000E+00  0.00000000E+00
  0.00000000E+00  0.00000000E+00  0.00000000E+00
  0.00000000E+00  0.00000000E+00  0.00000000E+00
  0.00000000E+00  0.00000000E+00  0.00000000E+00
  0.00000000E+00  0.00000000E+00  0.00000000E+00
  0.00000000E+00  0.00000000E+00  0.00000000E+00
  0.00000000E+00  0.00000000E+00  0.00000000E+00
  0.00000000E+00  0.00000000E+00  0.00000000E+00
  0.00000000E+00  0.00000000E+00  0.00000000E+00
  0.00000000E+00  0.00000000E+00  0.00000000E+00
  0.00000000E+00  0.00000000E+00  0.00000000E+00
  0.00000000E+00  0.00000000E+00  0.00000000E+00
  0.00000000E+00  0.00000000E+00  0.00000000E+00
  0.00000000E+00  0.00000000E+00  0.00000000E+00
  0.00000000E+00  0.00000000E+00  0.00000000E+00
  0.00000000E+00  0.00000000E+00  0.00000000E+00
  0.00000000E+00  0.00000000E+00  0.00000000E+00
  0.00000000E+00  0.00000000E+00  0.00000000E+00
  0.00000000E+00  0.00000000E+00  0.00000000E+00
  0.00000000E+00  0.00000000E+00  0.00000000E+00
  0.00000000E+00  0.00000000E+00  0.00000000E+00
  0.00000000E+00  0.00000000E+00  0.00000000E+00
  0.00000000E+00  0.00000000E+00  0.00000000E+00
  0.00000000E+00  0.00000000E+00  0.00000000E+00
  0.00000000E+00  0.00000000E+00  0.00000000E+00
  0.00000000E+00  0.00000000E+00  0.00000000E+00
  0.00000000E+00  0.00000000E+00  0.00000000E+00
  0.00000000E+00  0.00000000E+00  0.00000000E+00
  0.00000000E+00  0.00000000E+00  0.00000000E+00
  0.00000000E+00  0.00000000E+00  0.00000000E+00
  0.00000000E+00  0.00000000E+00  0.00000000E+00
  0.00000000E+00  0.00000000E+00  0.00000000E+00
  0.00000000E+00  0.00000000E+00  0.00000000E+00
  0.00000000E+00  0.00000000E+00  0.00000000E+00
  0.00000000E+00  0.00000000E+00  0.00000000E+00
  0.00000000E+00  0.00000000E+00  0.00000000E+00
  0.00000000E+00  0.00000000E+00  0.00000000E+00
  0.00000000E+00  0.00000000E+00  0.00000000E+00
  0.00000000E+00  0.00000000E+00  0.00000000E+00
  0.00000000E+00  0.00000000E+00  0.00000000E+00
  0.00000000E+00  0.00000000E+00  0.00000000E+00
  0.00000000E+00  0.00000000E+00  0.00000000E+00
  0.00000000E+00  0.00000000E+00  0.00000000E+00
  0.00000000E+00  0.00000000E+00  0.00000000E+00
  0.00000000E+00  0.00000000E+00  0.00000000E+00
