Mo1 S2                                  
1.0
  19.1418952942         0.0000000000         0.0000000000
  -9.5709489008        16.5773646751         0.0000000000
   0.0000000000         0.0000000000        23.1298294067
Mo S O C
36 71 2 1
Cartesian
     1.596269398         0.920188309        11.538069046
    -0.000085204         3.685205587        11.538056400
    -1.601562153         6.447569225        11.545732896
    -3.200900689         9.204257079        11.562536097
    -4.795484959        11.966099588        11.562535359
    -6.383167213        14.729470011        11.545743783
     4.789304434         0.925940578        11.545762439
     3.195061497         3.686596417        11.544177806
     1.601409586         6.447592769        11.545746546
    -0.000089090         9.207887965        11.552301146
    -1.598540830        11.970608196        11.556795637
    -3.191918804        14.736222753        11.552315773
     7.976418698         0.932593660        11.562592772
     6.391110070         3.701321096        11.565929261
     4.805849249         6.447127465        11.565919317
     3.200754831         9.204390163        11.562580396
     1.598450784        11.970656988        11.556834973
     0.000013647        14.739197263        11.556841111
    11.165617922         0.932648211        11.562592486
     9.571095775         3.722649904        11.605812384
     8.021935758         6.473422641        11.647327425
     6.414325097         9.190413360        11.605792124
     4.795437186        11.966249915        11.562586245
     3.191913158        14.736323229        11.552347511
    14.352612333         0.926030903        11.545775945
    12.750898274         3.701377103        11.565920094
    11.120221846         6.473398984        11.647298932
     9.571052166         9.156655398        11.647271630
     7.985786035        11.954819528        11.565904840
     6.383154567        14.729555146        11.545765019
    17.545546388         0.920250790        11.538049307
    15.946738551         3.686665318        11.544158169
    14.336008383         6.447102800        11.565884630
    12.727622840         9.190288294        11.605699222
    11.156165418        11.954724956        11.565859530
     9.570949271        14.729821453        11.544143706
    -0.000052770         1.841883816         9.981802984
    -1.601132005         4.609349101         9.985824410
    -3.215366662         7.369834196        10.000766165
    -4.821769827        10.109688037        10.026474458
    -6.391365977        12.870767975        10.000757516
    -7.974869810        15.648947299         9.985830629
     3.197124718         1.844692040         9.985880989
     1.600989354         4.609340660         9.985862094
    -0.000087247         7.370074224         9.991991027
    -1.605275913        10.127234289        10.002735111
    -3.198332835        12.886442025        10.002733929
    -4.783512958        15.655125565         9.992007252
     6.394985939         1.862373330        10.000856449
     4.804122480         4.615602761         9.999784111
     3.215225816         7.369940415        10.000834562
     1.605132644        10.127311590        10.002750252
    -0.000013140        12.893486270        10.003119230
    -1.593046745        15.666651105        10.002746061
     9.571033054         1.883624654        10.026571049
     8.025504526         4.685146369        10.049290110
     6.475068550         7.370659714        10.049253991
     4.821676520        10.109836533        10.026553107
     3.198240317        12.886526498        10.002762051
     1.593077378        15.666677089        10.002749705
    12.746991031         1.862474354        10.000844765
    11.116607998         4.685197410        10.049265132
     8.020643258        10.047588668        10.049216010
     6.391340326        12.870849112        10.000821704
     4.783507386        15.655229104         9.992041799
    15.944707414         1.844771465         9.985871175
    14.337747082         4.615654112         9.999690927
    12.666863649         7.370579127        10.049135092
    11.121334305        10.047480567        10.049101966
     9.570962692        12.871910908         9.999659182
     7.974837856        15.649002294         9.985845094
    -0.000057895         1.841893368        13.092161874
    -1.594634117         4.603511428        13.097212119
    -3.193188893         7.360047781        13.111943768
    -4.787562744        10.129434714        13.128207667
    -6.388770643        12.894840765        13.111943618
    -7.976696292        15.657478116        13.097234063
     3.188785405         1.841982467        13.097211142
     1.594460711         4.603489769        13.097202916
    -0.000080540         7.362649924        13.101657299
    -1.595691300        10.126574779        13.111190191
    -3.194114841        12.895067106        13.111205275
    -4.789938602        15.658850757        13.101676231
     6.375408695         1.848090064        13.111991301
     4.781982989         4.602837045        13.110644121
     3.193064317         7.360131347        13.111979880
     1.595506035        10.126625921        13.111247984
    -0.000024144        12.893491236        13.110770938
    -1.598460077        15.658642035        13.111274273
     9.571040224         1.844110194        13.128245437
     7.959406372         4.623135607        13.165620875
     6.388311074         7.344436223        13.165628613
     4.787479929        10.129596395        13.128251386
     3.194030131        12.895181650        13.111269610
     1.598484946        15.658694038        13.111290421
    12.766599361         1.848169880        13.111982254
    11.182762371         4.623210733        13.165621857
     9.571102620         7.367871056        13.211180414
     8.000052964        10.135908361        13.165593557
     6.388780766        12.894974135        13.111994863
     4.789943100        15.658943187        13.101706501
    15.953087301         1.842082738        13.097208585
    14.359924374         4.602932109        13.110655273
    12.753664113         7.344386536        13.165603314
    11.142012211        10.135788990        13.165595984
     9.571023670        12.897466593        13.110652080
     7.976690799        15.657567156        13.097209720
    10.731100000         7.367900000        10.255200000
     8.411100000         7.367900000        10.255200000
     9.571100000         7.367900000        10.255200000
