Mo1 S2                                  
    1.000000000000000     
    19.1418952942000011    0.0000000000000000    0.0000000000000000
    -9.5709489007999995   16.5773646751000001    0.0000000000000000
     0.0000000000000000    0.0000000000000000   23.1298294067000008
   Mo   S    O    C 
    36    70     2     1
Direct
  0.1122817290733025  0.0558957064071990  0.4987632588704187
  0.1121293977280686  0.2223657300934079  0.4991342127233054
  0.1115379283698701  0.3889965882759583  0.5004204622332438
  0.1109210270002663  0.5552150141797085  0.5013414053818579
  0.1107914801909544  0.7217641463544240  0.5008184843053982
  0.1114856688137706  0.8886571383603439  0.4994881970038136
  0.2790932904101240  0.0562052760370122  0.4993061718660741
  0.2797783608731947  0.2233040595097719  0.4980401394001674
  0.2782552547765746  0.3892369744925759  0.4992609137184445
  0.2781718315463380  0.5556350586815242  0.5006463835609765
  0.2779631160566609  0.7221444551585989  0.5010275648878562
  0.2782733564219555  0.8889616186092510  0.5005005657903894
  0.4456700116711048  0.0559299555130011  0.5015765010448803
  0.4472013200139173  0.2241960796276530  0.4998747996146307
  0.4462706281531439  0.3914085936438383  0.4975509166802254
  0.4452199903858940  0.5558153797044980  0.5004071206987959
  0.4449755969400684  0.7222677398329864  0.5011166166620313
  0.4450479085580028  0.8889131785617366  0.5014933998273818
  0.6121880468705996  0.0553263463170950  0.5024939543945237
  0.6130751488575612  0.2221455427201064  0.5048605569971301
  0.6219875640512456  0.3874645633174225  0.5030894248876550
  0.6102447903682346  0.5544058553161619  0.4992819773786508
  0.6119335273975608  0.7224757293887691  0.5005418578431247
  0.6118520832361725  0.8887656169752773  0.5013153514590485
  0.7786749225561636  0.0555288323057539  0.5011054842714415
  0.7789369631293397  0.2224793149129383  0.5028815508600673
  0.7782084477155848  0.3895499117709704  0.5066833821157744
  0.7766225939199316  0.5515735613120398  0.5036382492630764
  0.7780658789800370  0.7213891404880641  0.5000281599411736
  0.7785234098476792  0.8886321812648390  0.5001765633271020
  0.9453857474810263  0.0555194668651211  0.4996166103656563
  0.9453672628959850  0.2222304398805051  0.5007239198309463
  0.9445674361775858  0.3887441158140916  0.5021892447434908
  0.9425435665686308  0.5541371409674554  0.5032115130645920
  0.9436091996438947  0.7209885661220810  0.5003190233193209
  0.9450021119805072  0.8885734944114745  0.4994183415678393
  0.0560711251135615  0.1112025728703685  0.4318084943656899
  0.0557306188935272  0.2782281661807460  0.4327609220774917
  0.0545941073717202  0.4444281001853554  0.4339483116034302
  0.0532340048469990  0.6093582314535126  0.4347685069182319
  0.0549167116634237  0.7761524334032686  0.4329337297794922
  0.0560960359183227  0.9439943229201475  0.4319045934705699
  0.2237631245951661  0.1113490330530027  0.4313856481451666
  0.2230098530976861  0.2784670363377160  0.4314670544417041
  0.2221607585196352  0.4451806884104172  0.4328133038000317
  0.2219222706634838  0.6110717307837277  0.4337935200342216
  0.2222169800707050  0.7772690292599904  0.4335737167281692
  0.2232687124464974  0.9442412529282151  0.4324951720214187
  0.3917961821896228  0.1120500315815960  0.4331102739499784
  0.3928333571511402  0.2797762043436549  0.4312750507663878
  0.3884478485180551  0.4459423926785107  0.4319117555957135
  0.3895300836494897  0.6117022728973538  0.4334650441513261
  0.3894355053955465  0.7780527949652551  0.4340089571596266
  0.3903705703127685  0.9450416746087100  0.4339942541007460
  0.5581780918129127  0.1124929547432458  0.4358267463026806
  0.5622875743066444  0.2778272559360886  0.4357430819991919
  0.5565859297832745  0.6127380022289302  0.4331436073082102
  0.5560112185650254  0.7782250295266380  0.4337670112895964
  0.5565094578396099  0.9450090958473822  0.4345435394423589
  0.7228382775765212  0.1120728738493213  0.4348769635704599
  0.7232287995596636  0.2814734726486350  0.4375637540388126
  0.7226280361259612  0.6069847670825865  0.4345212076650569
  0.7226416563884968  0.7773545216756119  0.4328811203540184
  0.7225536332611995  0.9446138389132201  0.4335956118373048
  0.8890888775739469  0.1113363649985928  0.4331756893013079
  0.8887361668094726  0.2780669338967172  0.4345839068167408
  0.8844708416573894  0.4435820225425431  0.4366110827960696
  0.8845441834408874  0.6051623858025081  0.4350035510244012
  0.8888200119054162  0.7765725667482357  0.4325274229951077
  0.8891546031678388  0.9441806935098498  0.4324108740276174
  0.0570753699683095  0.1112389550835289  0.5663739049537000
  0.0571503007402470  0.2774922002087550  0.5673154022734295
  0.0566266601736629  0.4441926796770019  0.5685790040139196
  0.0559843662415034  0.6113962426886417  0.5688542185690082
  0.0553381235889887  0.7780557116458695  0.5673285516654332
  0.0565486032305671  0.9450030475516868  0.5663702927202081
  0.2237702985610923  0.1125059482014947  0.5657976910825511
  0.2236614508917896  0.2776055904170676  0.5659807067428346
  0.2230124391516313  0.4440621824311748  0.5674472042447931
  0.2226054151389150  0.6109507628406803  0.5682430349166196
  0.2222387389584313  0.7779625095690008  0.5679713143037191
  0.2225907166530305  0.9452011468251200  0.5669005971873844
  0.3894367609889215  0.1127062527431946  0.5672044743961493
  0.3907836074952939  0.2809388834227349  0.5652069321236013
  0.3899364083676247  0.4432370334070654  0.5664323116651104
  0.3893392381417797  0.6107386583258361  0.5680622394874675
  0.3890275297537968  0.7774607415021677  0.5684822572002801
  0.3887285053895297  0.9442650998326059  0.5684272541697055
  0.5553957276463564  0.1091479161059183  0.5703741222369985
  0.5553042476114953  0.2776440328340541  0.5706459642988904
  0.5580647023557290  0.4415327668159250  0.5636027524984186
  0.5569734601228902  0.6103635151845523  0.5673944302652814
  0.5562814584425126  0.7773480230668355  0.5683797080733513
  0.5560117784140317  0.9434844475251580  0.5690941409620365
  0.7237543452230710  0.1104170213526601  0.5694722211830339
  0.7250328984205936  0.2776844384695707  0.5724030396515758
  0.7258888785800934  0.4458527860122956  0.5734130352220177
  0.7211700612940888  0.6101317450518238  0.5678030085878376
  0.7233932987663252  0.7775939266310559  0.5675599128190569
  0.7235545880103160  0.9440598018733795  0.5681222915940438
  0.8905394914447484  0.1107959246255703  0.5677136198557093
  0.8908360383757596  0.2774290227403782  0.5690965870835853
  0.8901706776216045  0.4436264134645640  0.5717108249856793
  0.8875376777191093  0.6116983929760096  0.5696738926161302
  0.8891904457132966  0.7777571781754204  0.5670455470435058
  0.8902131768512263  0.9444505943656765  0.5669484889701621
  0.5415596694049469  0.4594062623617603  0.4359388416182739
  0.6243312867843755  0.4401940676856384  0.3772054626441488
  0.5974515015796484  0.4341860353570084  0.4255847801258099
 
  0.00000000E+00  0.00000000E+00  0.00000000E+00
  0.00000000E+00  0.00000000E+00  0.00000000E+00
  0.00000000E+00  0.00000000E+00  0.00000000E+00
  0.00000000E+00  0.00000000E+00  0.00000000E+00
  0.00000000E+00  0.00000000E+00  0.00000000E+00
  0.00000000E+00  0.00000000E+00  0.00000000E+00
  0.00000000E+00  0.00000000E+00  0.00000000E+00
  0.00000000E+00  0.00000000E+00  0.00000000E+00
  0.00000000E+00  0.00000000E+00  0.00000000E+00
  0.00000000E+00  0.00000000E+00  0.00000000E+00
  0.00000000E+00  0.00000000E+00  0.00000000E+00
  0.00000000E+00  0.00000000E+00  0.00000000E+00
  0.00000000E+00  0.00000000E+00  0.00000000E+00
  0.00000000E+00  0.00000000E+00  0.00000000E+00
  0.00000000E+00  0.00000000E+00  0.00000000E+00
  0.00000000E+00  0.00000000E+00  0.00000000E+00
  0.00000000E+00  0.00000000E+00  0.00000000E+00
  0.00000000E+00  0.00000000E+00  0.00000000E+00
  0.00000000E+00  0.00000000E+00  0.00000000E+00
  0.00000000E+00  0.00000000E+00  0.00000000E+00
  0.00000000E+00  0.00000000E+00  0.00000000E+00
  0.00000000E+00  0.00000000E+00  0.00000000E+00
  0.00000000E+00  0.00000000E+00  0.00000000E+00
  0.00000000E+00  0.00000000E+00  0.00000000E+00
  0.00000000E+00  0.00000000E+00  0.00000000E+00
  0.00000000E+00  0.00000000E+00  0.00000000E+00
  0.00000000E+00  0.00000000E+00  0.00000000E+00
  0.00000000E+00  0.00000000E+00  0.00000000E+00
  0.00000000E+00  0.00000000E+00  0.00000000E+00
  0.00000000E+00  0.00000000E+00  0.00000000E+00
  0.00000000E+00  0.00000000E+00  0.00000000E+00
  0.00000000E+00  0.00000000E+00  0.00000000E+00
  0.00000000E+00  0.00000000E+00  0.00000000E+00
  0.00000000E+00  0.00000000E+00  0.00000000E+00
  0.00000000E+00  0.00000000E+00  0.00000000E+00
  0.00000000E+00  0.00000000E+00  0.00000000E+00
  0.00000000E+00  0.00000000E+00  0.00000000E+00
  0.00000000E+00  0.00000000E+00  0.00000000E+00
  0.00000000E+00  0.00000000E+00  0.00000000E+00
  0.00000000E+00  0.00000000E+00  0.00000000E+00
  0.00000000E+00  0.00000000E+00  0.00000000E+00
  0.00000000E+00  0.00000000E+00  0.00000000E+00
  0.00000000E+00  0.00000000E+00  0.00000000E+00
  0.00000000E+00  0.00000000E+00  0.00000000E+00
  0.00000000E+00  0.00000000E+00  0.00000000E+00
  0.00000000E+00  0.00000000E+00  0.00000000E+00
  0.00000000E+00  0.00000000E+00  0.00000000E+00
  0.00000000E+00  0.00000000E+00  0.00000000E+00
  0.00000000E+00  0.00000000E+00  0.00000000E+00
  0.00000000E+00  0.00000000E+00  0.00000000E+00
  0.00000000E+00  0.00000000E+00  0.00000000E+00
  0.00000000E+00  0.00000000E+00  0.00000000E+00
  0.00000000E+00  0.00000000E+00  0.00000000E+00
  0.00000000E+00  0.00000000E+00  0.00000000E+00
  0.00000000E+00  0.00000000E+00  0.00000000E+00
  0.00000000E+00  0.00000000E+00  0.00000000E+00
  0.00000000E+00  0.00000000E+00  0.00000000E+00
  0.00000000E+00  0.00000000E+00  0.00000000E+00
  0.00000000E+00  0.00000000E+00  0.00000000E+00
  0.00000000E+00  0.00000000E+00  0.00000000E+00
  0.00000000E+00  0.00000000E+00  0.00000000E+00
  0.00000000E+00  0.00000000E+00  0.00000000E+00
  0.00000000E+00  0.00000000E+00  0.00000000E+00
  0.00000000E+00  0.00000000E+00  0.00000000E+00
  0.00000000E+00  0.00000000E+00  0.00000000E+00
  0.00000000E+00  0.00000000E+00  0.00000000E+00
  0.00000000E+00  0.00000000E+00  0.00000000E+00
  0.00000000E+00  0.00000000E+00  0.00000000E+00
  0.00000000E+00  0.00000000E+00  0.00000000E+00
  0.00000000E+00  0.00000000E+00  0.00000000E+00
  0.00000000E+00  0.00000000E+00  0.00000000E+00
  0.00000000E+00  0.00000000E+00  0.00000000E+00
  0.00000000E+00  0.00000000E+00  0.00000000E+00
  0.00000000E+00  0.00000000E+00  0.00000000E+00
  0.00000000E+00  0.00000000E+00  0.00000000E+00
  0.00000000E+00  0.00000000E+00  0.00000000E+00
  0.00000000E+00  0.00000000E+00  0.00000000E+00
  0.00000000E+00  0.00000000E+00  0.00000000E+00
  0.00000000E+00  0.00000000E+00  0.00000000E+00
  0.00000000E+00  0.00000000E+00  0.00000000E+00
  0.00000000E+00  0.00000000E+00  0.00000000E+00
  0.00000000E+00  0.00000000E+00  0.00000000E+00
  0.00000000E+00  0.00000000E+00  0.00000000E+00
  0.00000000E+00  0.00000000E+00  0.00000000E+00
  0.00000000E+00  0.00000000E+00  0.00000000E+00
  0.00000000E+00  0.00000000E+00  0.00000000E+00
  0.00000000E+00  0.00000000E+00  0.00000000E+00
  0.00000000E+00  0.00000000E+00  0.00000000E+00
  0.00000000E+00  0.00000000E+00  0.00000000E+00
  0.00000000E+00  0.00000000E+00  0.00000000E+00
  0.00000000E+00  0.00000000E+00  0.00000000E+00
  0.00000000E+00  0.00000000E+00  0.00000000E+00
  0.00000000E+00  0.00000000E+00  0.00000000E+00
  0.00000000E+00  0.00000000E+00  0.00000000E+00
  0.00000000E+00  0.00000000E+00  0.00000000E+00
  0.00000000E+00  0.00000000E+00  0.00000000E+00
  0.00000000E+00  0.00000000E+00  0.00000000E+00
  0.00000000E+00  0.00000000E+00  0.00000000E+00
  0.00000000E+00  0.00000000E+00  0.00000000E+00
  0.00000000E+00  0.00000000E+00  0.00000000E+00
  0.00000000E+00  0.00000000E+00  0.00000000E+00
  0.00000000E+00  0.00000000E+00  0.00000000E+00
  0.00000000E+00  0.00000000E+00  0.00000000E+00
  0.00000000E+00  0.00000000E+00  0.00000000E+00
  0.00000000E+00  0.00000000E+00  0.00000000E+00
  0.00000000E+00  0.00000000E+00  0.00000000E+00
  0.00000000E+00  0.00000000E+00  0.00000000E+00
  0.00000000E+00  0.00000000E+00  0.00000000E+00
  0.00000000E+00  0.00000000E+00  0.00000000E+00
