Mo1 S2                                  
1.0
  19.1418952942         0.0000000000         0.0000000000
  -9.5709489008        16.5773646751         0.0000000000
   0.0000000000         0.0000000000        23.1298294067
Mo  S  O  C
36  70  2  1
Cartesian
     1.597028470         0.918860835        11.509305139
     0.001949656         3.681130948        11.518244240
    -1.595158829         6.446486422        11.539553042
    -3.196223404         9.207521466        11.563181950
    -4.793967736        11.970014009        11.557617784
    -6.384040670        14.730487130        11.524686997
     4.789745362         0.947061322        11.531033348
     3.199920188         3.704304615        11.543621254
     1.608890620         6.446687642        11.561779477
     0.005905381         9.207520271        11.563182597
    -1.595159142        11.977916251        11.550867627
    -3.190633898        14.750839638        11.535815049
     7.975789231         0.963356235        11.544315592
     6.388772884         3.765389078        11.594980458
     4.824488497         6.483979277        11.662949653
     3.220717424         9.187953606        11.622471662
     1.603650878        11.970015723        11.557619865
     0.000313286        14.750838588        11.535817448
    11.161832496         0.947060269        11.531033841
     9.562803005         3.765388115        11.594981076
     7.975788486         6.530461870        11.736668375
     6.399010093         9.115670416        11.714679194
     4.802352994        11.939265586        11.564884531
     3.193721580        14.730487956        11.524689274
    14.354548673         0.918860058        11.509305727
    12.751655378         3.704303265        11.543622609
    11.127088649         6.483978309        11.662948373
     9.552568588         9.115670098        11.714678428
     7.975789069        11.900701606        11.554207850
     6.385422535        14.708053074        11.509742013
    17.546736440         0.908007805        11.500300239
    15.949627362         3.681128973        11.518244688
    14.342685298         6.446685486        11.561777259
    12.730860313         9.187952388        11.622470677
    11.149224875        11.939265399        11.564884332
     9.566154727        14.708053948        11.509740390
     0.004859416         1.841690068         9.951583108
    -1.595159171         4.614911122         9.967599157
    -3.208920660         7.375250526         9.998496608
    -4.826040122        10.107010473        10.031897406
    -6.396549560        12.857715901         9.994340350
    -7.973750656        15.639448504         9.958164115
     3.205706281         1.868792826         9.970709102
     1.611867520         4.623974687         9.982608489
     0.018606874         7.375244385         9.998494856
    -1.595157971        10.127504727        10.005674653
    -3.196490440        12.890800111         9.995209275
    -4.781151489        15.670786566         9.976710112
     6.392704322         1.925891673        10.006605142
     4.839960988         4.713119759        10.042858821
     3.280310087         7.379334102        10.059045616
     1.635722255        10.107012761        10.031900222
     0.006173216        12.890800628         9.995210436
    -1.595159531        15.689387108         9.986614009
     9.558874466         1.925891884        10.006605694
     7.975788082         4.841009571        10.089513207
     4.861616850        10.009877608        10.084870382
     3.206232404        12.857719339         9.994341711
     1.590830061        15.670783263         9.976712023
    12.745872057         1.868795851         9.970709190
    11.111614275         4.713117093        10.042858367
     7.975789168         9.851212377        10.093914023
     6.390169443        12.821481127         9.984111905
     4.783432270        15.639447097         9.958166624
    15.946716496         1.841688439         9.951584520
    14.339708312         4.623968552         9.982608824
    12.671267405         7.379332051        10.059045567
    11.089962091        10.009877335        10.084869731
     9.561407697        12.821481790         9.984111342
     7.975787571        15.628341886         9.948081334
    -0.004420701         1.828344339        13.061832718
    -1.595158974         4.590896367        13.077932994
    -3.185637307         7.357476230        13.108089479
    -4.777970764        10.138581282        13.131457601
    -6.391828426        12.901748171        13.100065845
    -7.987360097        15.650660120        13.065168664
     3.180900939         1.843677985        13.079480715
     1.586252379         4.590104167        13.092499231
    -0.004683890         7.357478907        13.108090606
    -1.595161314        10.136783665        13.111975156
    -3.191617183        12.911084855        13.100151305
    -4.792912849        15.671250680        13.081031698
     6.376075774         1.869769467        13.102497179
     4.763062760         4.616696976        13.155636158
     3.181021081         7.337508799        13.176662066
     1.587655229        10.138583202        13.131460092
     0.001298611        12.911083301        13.100152357
    -1.595161096        15.680721098        13.089162233
     9.575499423         1.869768815        13.102498077
     7.975788731         4.660633336        13.202299885
     6.372047192         7.331334691        13.274414611
     4.798553425        10.137320262        13.191118365
     3.201511962        12.901749294        13.100067303
     1.602591753        15.671246730        13.081035781
    12.770675419         1.843674557        13.079480603
    11.188515910         4.616694515        13.155632974
     9.579530882         7.331333966        13.274412729
     7.975790249        10.128023034        13.217046275
     6.398278946        12.882566996        13.087458456
     4.797042273        15.650659884        13.065171390
    15.955997840         1.828343624        13.061833259
    14.365320216         4.590097465        13.092497560
    12.770553478         7.337508795        13.176663108
    11.153025296        10.137320107        13.191117521
     9.553300529        12.882566522        13.087457460
     7.975789176        15.642301198        13.058243660
     6.372000000         7.331330000        10.255200000
     8.692000000         7.331330000        10.255200000
     7.532000000         7.331330000        10.255200000
     
