H4 W36 C1 S70 O1                        
   1.00000000000000     
    18.9192008971999996    0.0000000000000000    0.0000000000000000
    -9.4596004485999998   16.3845085963000017    0.0000000000000000
     0.0000000000000000    0.0000000000000000   24.6459999084000003
   W    S    O    C    H 
    36    70     1     1     4
Direct
  0.1239976510126942  0.0492717336220806  0.4981851102392887
  0.1264250663679481  0.2161493349294955  0.4983787286450289
  0.1240008015955505  0.3805632743044670  0.4981786933332082
  0.1221128526634768  0.5468111833868917  0.4986569356849033
  0.1216246488035123  0.7137842777117458  0.4990190012047347
  0.1220928895736617  0.8812052696977842  0.4986883119803936
  0.2896060981801327  0.0495897485340991  0.4957288803349986
  0.2955434182329938  0.2183442127737832  0.4913674564277856
  0.2958052879194900  0.3830041291965632  0.4912251619037694
  0.2896760180411660  0.5460000842821175  0.4955962172853573
  0.2886427999315552  0.7135279103370407  0.4983291420081041
  0.2886314109012104  0.8810647029549621  0.4983772529161180
  0.4550260570125689  0.0482039716429906  0.4981314822033519
  0.4522515790812260  0.2159454601180731  0.4927168304795945
  0.4502711822104429  0.3782547755689953  0.4880747416793347
  0.4521763943342839  0.5419421590339372  0.4926231046103847
  0.4550518356583232  0.7127548927366345  0.4980683082292910
  0.4550481430293558  0.8804893211250213  0.4993530420606107
  0.6217621296093718  0.0473774432174212  0.5002867588248083
  0.6203462329824022  0.2138885583689571  0.4987154725829379
  0.6167989581636673  0.3788176168646204  0.4961580000176901
  0.6168508964726580  0.5439876870940985  0.4961300678253022
  0.6203039554978348  0.7122851350517783  0.4987679076650665
  0.6217706008658358  0.8802993451804815  0.5002766804626994
  0.7890518792983494  0.0474703989117772  0.5012533873640197
  0.7884086943183911  0.2140283280649360  0.5007811292993635
  0.7868834600425060  0.3800360690362951  0.4996629251425650
  0.7860737870250512  0.5460032311887614  0.4989840100150199
  0.7869279497100398  0.7127815258124564  0.4996648984404368
  0.7884183389107394  0.8802837052811285  0.5007798100960882
  0.9567373249758250  0.0482132325710343  0.5007012778717356
  0.9567260379838637  0.2143909002228992  0.5007113291227206
  0.9555204390634930  0.3805084397769260  0.5001485787795117
  0.9543625188438259  0.5467729153934926  0.4996700774174934
  0.9543833851289312  0.7135162062625112  0.4996779968701858
  0.9555136516986364  0.8809148764283329  0.5001462226148178
  0.0711014886044967  0.1058712551337136  0.5633495563098442
  0.0710997039709751  0.2710868108449673  0.5633508230275784
  0.0688092358195814  0.4362303152026292  0.5631030562578723
  0.0666685926845986  0.6025253833449005  0.5631791285839405
  0.0666729791468584  0.7700520764757661  0.5632036770249694
  0.0687629183607362  0.9384456193160707  0.5631166210309350
  0.2405368026128052  0.1111542530969273  0.5590499355194362
  0.2497909651201609  0.2779010516006202  0.5579951688622191
  0.2408663758263104  0.4353133801341224  0.5588787140991928
  0.2347069365482808  0.6011405973004254  0.5614828904126553
  0.2334158439125439  0.7696687361635791  0.5626272307995220
  0.2346358512961537  0.9394411130875667  0.5615695403744959
  0.3992652090797368  0.1084440752560175  0.5596595502981424
  0.3993233472226454  0.5966029023748339  0.5594909355350768
  0.3992331551847463  0.7678401991625504  0.5627448911273714
  0.3992298059880158  0.9372938970456252  0.5627887915680254
  0.5647398980755476  0.1034572695410760  0.5633373935574369
  0.5589635563014476  0.2692964416185948  0.5600027249702408
  0.5503833126446528  0.4283655504848768  0.5577621161219575
  0.5585688124171270  0.5952159293537745  0.5600546519269504
  0.5647053731282579  0.7671774329596549  0.5633120099723182
  0.5653957232683836  0.9356609883880047  0.5641982612691073
  0.7325607376999087  0.1029556272505560  0.5650262039395099
  0.7306181821538907  0.2694154201185288  0.5639577708632166
  0.7270602978845805  0.4340096143018739  0.5622128599666679
  0.7270944447473817  0.5990248876536439  0.5621929400644905
  0.7306250228552331  0.7670916264100179  0.5639628560290936
  0.7325616463122364  0.9354965347866093  0.5650315061159181
  0.9012737219154910  0.1035700023958640  0.5651605926687724
  0.9005145541871723  0.2699924446734850  0.5647238830164522
  0.8985937524815413  0.4358192269986316  0.5639054575546676
  0.8974882097858033  0.6017006905048915  0.5634709100623272
  0.8986292310937875  0.7687063747423859  0.5639152638889082
  0.9005320348986193  0.9364426563924585  0.5647278039852998
  0.0664821947274531  0.1037276200259509  0.4353902869414126
  0.0664675876880193  0.2686064518760069  0.4354041699105590
  0.0656738262829300  0.4351816871171941  0.4350694889269074
  0.0652782877566434  0.6022109551601728  0.4351401095543562
  0.0652926951598783  0.7690182135430925  0.4351456088694503
  0.0656487927332711  0.9363473450034324  0.4350658171589175
  0.2322305446291888  0.1030369535278999  0.4309963955066269
  0.2330031662182526  0.2693779490452997  0.4296881239012297
  0.2322629905599006  0.4350028029229606  0.4309726128461822
  0.2322743134730315  0.6029356821868515  0.4335728755616259
  0.2325403645028761  0.7692760009732464  0.4345633335156228
  0.2322836804165397  0.9353182040378843  0.4336414691666111
  0.4009547546514839  0.1027864847358335  0.4313586697435094
  0.4012556693747654  0.2695562782692181  0.4245307033393877
  0.4012811840365427  0.4375086387101460  0.4242453160021245
  0.4010525227902398  0.6040698757542087  0.4312792281643636
  0.4001675781826798  0.7700115297469998  0.4345690962687135
  0.4001372173051175  0.9360924201968054  0.4346136899401747
  0.5671534414407361  0.1025901254678555  0.4350919234786981
  0.5660219136173278  0.2681105764689805  0.4318542992871380
  0.5648656316282681  0.4353930689030392  0.4290070667399886
  0.5659827812700005  0.6038191001493001  0.4318279129304972
  0.5672269576995979  0.7704650322139720  0.4350883122013582
  0.5670771441137556  0.9365015897571657  0.4359752683360695
  0.7336923577336240  0.1028697522377878  0.4368056267532858
  0.7330624282467373  0.2689323038617199  0.4357728889465060
  0.7320421111931289  0.4353637669305737  0.4345729916642325
  0.7321088394388474  0.6026436785476940  0.4345524473404793
  0.7330409153574312  0.7700013083247539  0.4358000635361826
  0.7336973886882967  0.9367252409085927  0.4368004051987347
  0.9000971300455131  0.1029868485787737  0.4369732509819561
  0.8997612240420596  0.2688914410524985  0.4366671160159162
  0.8989197873971859  0.4353118883397180  0.4359420679717885
  0.8985781662344173  0.6022532896075201  0.4355427237119353
  0.8989417323212756  0.7695269117662049  0.4359421053915382
  0.8997576631220972  0.9367594496449229  0.4366483862477933
  0.3877028598682649  0.2768247171927244  0.6367398766761690
  0.4475468751528381  0.2805200342640861  0.6737306780955976
  0.5084344021866185  0.3341393326469885  0.6663154084797547
  0.4032650962710404  0.2711069145373853  0.5998538028468282
  0.4528279307905073  0.2250084207463102  0.6721080046286808
  0.4274137322202552  0.2857623725576297  0.7145435394920889
 
  0.00000000E+00  0.00000000E+00  0.00000000E+00
  0.00000000E+00  0.00000000E+00  0.00000000E+00
  0.00000000E+00  0.00000000E+00  0.00000000E+00
  0.00000000E+00  0.00000000E+00  0.00000000E+00
  0.00000000E+00  0.00000000E+00  0.00000000E+00
  0.00000000E+00  0.00000000E+00  0.00000000E+00
  0.00000000E+00  0.00000000E+00  0.00000000E+00
  0.00000000E+00  0.00000000E+00  0.00000000E+00
  0.00000000E+00  0.00000000E+00  0.00000000E+00
  0.00000000E+00  0.00000000E+00  0.00000000E+00
  0.00000000E+00  0.00000000E+00  0.00000000E+00
  0.00000000E+00  0.00000000E+00  0.00000000E+00
  0.00000000E+00  0.00000000E+00  0.00000000E+00
  0.00000000E+00  0.00000000E+00  0.00000000E+00
  0.00000000E+00  0.00000000E+00  0.00000000E+00
  0.00000000E+00  0.00000000E+00  0.00000000E+00
  0.00000000E+00  0.00000000E+00  0.00000000E+00
  0.00000000E+00  0.00000000E+00  0.00000000E+00
  0.00000000E+00  0.00000000E+00  0.00000000E+00
  0.00000000E+00  0.00000000E+00  0.00000000E+00
  0.00000000E+00  0.00000000E+00  0.00000000E+00
  0.00000000E+00  0.00000000E+00  0.00000000E+00
  0.00000000E+00  0.00000000E+00  0.00000000E+00
  0.00000000E+00  0.00000000E+00  0.00000000E+00
  0.00000000E+00  0.00000000E+00  0.00000000E+00
  0.00000000E+00  0.00000000E+00  0.00000000E+00
  0.00000000E+00  0.00000000E+00  0.00000000E+00
  0.00000000E+00  0.00000000E+00  0.00000000E+00
  0.00000000E+00  0.00000000E+00  0.00000000E+00
  0.00000000E+00  0.00000000E+00  0.00000000E+00
  0.00000000E+00  0.00000000E+00  0.00000000E+00
  0.00000000E+00  0.00000000E+00  0.00000000E+00
  0.00000000E+00  0.00000000E+00  0.00000000E+00
  0.00000000E+00  0.00000000E+00  0.00000000E+00
  0.00000000E+00  0.00000000E+00  0.00000000E+00
  0.00000000E+00  0.00000000E+00  0.00000000E+00
  0.00000000E+00  0.00000000E+00  0.00000000E+00
  0.00000000E+00  0.00000000E+00  0.00000000E+00
  0.00000000E+00  0.00000000E+00  0.00000000E+00
  0.00000000E+00  0.00000000E+00  0.00000000E+00
  0.00000000E+00  0.00000000E+00  0.00000000E+00
  0.00000000E+00  0.00000000E+00  0.00000000E+00
  0.00000000E+00  0.00000000E+00  0.00000000E+00
  0.00000000E+00  0.00000000E+00  0.00000000E+00
  0.00000000E+00  0.00000000E+00  0.00000000E+00
  0.00000000E+00  0.00000000E+00  0.00000000E+00
  0.00000000E+00  0.00000000E+00  0.00000000E+00
  0.00000000E+00  0.00000000E+00  0.00000000E+00
  0.00000000E+00  0.00000000E+00  0.00000000E+00
  0.00000000E+00  0.00000000E+00  0.00000000E+00
  0.00000000E+00  0.00000000E+00  0.00000000E+00
  0.00000000E+00  0.00000000E+00  0.00000000E+00
  0.00000000E+00  0.00000000E+00  0.00000000E+00
  0.00000000E+00  0.00000000E+00  0.00000000E+00
  0.00000000E+00  0.00000000E+00  0.00000000E+00
  0.00000000E+00  0.00000000E+00  0.00000000E+00
  0.00000000E+00  0.00000000E+00  0.00000000E+00
  0.00000000E+00  0.00000000E+00  0.00000000E+00
  0.00000000E+00  0.00000000E+00  0.00000000E+00
  0.00000000E+00  0.00000000E+00  0.00000000E+00
  0.00000000E+00  0.00000000E+00  0.00000000E+00
  0.00000000E+00  0.00000000E+00  0.00000000E+00
  0.00000000E+00  0.00000000E+00  0.00000000E+00
  0.00000000E+00  0.00000000E+00  0.00000000E+00
  0.00000000E+00  0.00000000E+00  0.00000000E+00
  0.00000000E+00  0.00000000E+00  0.00000000E+00
  0.00000000E+00  0.00000000E+00  0.00000000E+00
  0.00000000E+00  0.00000000E+00  0.00000000E+00
  0.00000000E+00  0.00000000E+00  0.00000000E+00
  0.00000000E+00  0.00000000E+00  0.00000000E+00
  0.00000000E+00  0.00000000E+00  0.00000000E+00
  0.00000000E+00  0.00000000E+00  0.00000000E+00
  0.00000000E+00  0.00000000E+00  0.00000000E+00
  0.00000000E+00  0.00000000E+00  0.00000000E+00
  0.00000000E+00  0.00000000E+00  0.00000000E+00
  0.00000000E+00  0.00000000E+00  0.00000000E+00
  0.00000000E+00  0.00000000E+00  0.00000000E+00
  0.00000000E+00  0.00000000E+00  0.00000000E+00
  0.00000000E+00  0.00000000E+00  0.00000000E+00
  0.00000000E+00  0.00000000E+00  0.00000000E+00
  0.00000000E+00  0.00000000E+00  0.00000000E+00
  0.00000000E+00  0.00000000E+00  0.00000000E+00
  0.00000000E+00  0.00000000E+00  0.00000000E+00
  0.00000000E+00  0.00000000E+00  0.00000000E+00
  0.00000000E+00  0.00000000E+00  0.00000000E+00
  0.00000000E+00  0.00000000E+00  0.00000000E+00
  0.00000000E+00  0.00000000E+00  0.00000000E+00
  0.00000000E+00  0.00000000E+00  0.00000000E+00
  0.00000000E+00  0.00000000E+00  0.00000000E+00
  0.00000000E+00  0.00000000E+00  0.00000000E+00
  0.00000000E+00  0.00000000E+00  0.00000000E+00
  0.00000000E+00  0.00000000E+00  0.00000000E+00
  0.00000000E+00  0.00000000E+00  0.00000000E+00
  0.00000000E+00  0.00000000E+00  0.00000000E+00
  0.00000000E+00  0.00000000E+00  0.00000000E+00
  0.00000000E+00  0.00000000E+00  0.00000000E+00
  0.00000000E+00  0.00000000E+00  0.00000000E+00
  0.00000000E+00  0.00000000E+00  0.00000000E+00
  0.00000000E+00  0.00000000E+00  0.00000000E+00
  0.00000000E+00  0.00000000E+00  0.00000000E+00
  0.00000000E+00  0.00000000E+00  0.00000000E+00
  0.00000000E+00  0.00000000E+00  0.00000000E+00
  0.00000000E+00  0.00000000E+00  0.00000000E+00
  0.00000000E+00  0.00000000E+00  0.00000000E+00
  0.00000000E+00  0.00000000E+00  0.00000000E+00
  0.00000000E+00  0.00000000E+00  0.00000000E+00
  0.00000000E+00  0.00000000E+00  0.00000000E+00
  0.00000000E+00  0.00000000E+00  0.00000000E+00
  0.00000000E+00  0.00000000E+00  0.00000000E+00
  0.00000000E+00  0.00000000E+00  0.00000000E+00
  0.00000000E+00  0.00000000E+00  0.00000000E+00
  0.00000000E+00  0.00000000E+00  0.00000000E+00
