H4 W36 C1 S70 O1
1.0
  18.9192008971999996    0.0000000000000000    0.0000000000000000
  -9.4596004485999998   16.3845085963000017    0.0000000000000000
  -0.0000000000000000   -0.0000000000000000   24.6459999084000003
W S O C H
36 70 1 1 4
direct
   0.1226566160250917    0.0484439771467569    0.5001900495340992 W
   0.1252369424283174    0.2153962395794382    0.5004558556699568 W
   0.1226566375630086    0.3797681917909422    0.5001900466938817 W
   0.1206310601064009    0.5459195574544055    0.5006923478805250 W
   0.1200834672307074    0.7128195021141758    0.5010920320092522 W
   0.1206310485561333    0.8802670368922133    0.5006923490166120 W
   0.2882439803792913    0.0485894944191235    0.4975481139566423 W
   0.2945356606873928    0.2177156022735737    0.4930843161229621 W
   0.2945356774811425    0.3823756094470108    0.4930843119437849 W
   0.2882440061553919    0.5452100399896812    0.4975481079921856 W
   0.2871683375080737    0.7126203522293427    0.5003391305214260 W
   0.2871683201342274    0.8801035120001329    0.5003391323067055 W
   0.4536297193916918    0.0472564315523536    0.5000337369067228 W
   0.4507021801895613    0.2151303613582883    0.4945280569381956 W
   0.4486654634911733    0.3771105046992564    0.4896828720220300 W
   0.4507021975242346    0.5411273747326283    0.4945280537733819 W
   0.4536297415622241    0.7119288370744384    0.5000337260327472 W
   0.4536315640876049    0.8795935525496623    0.5013383579048362 W
   0.6204091899552581    0.0465132463705441    0.5022936406723240 W
   0.6188453559364639    0.2129844854662313    0.5007498283238125 W
   0.6151546987280698    0.3777653326385224    0.4980820500537335 W
   0.6151546998662050    0.5429449112077060    0.4980820479438576 W
   0.6188453885580927    0.7114164300070763    0.5007498250372752 W
   0.6204091969390897    0.8794514840838112    0.5022936397391097 W
   0.7877537416679623    0.0466546417615858    0.5033024704253228 W
   0.7870567913520619    0.2131672483475469    0.5028143029318263 W
   0.7853628333591386    0.3791107625530319    0.5016604718799034 W
   0.7844316356835414    0.5449935934005659    0.5009791620502188 W
   0.7853628444943919    0.7118076291670833    0.5016604817800900 W
   0.7870568002193239    0.8794450872486921    0.5028143123045440 W
   0.9554664103742952    0.0474267633010049    0.5027822489270004 W
   0.9554664151719581    0.2135952001508487    0.5027822439769072 W
   0.9540818559671516    0.3796266819015016    0.5021814730585012 W
   0.9527981891617012    0.5458182166671466    0.5017222000307455 W
   0.9527981829127194    0.7125355142256985    0.5017222044127954 W
   0.9540818494608421    0.8800107128788738    0.5021814863669489 W
   0.0698886488768596    0.1050822188459655    0.5653980740400253 S
   0.0698886538965820    0.2703619846737630    0.5653980701854444 S
   0.0673793734200396    0.4353606923927418    0.5651240411736331 S
   0.0651077616325265    0.6015469499174192    0.5652414116195777 S
   0.0651077696342269    0.7691163498089731    0.5652414127962393 S
   0.0673793885370648    0.9375742240123712    0.5651240452716613 S
   0.2395585653334323    0.1105231089694649    0.5608279219091065 S
   0.2492457650298618    0.2774006566804439    0.5599715589667043 S
   0.2395585839963335    0.4345910125499880    0.5608279210570412 S
   0.2332577876277475    0.6002550717463044    0.5634949243940653 S
   0.2319579199496104    0.7687567231552126    0.5646530885629402 S
   0.2332577698590008    0.9385582462004789    0.5634949263416431 S
   0.3978907841004448    0.1076419626889680    0.5614384709254144 S
   0.3978908025968264    0.5958043761046623    0.5614384662187683 S
   0.3977913565475628    0.7669491021438208    0.5647403355810361 S
   0.3977913149137887    0.9363977648047784    0.5647403420729618 S
   0.5632753940108203    0.1025126195349732    0.5653083808643288 S
   0.5570302581714173    0.2682972675172388    0.5620052488630886 S
   0.5482396019190959    0.4268975735762695    0.5596393117448252 S
   0.5570302776210851    0.5942885460842485    0.5620052452925294 S
   0.5632753994369479    0.7663183133142837    0.5653083759142354 S
   0.5639934725305537    0.9347745062344234    0.5662146408287454 S
   0.7312076666326663    0.1021088848143912    0.5670631761723195 S
   0.7291539107525484    0.2685187550265328    0.5659494894847429 S
   0.7253812469207688    0.4329664147878060    0.5641720983396156 S
   0.7253812466227907    0.5979703754565144    0.5641721025999418 S
   0.7291538966179099    0.7661906967923898    0.5659495032800850 S
   0.7312076638557110    0.9346543252116953    0.5670631793777079 S
   0.8999947556846529    0.1027751586874121    0.5672323968172721 S
   0.8991758565240888    0.2691460761292432    0.5667774291129113 S
   0.8970304248952686    0.4348517114275219    0.5659364261072700 S
   0.8958208780434438    0.6006882049073199    0.5655049292299055 S
   0.8970304229024287    0.7677342511719036    0.5659364414850190 S
   0.8991758666491099    0.9355853352514744    0.5667774413258465 S
   0.0652100563976930    0.1029962583303283    0.4374688090185889 S
   0.0652100703340658    0.2677693501891626    0.4374688103981231 S
   0.0642169060543199    0.4343071693103409    0.4370890786349655 S
   0.0637191954229665    0.6012655934169843    0.4372087229184581 S
   0.0637191727636653    0.7680091285033493    0.4372087259209738 S
   0.0642168716065192    0.9354652606097212    0.4370890815969066 S
   0.2308215454356026    0.1021188003391105    0.4329076693035114 S
   0.2316811059694075    0.2686183236520067    0.4316404522250371 S
   0.2308215674518973    0.4342582974143488    0.4329076660981231 S
   0.2307467302660689    0.6020728161006714    0.4355624620586514 S
   0.2309562550836496    0.7682558920834858    0.4365982001944492 S
   0.2307467048370343    0.9342294394142920    0.4355624661161049 S
   0.3996305373946942    0.1018925059111631    0.4332100219379225 S
   0.3998844335429224    0.2686394930388065    0.4260431591343647 S
   0.3998844560908860    0.4368004946828958    0.4260431547117403 S
   0.3996305722669541    0.6032935844796825    0.4332100142287608 S
   0.3986923000539320    0.7691434041449269    0.4365470875593489 S
   0.3986922812928340    0.9351044227508833    0.4365470927123149 S
   0.5658456518890822    0.1017437886648887    0.4370647836580027 S
   0.5645265692615484    0.2671145401326423    0.4337929992183494 S
   0.5634374535185237    0.4344964983940767    0.4308238187317805 S
   0.5645265918514357    0.6029675884347839    0.4337929973924953 S
   0.5658457010159397    0.7696574238941614    0.4370647740418377 S
   0.5657242791099544    0.9356399078372034    0.4379940257697091 S
   0.7323808194101856    0.1020176020034843    0.4388459291649066 S
   0.7316045039479702    0.2680003240372800    0.4378132204050836 S
   0.7304857176766907    0.4343847985533861    0.4365447016143591 S
   0.7304857334509248    0.6016564850303858    0.4365447051443437 S
   0.7316045451578279    0.7691597503171923    0.4378132215005961 S
   0.7323808407074937    0.9359187706406341    0.4388459324108694 S
   0.8988564111619748    0.1022059805552033    0.4390456095194586 S
   0.8984408362430041    0.2680203242098866    0.4387012038539734 S
   0.8974265137813437    0.4343898622389714    0.4379665488159432 S
   0.8969846262629370    0.6012700860753735    0.4375802592340481 S
   0.8974261026584942    0.7685926881471313    0.4379666260292844 S
   0.8984408457200209    0.9359760638450341    0.4387012123340513 S
   0.4431174969770263    0.2682146466078570    0.5850767615269428 O
   0.4722697192107074    0.3131115195092584    0.6355185875685101 C
   0.5267719845206247    0.3125546288374161    0.6504505157259298 H
   0.4261470049650152    0.2105381801794770    0.5900583841211291 H
   0.4230853569607148    0.2867381878063118    0.6658148491434164 H
   0.4876627251616331    0.3760112387130879    0.6266039539234327 H
