Mo  S                                   
    1.000000000000000     
    33.0000000000000000    0.0000000000000000    0.0000000000000000
     0.0000000000000000   25.5200004577999984    0.0000000000000000
     0.0000000000000000    0.0000000000000000   17.4729003905999996
   Mo   S    O    C 
    48    99     2     1
Direct
  0.2852516371917559  0.1045375762213112  0.4987468021570294
  0.3698747490140946  0.0350443414466710  0.4990056997856698
  0.2865592948885052  0.2190249132354296  0.4988685717073693
  0.3704220233357134  0.1594662921188359  0.4987848307038334
  0.4527309536705175  0.0971019828925321  0.4990940572323197
  0.5355884019219914  0.0347111345015421  0.4997599168000093
  0.2878476044497233  0.3357607396026907  0.4991291037579941
  0.3710716395901343  0.2827656647758445  0.4989742255734910
  0.4534684984761697  0.2215648725511343  0.4989600506059801
  0.5357782295228404  0.1592380340493449  0.4995870058457186
  0.6176203391672672  0.0970325814243083  0.5011137887406534
  0.2867467310927125  0.4675853917467379  0.5002887799980229
  0.3685708384271607  0.4070302184916699  0.4996865633508989
  0.4522285726548247  0.3466259746056366  0.4993993329151181
  0.5353640743600394  0.2847957792946616  0.4996609677503230
  0.2866399688146899  0.6063725837041432  0.5019414774837969
  0.3666087162564580  0.5355799513419797  0.5009032883711413
  0.4500810831486959  0.4719243095762522  0.5002794925452250
  0.5342612966041784  0.4096147613376857  0.5000798624451974
  0.2855725458528156  0.7185027424227286  0.5016609875057583
  0.3693429156897423  0.6605511334244625  0.5007545909747506
  0.4509823104344477  0.5968247795168296  0.5009237654453713
  0.5337613917086017  0.5344221589465832  0.5006127636501674
  0.4519015529121191  0.7223262856588093  0.5010259803412609
  0.5341092225366353  0.6591390388062948  0.5007788975826770
  0.6187880224692037  0.2222691315531691  0.5011768017042399
  0.7008602112352236  0.0360926297080795  0.4991681469003524
  0.6167586084161911  0.3474153342940625  0.5012055718353423
  0.7006324539238804  0.1583559360228648  0.5080096253696738
  0.6175931402924633  0.4721425903781622  0.5004240746679898
  0.7002513668669295  0.2866806550945853  0.5077211694631103
  0.6159620595492399  0.5967760970150167  0.4995269237796620
  0.6998835218755772  0.4087022987136777  0.4994615309249255
  0.6177581918709336  0.7216515013212899  0.4994638593046759
  0.6994863449296531  0.5359809404747011  0.5011250665226612
  0.6993377907018257  0.6577183040101886  0.4934150949290412
  0.2855100087343132  0.8561828908931943  0.4994405868807377
  0.3694953632921170  0.7854649912985039  0.5006387387649340
  0.2856391503559905  0.9657025006566897  0.4988670963080040
  0.3698226797501931  0.9103528238013396  0.4996285770529809
  0.4521915967275447  0.8474231851043328  0.5003990062678909
  0.5348045557534604  0.7846901902060708  0.5005670897485217
  0.4524903890569902  0.9723786104873540  0.4996243711339403
  0.5351502915868167  0.9094658122561725  0.5001720890552193
  0.6169261069795979  0.8468002043710712  0.4993456385104409
  0.6188072331054997  0.9718878000764377  0.5001782638172898
  0.6997690060426436  0.7851504518164063  0.4931298699736573
  0.7005259626830949  0.9072721426729657  0.5015916295131504
  0.3121938980584957  0.0352761979311822  0.4131933093134279
  0.3120540108312966  0.0354036738217829  0.5844605091905208
  0.3149747301174415  0.1598172668816034  0.4063395888000656
  0.3149799174285874  0.1597603250934796  0.5912257544829700
  0.3974028913740639  0.0967949431474437  0.4093275361056214
  0.3972597781243579  0.0969478555818952  0.5885351400693182
  0.4803515425579832  0.0344817675104352  0.4100942226773014
  0.4800740053283690  0.0347585153570265  0.5888061556932200
  0.3157942224501298  0.2793538458213689  0.4071153955862741
  0.3157939091717239  0.2791075991413479  0.5908044449818775
  0.3986749499943727  0.2211727590337418  0.4092593916364820
  0.3985942199873378  0.2210470423912412  0.5884588710395704
  0.4808197680727346  0.1591163488886309  0.4095498855842976
  0.4804660304688895  0.1591755367710164  0.5887595119825448
  0.5633417458386418  0.0969955638949926  0.4101291033745653
  0.5625308428018130  0.0968391529430832  0.5900283493286125
  0.3110717417074369  0.4021578532892818  0.4103941136017468
  0.3110729631594751  0.4014461666925655  0.5887054140991523
  0.3972770712671547  0.3463417896832297  0.4097028074878182
  0.3972185896351945  0.3458917101118786  0.5889455421722900
  0.4804513671351671  0.2845707614548161  0.4097367642084464
  0.4801300475871031  0.2843183520234973  0.5887947896022396
  0.5637926265758466  0.2221545522868524  0.4108857849259167
  0.5626977327147884  0.2221124341134555  0.5890941173789770
  0.6461935619756431  0.0343808251640709  0.4114648292567793
  0.6471265511080730  0.0341621993011643  0.5896822110406106
  0.6484868564310702  0.1597612806771451  0.4138267475778008
  0.6446271156920460  0.1600000653266989  0.5919696151037073
  0.3082675255914822  0.5387984444857281  0.4131280121074994
  0.3084315818104955  0.5364848810845473  0.5891038303712364
  0.3938187237784589  0.4721550975321946  0.4115030725734172
  0.3938500917463088  0.4715567929636819  0.5890942247027979
  0.4787724717498136  0.4101517835801829  0.4106878851766851
  0.4786051522876207  0.4096705915700696  0.5890892902208904
  0.5623506233652620  0.3474688824469467  0.4103556108766000
  0.5616080938033150  0.3474595933482405  0.5901286829335817
  0.3150371690051443  0.6632464131632432  0.4067111051507624
  0.3147966860376883  0.6630794406091738  0.5942246738058898
  0.3955174411063496  0.5969846873222124  0.4117745917849263
  0.3955101305591526  0.5968471905683046  0.5899710964306308
  0.4781118508083111  0.5342582096830952  0.4114103263548117
  0.4781513311031844  0.5339036468010292  0.5899135223808400
  0.5618664493088161  0.4722520252481246  0.4112434141486361
  0.5618199267428778  0.4719945667343239  0.5895297643230180
  0.3968195221456128  0.7229215098071933  0.4114120314632075
  0.3966668114978305  0.7231691347976508  0.5903949269527757
  0.4786810061527191  0.6593923561885049  0.4116135866667818
  0.4788309715932115  0.6593584591636414  0.5903701862097464
  0.5607840079193522  0.5966463296297846  0.4105265151432533
  0.5614155190455179  0.5967802013774630  0.5902764236560074
  0.5616579523607399  0.7216884646463342  0.4113535691752830
  0.5625383215114610  0.7218041333250582  0.5894887680822052
  0.6479542553682904  0.2850162229862647  0.4137800578841606
  0.6442984964124818  0.2847121271296587  0.5919153909042478
  0.7280904064551947  0.0970558653756157  0.4165774764966770
  0.7264833715973325  0.0973435065453785  0.5923093460807252
  0.6451941804850634  0.4099698303225310  0.4115473575652686
  0.6460838156598712  0.4101217882000157  0.5899825666873966
  0.7494872217300426  0.2226845464489458  0.5061395784331992
  0.6455918800357310  0.5342680119796057  0.4107775718121758
  0.6448176780745030  0.5345175329229690  0.5892309833664271
  0.7274126301340260  0.3479827709590069  0.4165006464940291
  0.7259310848842873  0.3476833899862513  0.5923362145620175
  0.6434601579343138  0.6593702703764777  0.4087928567378469
  0.6468698995177178  0.6591440281628280  0.5871101797779232
  0.7490898431481625  0.4725367876804825  0.5005196073337927
  0.7252237490255524  0.5969197677926772  0.4083229982914673
  0.7268012175188474  0.5967259168199632  0.5844507307262035
  0.7488912789535291  0.7212350683692037  0.4955287268909316
  0.2298310157035672  0.1630208881285498  0.4991863165194772
  0.2304149518212739  0.2898383224709562  0.4992077148651219
  0.2262854539268986  0.6573093459676755  0.4864214094637589
  0.2355079371503308  0.0364772339817634  0.4985717908777403
  0.3120766275624476  0.7861124035642462  0.4143767941822247
  0.3119172535205550  0.7873820172300015  0.5863918569730018
  0.3154101788340071  0.9105607414561163  0.4053766754768233
  0.3150880271275298  0.9110414471608124  0.5931483134377444
  0.3969106174448882  0.8472064681449751  0.4107964427523498
  0.3968048563284157  0.8477935011878230  0.5896532486996051
  0.4794766257268037  0.7845984091310001  0.4113607218646251
  0.4795853460038515  0.7849420333630590  0.5900759965162763
  0.3972084165759782  0.9726235871635254  0.4099842967458898
  0.3970197139121510  0.9730054032840556  0.5888354771773692
  0.4798037270905695  0.9096059304214350  0.4106429463612145
  0.4797441750786646  0.9100385613526072  0.5895335103413402
  0.5619008808760739  0.8470002164477108  0.4102151211332838
  0.5624336285078186  0.8469749328092959  0.5899965464646471
  0.5632090447612441  0.9718649284675536  0.4109385169959054
  0.5630794191973010  0.9720694332235524  0.5891360964940944
  0.6438796742107158  0.7837462004316365  0.4087179406228643
  0.6474226770137292  0.7840997857442815  0.5869708331785191
  0.6468786811354477  0.9094089933179461  0.4108533687802804
  0.6457453076876760  0.9092449339251516  0.5890471790137823
  0.7260137817213916  0.8458982876104528  0.4087112406698168
  0.7274350883890790  0.8463068942562373  0.5845185300848925
  0.7495416989846859  0.9715304797229720  0.5007543951202535
  0.2286960125983626  0.9105781801745252  0.4989547593180816
  0.2350260390168017  0.7838009251192091  0.5002749446690729
  0.1468744822032519  0.2833530304462997  0.9952947178608582
  0.2339269984972177  0.6114509454698975  0.5541233317986141
  0.2965418447709993  0.6458948246479821  0.0474374400038187
  0.2339254800472261  0.4658545926162034  0.5011388428521855
 
  0.00000000E+00  0.00000000E+00  0.00000000E+00
  0.00000000E+00  0.00000000E+00  0.00000000E+00
  0.00000000E+00  0.00000000E+00  0.00000000E+00
  0.00000000E+00  0.00000000E+00  0.00000000E+00
  0.00000000E+00  0.00000000E+00  0.00000000E+00
  0.00000000E+00  0.00000000E+00  0.00000000E+00
  0.00000000E+00  0.00000000E+00  0.00000000E+00
  0.00000000E+00  0.00000000E+00  0.00000000E+00
  0.00000000E+00  0.00000000E+00  0.00000000E+00
  0.00000000E+00  0.00000000E+00  0.00000000E+00
  0.00000000E+00  0.00000000E+00  0.00000000E+00
  0.00000000E+00  0.00000000E+00  0.00000000E+00
  0.00000000E+00  0.00000000E+00  0.00000000E+00
  0.00000000E+00  0.00000000E+00  0.00000000E+00
  0.00000000E+00  0.00000000E+00  0.00000000E+00
  0.00000000E+00  0.00000000E+00  0.00000000E+00
  0.00000000E+00  0.00000000E+00  0.00000000E+00
  0.00000000E+00  0.00000000E+00  0.00000000E+00
  0.00000000E+00  0.00000000E+00  0.00000000E+00
  0.00000000E+00  0.00000000E+00  0.00000000E+00
  0.00000000E+00  0.00000000E+00  0.00000000E+00
  0.00000000E+00  0.00000000E+00  0.00000000E+00
  0.00000000E+00  0.00000000E+00  0.00000000E+00
  0.00000000E+00  0.00000000E+00  0.00000000E+00
  0.00000000E+00  0.00000000E+00  0.00000000E+00
  0.00000000E+00  0.00000000E+00  0.00000000E+00
  0.00000000E+00  0.00000000E+00  0.00000000E+00
  0.00000000E+00  0.00000000E+00  0.00000000E+00
  0.00000000E+00  0.00000000E+00  0.00000000E+00
  0.00000000E+00  0.00000000E+00  0.00000000E+00
  0.00000000E+00  0.00000000E+00  0.00000000E+00
  0.00000000E+00  0.00000000E+00  0.00000000E+00
  0.00000000E+00  0.00000000E+00  0.00000000E+00
  0.00000000E+00  0.00000000E+00  0.00000000E+00
  0.00000000E+00  0.00000000E+00  0.00000000E+00
  0.00000000E+00  0.00000000E+00  0.00000000E+00
  0.00000000E+00  0.00000000E+00  0.00000000E+00
  0.00000000E+00  0.00000000E+00  0.00000000E+00
  0.00000000E+00  0.00000000E+00  0.00000000E+00
  0.00000000E+00  0.00000000E+00  0.00000000E+00
  0.00000000E+00  0.00000000E+00  0.00000000E+00
  0.00000000E+00  0.00000000E+00  0.00000000E+00
  0.00000000E+00  0.00000000E+00  0.00000000E+00
  0.00000000E+00  0.00000000E+00  0.00000000E+00
  0.00000000E+00  0.00000000E+00  0.00000000E+00
  0.00000000E+00  0.00000000E+00  0.00000000E+00
  0.00000000E+00  0.00000000E+00  0.00000000E+00
  0.00000000E+00  0.00000000E+00  0.00000000E+00
  0.00000000E+00  0.00000000E+00  0.00000000E+00
  0.00000000E+00  0.00000000E+00  0.00000000E+00
  0.00000000E+00  0.00000000E+00  0.00000000E+00
  0.00000000E+00  0.00000000E+00  0.00000000E+00
  0.00000000E+00  0.00000000E+00  0.00000000E+00
  0.00000000E+00  0.00000000E+00  0.00000000E+00
  0.00000000E+00  0.00000000E+00  0.00000000E+00
  0.00000000E+00  0.00000000E+00  0.00000000E+00
  0.00000000E+00  0.00000000E+00  0.00000000E+00
  0.00000000E+00  0.00000000E+00  0.00000000E+00
  0.00000000E+00  0.00000000E+00  0.00000000E+00
  0.00000000E+00  0.00000000E+00  0.00000000E+00
  0.00000000E+00  0.00000000E+00  0.00000000E+00
  0.00000000E+00  0.00000000E+00  0.00000000E+00
  0.00000000E+00  0.00000000E+00  0.00000000E+00
  0.00000000E+00  0.00000000E+00  0.00000000E+00
  0.00000000E+00  0.00000000E+00  0.00000000E+00
  0.00000000E+00  0.00000000E+00  0.00000000E+00
  0.00000000E+00  0.00000000E+00  0.00000000E+00
  0.00000000E+00  0.00000000E+00  0.00000000E+00
  0.00000000E+00  0.00000000E+00  0.00000000E+00
  0.00000000E+00  0.00000000E+00  0.00000000E+00
  0.00000000E+00  0.00000000E+00  0.00000000E+00
  0.00000000E+00  0.00000000E+00  0.00000000E+00
  0.00000000E+00  0.00000000E+00  0.00000000E+00
  0.00000000E+00  0.00000000E+00  0.00000000E+00
  0.00000000E+00  0.00000000E+00  0.00000000E+00
  0.00000000E+00  0.00000000E+00  0.00000000E+00
  0.00000000E+00  0.00000000E+00  0.00000000E+00
  0.00000000E+00  0.00000000E+00  0.00000000E+00
  0.00000000E+00  0.00000000E+00  0.00000000E+00
  0.00000000E+00  0.00000000E+00  0.00000000E+00
  0.00000000E+00  0.00000000E+00  0.00000000E+00
  0.00000000E+00  0.00000000E+00  0.00000000E+00
  0.00000000E+00  0.00000000E+00  0.00000000E+00
  0.00000000E+00  0.00000000E+00  0.00000000E+00
  0.00000000E+00  0.00000000E+00  0.00000000E+00
  0.00000000E+00  0.00000000E+00  0.00000000E+00
  0.00000000E+00  0.00000000E+00  0.00000000E+00
  0.00000000E+00  0.00000000E+00  0.00000000E+00
  0.00000000E+00  0.00000000E+00  0.00000000E+00
  0.00000000E+00  0.00000000E+00  0.00000000E+00
  0.00000000E+00  0.00000000E+00  0.00000000E+00
  0.00000000E+00  0.00000000E+00  0.00000000E+00
  0.00000000E+00  0.00000000E+00  0.00000000E+00
  0.00000000E+00  0.00000000E+00  0.00000000E+00
  0.00000000E+00  0.00000000E+00  0.00000000E+00
  0.00000000E+00  0.00000000E+00  0.00000000E+00
  0.00000000E+00  0.00000000E+00  0.00000000E+00
  0.00000000E+00  0.00000000E+00  0.00000000E+00
  0.00000000E+00  0.00000000E+00  0.00000000E+00
  0.00000000E+00  0.00000000E+00  0.00000000E+00
  0.00000000E+00  0.00000000E+00  0.00000000E+00
  0.00000000E+00  0.00000000E+00  0.00000000E+00
  0.00000000E+00  0.00000000E+00  0.00000000E+00
  0.00000000E+00  0.00000000E+00  0.00000000E+00
  0.00000000E+00  0.00000000E+00  0.00000000E+00
  0.00000000E+00  0.00000000E+00  0.00000000E+00
  0.00000000E+00  0.00000000E+00  0.00000000E+00
  0.00000000E+00  0.00000000E+00  0.00000000E+00
  0.00000000E+00  0.00000000E+00  0.00000000E+00
  0.00000000E+00  0.00000000E+00  0.00000000E+00
  0.00000000E+00  0.00000000E+00  0.00000000E+00
  0.00000000E+00  0.00000000E+00  0.00000000E+00
  0.00000000E+00  0.00000000E+00  0.00000000E+00
  0.00000000E+00  0.00000000E+00  0.00000000E+00
  0.00000000E+00  0.00000000E+00  0.00000000E+00
  0.00000000E+00  0.00000000E+00  0.00000000E+00
  0.00000000E+00  0.00000000E+00  0.00000000E+00
  0.00000000E+00  0.00000000E+00  0.00000000E+00
  0.00000000E+00  0.00000000E+00  0.00000000E+00
  0.00000000E+00  0.00000000E+00  0.00000000E+00
  0.00000000E+00  0.00000000E+00  0.00000000E+00
  0.00000000E+00  0.00000000E+00  0.00000000E+00
  0.00000000E+00  0.00000000E+00  0.00000000E+00
  0.00000000E+00  0.00000000E+00  0.00000000E+00
  0.00000000E+00  0.00000000E+00  0.00000000E+00
  0.00000000E+00  0.00000000E+00  0.00000000E+00
  0.00000000E+00  0.00000000E+00  0.00000000E+00
  0.00000000E+00  0.00000000E+00  0.00000000E+00
  0.00000000E+00  0.00000000E+00  0.00000000E+00
  0.00000000E+00  0.00000000E+00  0.00000000E+00
  0.00000000E+00  0.00000000E+00  0.00000000E+00
  0.00000000E+00  0.00000000E+00  0.00000000E+00
  0.00000000E+00  0.00000000E+00  0.00000000E+00
  0.00000000E+00  0.00000000E+00  0.00000000E+00
  0.00000000E+00  0.00000000E+00  0.00000000E+00
  0.00000000E+00  0.00000000E+00  0.00000000E+00
  0.00000000E+00  0.00000000E+00  0.00000000E+00
  0.00000000E+00  0.00000000E+00  0.00000000E+00
  0.00000000E+00  0.00000000E+00  0.00000000E+00
  0.00000000E+00  0.00000000E+00  0.00000000E+00
  0.00000000E+00  0.00000000E+00  0.00000000E+00
  0.00000000E+00  0.00000000E+00  0.00000000E+00
  0.00000000E+00  0.00000000E+00  0.00000000E+00
  0.00000000E+00  0.00000000E+00  0.00000000E+00
  0.00000000E+00  0.00000000E+00  0.00000000E+00
  0.00000000E+00  0.00000000E+00  0.00000000E+00
  0.00000000E+00  0.00000000E+00  0.00000000E+00
  0.00000000E+00  0.00000000E+00  0.00000000E+00
  0.00000000E+00  0.00000000E+00  0.00000000E+00
  0.00000000E+00  0.00000000E+00  0.00000000E+00
