Mo  S                                   
1.0
  33.0000000000         0.0000000000         0.0000000000
   0.0000000000        25.5200004578         0.0000000000
   0.0000000000         0.0000000000        17.4729003906
Mo S O C
48 99 2 1
Cartesian
     9.406378962         2.690680654         8.707987772
    12.187496449         0.889400798         8.717106767
     9.463882366         5.615294272         8.705349925
    12.215782241         4.080531644         8.711124039
    14.925576681         2.472637413         8.720196947
    17.655830277         0.873504644         8.733707798
     9.523179619         8.649721267         8.706304668
    12.247581924         7.240379442         8.710093193
    14.961097365         5.655001184         8.715906271
    17.671780149         4.052796923         8.728999189
    20.368546941         2.460298494         8.757519917
     9.387667590        11.937702198         8.712496221
    12.175508554        10.434179473         8.715507391
    14.932662254         8.846751106         8.718556005
    17.673606332         7.257636254         8.727946889
     9.498516020        15.434423709         8.719756172
    12.155063306        13.592312893         8.723549265
    14.901169205        12.026707966         8.726801678
    17.659052186        10.438095954         8.731396100
     9.418759765        18.236758668         8.721826614
    12.190095654        16.809447908         8.730233566
    14.905001505        15.209099197         8.736121134
    17.645534816        13.626369959         8.738337697
    14.912185310        18.408013368         8.740522110
    17.635684872        16.807817995         8.743157943
    20.421193774         5.654086877         8.754797024
    23.113134322         0.897799340         8.728371257
    20.371488321         8.848303937         8.755317804
    23.115770393         4.015166472         8.873235446
    20.406451116        12.036545685         8.742247904
    23.117601420         7.290381035         8.870655007
    20.346388651        15.223344066         8.730079332
    23.117256832        10.408260188         8.724364692
    20.387056130        18.410140810         8.732121236
    23.104052399        13.676470805         8.767632744
    23.088024774        16.788069234         8.635354221
     9.404929919        21.800296615         8.719480637
    12.182054398        20.005192732         8.731160790
     9.407383049        24.626937527         8.714526628
    12.182328452        23.208779978         8.725689023
    14.905520494        21.605299295         8.738002312
    17.639869875        20.011274418         8.744204344
    14.910863819        24.801030296         8.729315715
    17.640852293        23.196017372         8.740690032
    20.344370933        21.600720726         8.731642290
    20.401502210        24.789512248         8.745092640
    23.086052816        20.036582901         8.634924115
    23.100058127        23.148398184         8.770849616
    10.283044142         0.899162907         7.222342691
    10.276499149         0.904801880        10.203229343
    10.392987189         4.098834050         7.092553337
    10.387478764         4.101821161        10.323414268
    13.099313938         2.469556107         7.152871875
    13.091855684         2.475147297        10.278700561
    15.832001567         0.868950367         7.167369709
    15.820974428         0.876038267        10.287242944
    10.427277531         7.174154047         7.106907041
    10.421592996         7.172912065        10.306556360
    13.152949437         5.655439242         7.148440812
    13.145934322         5.656493522        10.275083591
    15.857160762         4.054424360         7.156091650
    15.843687366         4.057890639        10.285636615
    18.576330582         2.460783599         7.167487171
    18.548522076         2.458764536        10.310161393
    10.268965571        10.360727608         7.149388930
    10.261861990        10.354810578        10.272682284
    13.113548334         8.859558724         7.150160318
    13.106258959         8.854728262        10.278495094
    15.858942311         7.257304005         7.156368679
    15.845877111         7.255245337        10.283465649
    18.604132751         5.654067383         7.178439783
    18.568242532         5.655107435        10.291079163
    21.309925427         0.860177630         7.193747857
    21.336646793         0.857445893        10.308605050
    21.393001984         4.054485827         7.229145516
    21.268413088         4.064359342        10.342233898
    10.220086268        13.649446301         7.200061394
    10.211838706        13.643439613        10.236645850
    13.070540390        12.025833320         7.154512491
    13.062332096        12.018675552        10.289264773
    15.835595841        10.446384145         7.163600055
    15.824641998        10.440141616        10.286418850
    18.578798648         8.848319475         7.165819657
    18.551458922         8.851553669        10.308141422
    10.421796673        16.844324268         7.072902567
    10.410947398        16.841349863        10.376035792
    13.079028938        15.185111590         7.175944225
    13.069179307        15.179221981        10.284351835
    15.819277005        13.621274916         7.173541064
    15.812671553        13.614107409        10.294989309
    18.573600006        12.037340806         7.179317248
    18.565443097        12.032156100        10.295364748
    13.094031995        18.415367144         7.175071505
    13.084020780        18.414473880        10.293751110
    15.811096732        16.810521539         7.178015981
    15.806644895        16.806987613        10.303668624
    18.533014946        15.218781291         7.167799397
    18.542988851        15.220291865        10.309440673
    18.540402115        18.409558742         7.186082296
    18.558773504        18.408707846        10.298633794
    21.393634196         7.251868034         7.227723725
    21.270696906         7.244215990        10.340528739
    24.018749326         2.448313378         7.280561349
    23.964010876         2.459357591        10.352556368
    21.314229479        10.446175299         7.189871517
    21.342385886        10.449755332        10.306047924
    24.734893741         5.651711611         8.836804348
    21.333127863        13.628705903         7.182451768
    21.295211105        13.630964729        10.298210581
    24.021783567         8.855742796         7.277424157
    23.968239853         8.846457316        10.348390408
    21.250514424        16.826492194         7.149424859
    21.351945641        16.817680790        10.266596707
    24.732198090        12.047142911         8.743158341
    23.953898008        15.239152521         7.152627861
    23.992914038        15.227862900        10.228223739
    24.716936332        18.413306693         8.678340161
     7.581360614         4.209425125         8.706238503
     7.614043230         7.503106617         8.702616178
     7.575520987        16.623992954         8.715491823
     7.767931384         0.940013537         8.707366039
    10.284586638        20.009738598         7.230324469
    10.273984015        20.011525902        10.218520794
    10.384676388        23.209734165         7.082934271
    10.374589436        23.215545814        10.357610000
    13.081731438        21.598454988         7.172734271
    13.071559501        21.603427902        10.291080928
    15.816459509        20.007196699         7.181366230
    15.811929831        20.008959991        10.302268491
    13.085173617        24.808513934         7.164613019
    13.076282887        24.816258637        10.283257429
    15.814937449        23.199069516         7.174892878
    15.808201113        23.205712018        10.298180535
    18.531317280        21.605072458         7.169765189
    18.541571729        21.602299714        10.310860471
    18.567670171        24.789359836         7.183234138
    18.558981594        24.794521208        10.296490312
    21.247856469        19.997254367         7.150464225
    21.350499840        20.004630902        10.266449923
    21.329112832        23.197392119         7.185248320
    21.290419659        23.194254383        10.300298593
    23.950432079        21.586950241         7.153925602
    23.989149214        21.596983992        10.229864725
    24.727249201        24.778162957         8.748481993
     7.535904261        23.215280686         8.711085546
     7.765950305        19.959929725         8.714512061
     7.270754078        12.057631673         8.708252652
     7.482800000        14.803400000         9.498000000
     7.482800000        12.483400000         9.498000000
     7.482800000        13.643400000         9.498000000 
