W48 Se99                                
    1.000000000000000     
    33.0000000000000000    0.0000000000000000    0.0000000000000000
     0.0000000000000000   26.2560005188000005    0.0000000000000000
     0.0000000000000000    0.0000000000000000   18.1299991608000006
   W    Se   O    C 
    48    99     2     1
Direct
  0.2779523353493616  0.0448376530361639  0.4993348735021635
  0.2863934604096250  0.2787193874512079  0.4995405235306875
  0.2813491163691640  0.5446726016279717  0.4996376997853635
  0.2862162006842908  0.7764946394594370  0.4989455339529754
  0.4530284836158650  0.0353449806173456  0.4998419267189853
  0.4550943031809174  0.2856446496587541  0.5003445622202672
  0.4552616533676281  0.5353503338761263  0.5002475547109728
  0.4545892142190966  0.7857792185763313  0.4995428194674478
  0.6262736057848942  0.0349877150474877  0.5010691011024184
  0.6272238368647292  0.2838532586433485  0.5016805070829551
  0.6293768256870041  0.5350109675762729  0.5011311085328050
  0.6269159512970294  0.7864963718094042  0.5005635163352242
  0.2858406778833644  0.1691174867938735  0.4994327253308647
  0.2812461417484745  0.4012397555898900  0.4995549157507326
  0.2866956915752961  0.6670165115247320  0.4992925212725850
  0.2780535439946193  0.9006569290987606  0.4988567352247184
  0.4542503057922704  0.1599382568455833  0.5000798660989343
  0.4552569209992177  0.4101548520330742  0.5004274100439043
  0.4555353420844896  0.6597497527005318  0.4997921260363230
  0.4533295817766901  0.9101746022569664  0.4996049311913042
  0.6266779229639033  0.1587922322691422  0.5015493014440526
  0.6290630694676599  0.4095328591441535  0.5017368844870294
  0.6279512163449111  0.6610681699833127  0.5002262803611340
  0.6264944105272969  0.9113180626041258  0.5010907321010155
  0.3684846163122011  0.2232480580606475  0.4998123283549563
  0.3675166070194309  0.4728134299786032  0.4999410559527955
  0.3688539516756917  0.7223728529156572  0.4993519615414307
  0.3660944643018553  0.9727978713890519  0.4994071338275748
  0.5413709042768234  0.2221102704271561  0.5008232703805027
  0.5424078872671737  0.4725383115302749  0.5010654162423317
  0.5412804540661234  0.7231046580970383  0.4998173302792383
  0.5395096345568525  0.9729942657278952  0.5001974436625558
  0.7146807277537177  0.2118483997267520  0.5026409366707220
  0.7179615139453188  0.4615711275075430  0.5013424881959694
  0.7138198584175922  0.7196822738483731  0.5032978796917451
  0.7135240832491256  0.9764408389999757  0.5021653596204989
  0.3678303312546859  0.0990956977923482  0.4996220691869601
  0.3690319874258297  0.3475982711315749  0.4999670624031115
  0.3692437830030960  0.5980482475007299  0.4997124116776680
  0.3681000532247073  0.8465856476432775  0.4992152678995131
  0.5397302352373949  0.0972691282901527  0.5004770116806578
  0.5418214179267276  0.3476774776035957  0.5010970885383544
  0.5423366830622456  0.5976916821576054  0.5003545541763300
  0.5407439082986860  0.8484228583040578  0.4999309111870157
  0.7135315320420923  0.0930352458893055  0.5021582682736465
  0.7146971738128053  0.3521971625172406  0.5033816417079349
  0.7150183335354884  0.6079412516088362  0.4988708234179606
  0.7147297442279270  0.8574660153667952  0.5020310883933378
  0.2514844675659876  0.1058526714193998  0.5900318402991094
  0.2527509863538289  0.3416880327494002  0.5904454423601548
  0.2530415858098657  0.6043144269644810  0.5906447682911737
  0.2516593347625015  0.8395864550236880  0.5895257722177537
  0.4247076823898855  0.0977776176823207  0.5935368169815138
  0.4261892953890595  0.3481162237554609  0.5937851399487183
  0.4264125516526552  0.5976063179106981  0.5934807892364244
  0.4250107530604682  0.8477835723314030  0.5931670721371536
  0.5968688425320396  0.0969839156191917  0.5941923643525533
  0.5993432370212530  0.3471184093276831  0.5945191953996930
  0.6000869678537993  0.5974688874656011  0.5936794006755199
  0.5980306847319843  0.8483469074181299  0.5938999441426700
  0.4261573149558602  0.2229954036636899  0.5931593313353819
  0.4256242402836933  0.4728204549522874  0.5927167625221523
  0.4266306458227100  0.7225775390099837  0.5925421234490481
  0.4236496879808987  0.9725727473647691  0.5924936232962165
  0.5985872229963195  0.2218326048315187  0.5949120853080354
  0.6004971759243312  0.4730196717557572  0.5941860647082476
  0.5985612065589047  0.7234831674864730  0.5932212614401327
  0.5967059058778271  0.9729159414639290  0.5939142402360297
  0.3356564101826001  0.0356913941608291  0.5909528415477814
  0.3401452107947803  0.2851662371804878  0.5953177446075484
  0.3379576205744160  0.5353507967262696  0.5925187228842715
  0.3397589938976579  0.7839539708446375  0.5947672939338718
  0.5103339361570330  0.0350343540927002  0.5935050620756231
  0.5125816414975173  0.2850644233039164  0.5937615941123352
  0.5130924899701381  0.5352479235388767  0.5934359362618182
  0.5120407790094624  0.7856077069368232  0.5927838211984949
  0.6842114401994674  0.0347842025138546  0.5981979797465484
  0.6869711944424822  0.2823430737159224  0.5917776265000296
  0.6926629305383996  0.5347024974506858  0.5873315241627149
  0.6863563458846759  0.7882382628646057  0.5921396343526729
  0.3393990737139477  0.1616544672210084  0.5952084847689519
  0.3377756394748475  0.4104446892346851  0.5925834117473160
  0.3405175627258807  0.6605960221738419  0.5949816718290930
  0.3357024365902638  0.9097464145166495  0.5906547601575324
  0.5115326881428862  0.1600816188357839  0.5937002410799936
  0.5129281895578126  0.4103880365362812  0.5939972602775631
  0.5130676579195794  0.6602277856090000  0.5931257079696475
  0.5108307509801371  0.9103000184512782  0.5930363903987647
  0.6841793838329989  0.1560980395642347  0.5984446417332306
  0.6851399407304257  0.4094608998903857  0.6002223311211438
  0.6829047221354848  0.6610813546615109  0.5989137938403821
  0.6840651727677763  0.9134726071282624  0.5979043139004572
  0.2515282703994631  0.1059564266470304  0.4087217075458564
  0.2530675338033426  0.3416522922648019  0.4082939816994547
  0.2531189686175324  0.6041405246177036  0.4082997586056275
  0.2518591897132063  0.8395345781312269  0.4080103247163826
  0.4249590790348809  0.0979291203329062  0.4061499475765586
  0.4264590727207795  0.3481583815753477  0.4066972678611525
  0.4266263279382091  0.5973153948955691  0.4063496165435915
  0.4252510899598414  0.8478078649958418  0.4057322951268593
  0.5974172887316891  0.0972445125938147  0.4078434198041286
  0.5997263617678180  0.3470483816763382  0.4085470524267243
  0.6003334305614669  0.5970413191260031  0.4077231788211632
  0.5986268982871706  0.8486092048777187  0.4070481221898946
  0.2263521736569936  0.2243472275592821  0.4995155477872648
  0.2340210828597515  0.4730253165887047  0.4994458029546839
  0.2266853237098711  0.7213844110127353  0.4990373504819592
  0.2308291349508103  0.9726788388599842  0.4992922262224519
  0.4264294758622894  0.2231309147638044  0.4069793363604992
  0.4258774086277490  0.4727180023467448  0.4076831360332853
  0.4268434750465734  0.7224051563285705  0.4065824250081685
  0.4238586817193832  0.9727129821940861  0.4067460839944528
  0.5991160310346006  0.2219732040790064  0.4077291771037428
  0.6005192388219354  0.4725508022593417  0.4086381350829396
  0.5989379879958059  0.7237702160692295  0.4069988116847695
  0.5972682448732152  0.9730280223815053  0.4075899729863195
  0.3358173746179558  0.0358644932010820  0.4079665364444635
  0.3404259760038222  0.2852471115963652  0.4042412586216335
  0.3380817077389733  0.5352003508781177  0.4070314304141803
  0.3400106492456122  0.7838829264558750  0.4035207743278177
  0.5106630695195812  0.0352160309514649  0.4067888300147700
  0.5129916395950016  0.2852249950678822  0.4078213001443114
  0.5133992802728800  0.5348197680291039  0.4077514432435634
  0.5122754054087009  0.7856810870927444  0.4066114702786759
  0.6846587302594419  0.0348668823903096  0.4051939107974716
  0.6876375783730486  0.2823999627182828  0.4132035418428389
  0.6888784127714014  0.5333830689851835  0.4119082570466214
  0.6872692404530599  0.7884115710781278  0.4117121877215346
  0.3396174539461426  0.1617920805030327  0.4039807441963367
  0.3380466170789151  0.4104226727213316  0.4070725317628460
  0.3406890296800973  0.6603422867496467  0.4038935002648423
  0.3359536007499985  0.9099267204899425  0.4075871891368995
  0.5119239615169645  0.1602942121423885  0.4071745082675577
  0.5133113472855418  0.4103221274685559  0.4077329573080746
  0.5132973240011544  0.6598980566984632  0.4068144310540547
  0.5111709491574357  0.9104813616214358  0.4067277225293340
  0.6849169472370001  0.1563703982774588  0.4060329278908222
  0.6861461659317356  0.4078252417747282  0.4038996317883023
  0.6853977631946448  0.6643275046708176  0.4024378332534110
  0.6849786474852698  0.9135383849843541  0.4059263490294004
  0.7733813499646989  0.9147119275571751  0.5071575562507655
  0.7688481547036607  0.7894262222349784  0.4975112740086981
  0.7725212328622432  0.6666823846305606  0.5342024314976450
  0.7764863037747329  0.4025908676261328  0.5168805598756799
  0.7682297945789111  0.2802658649996004  0.5009428525206779
  0.7734149751647552  0.1550172741859026  0.5060999718016599
  0.7732415229801631  0.0348674282854185  0.4986992190147914
  0.7747660303657528  0.5819624280911260  0.4249085724823116
  0.7686390229779055  0.5078843520768620  0.4911693089330380
  0.7606711185551471  0.5554797640561151  0.4762197489468790
 
  0.00000000E+00  0.00000000E+00  0.00000000E+00
  0.00000000E+00  0.00000000E+00  0.00000000E+00
  0.00000000E+00  0.00000000E+00  0.00000000E+00
  0.00000000E+00  0.00000000E+00  0.00000000E+00
  0.00000000E+00  0.00000000E+00  0.00000000E+00
  0.00000000E+00  0.00000000E+00  0.00000000E+00
  0.00000000E+00  0.00000000E+00  0.00000000E+00
  0.00000000E+00  0.00000000E+00  0.00000000E+00
  0.00000000E+00  0.00000000E+00  0.00000000E+00
  0.00000000E+00  0.00000000E+00  0.00000000E+00
  0.00000000E+00  0.00000000E+00  0.00000000E+00
  0.00000000E+00  0.00000000E+00  0.00000000E+00
  0.00000000E+00  0.00000000E+00  0.00000000E+00
  0.00000000E+00  0.00000000E+00  0.00000000E+00
  0.00000000E+00  0.00000000E+00  0.00000000E+00
  0.00000000E+00  0.00000000E+00  0.00000000E+00
  0.00000000E+00  0.00000000E+00  0.00000000E+00
  0.00000000E+00  0.00000000E+00  0.00000000E+00
  0.00000000E+00  0.00000000E+00  0.00000000E+00
  0.00000000E+00  0.00000000E+00  0.00000000E+00
  0.00000000E+00  0.00000000E+00  0.00000000E+00
  0.00000000E+00  0.00000000E+00  0.00000000E+00
  0.00000000E+00  0.00000000E+00  0.00000000E+00
  0.00000000E+00  0.00000000E+00  0.00000000E+00
  0.00000000E+00  0.00000000E+00  0.00000000E+00
  0.00000000E+00  0.00000000E+00  0.00000000E+00
  0.00000000E+00  0.00000000E+00  0.00000000E+00
  0.00000000E+00  0.00000000E+00  0.00000000E+00
  0.00000000E+00  0.00000000E+00  0.00000000E+00
  0.00000000E+00  0.00000000E+00  0.00000000E+00
  0.00000000E+00  0.00000000E+00  0.00000000E+00
  0.00000000E+00  0.00000000E+00  0.00000000E+00
  0.00000000E+00  0.00000000E+00  0.00000000E+00
  0.00000000E+00  0.00000000E+00  0.00000000E+00
  0.00000000E+00  0.00000000E+00  0.00000000E+00
  0.00000000E+00  0.00000000E+00  0.00000000E+00
  0.00000000E+00  0.00000000E+00  0.00000000E+00
  0.00000000E+00  0.00000000E+00  0.00000000E+00
  0.00000000E+00  0.00000000E+00  0.00000000E+00
  0.00000000E+00  0.00000000E+00  0.00000000E+00
  0.00000000E+00  0.00000000E+00  0.00000000E+00
  0.00000000E+00  0.00000000E+00  0.00000000E+00
  0.00000000E+00  0.00000000E+00  0.00000000E+00
  0.00000000E+00  0.00000000E+00  0.00000000E+00
  0.00000000E+00  0.00000000E+00  0.00000000E+00
  0.00000000E+00  0.00000000E+00  0.00000000E+00
  0.00000000E+00  0.00000000E+00  0.00000000E+00
  0.00000000E+00  0.00000000E+00  0.00000000E+00
  0.00000000E+00  0.00000000E+00  0.00000000E+00
  0.00000000E+00  0.00000000E+00  0.00000000E+00
  0.00000000E+00  0.00000000E+00  0.00000000E+00
  0.00000000E+00  0.00000000E+00  0.00000000E+00
  0.00000000E+00  0.00000000E+00  0.00000000E+00
  0.00000000E+00  0.00000000E+00  0.00000000E+00
  0.00000000E+00  0.00000000E+00  0.00000000E+00
  0.00000000E+00  0.00000000E+00  0.00000000E+00
  0.00000000E+00  0.00000000E+00  0.00000000E+00
  0.00000000E+00  0.00000000E+00  0.00000000E+00
  0.00000000E+00  0.00000000E+00  0.00000000E+00
  0.00000000E+00  0.00000000E+00  0.00000000E+00
  0.00000000E+00  0.00000000E+00  0.00000000E+00
  0.00000000E+00  0.00000000E+00  0.00000000E+00
  0.00000000E+00  0.00000000E+00  0.00000000E+00
  0.00000000E+00  0.00000000E+00  0.00000000E+00
  0.00000000E+00  0.00000000E+00  0.00000000E+00
  0.00000000E+00  0.00000000E+00  0.00000000E+00
  0.00000000E+00  0.00000000E+00  0.00000000E+00
  0.00000000E+00  0.00000000E+00  0.00000000E+00
  0.00000000E+00  0.00000000E+00  0.00000000E+00
  0.00000000E+00  0.00000000E+00  0.00000000E+00
  0.00000000E+00  0.00000000E+00  0.00000000E+00
  0.00000000E+00  0.00000000E+00  0.00000000E+00
  0.00000000E+00  0.00000000E+00  0.00000000E+00
  0.00000000E+00  0.00000000E+00  0.00000000E+00
  0.00000000E+00  0.00000000E+00  0.00000000E+00
  0.00000000E+00  0.00000000E+00  0.00000000E+00
  0.00000000E+00  0.00000000E+00  0.00000000E+00
  0.00000000E+00  0.00000000E+00  0.00000000E+00
  0.00000000E+00  0.00000000E+00  0.00000000E+00
  0.00000000E+00  0.00000000E+00  0.00000000E+00
  0.00000000E+00  0.00000000E+00  0.00000000E+00
  0.00000000E+00  0.00000000E+00  0.00000000E+00
  0.00000000E+00  0.00000000E+00  0.00000000E+00
  0.00000000E+00  0.00000000E+00  0.00000000E+00
  0.00000000E+00  0.00000000E+00  0.00000000E+00
  0.00000000E+00  0.00000000E+00  0.00000000E+00
  0.00000000E+00  0.00000000E+00  0.00000000E+00
  0.00000000E+00  0.00000000E+00  0.00000000E+00
  0.00000000E+00  0.00000000E+00  0.00000000E+00
  0.00000000E+00  0.00000000E+00  0.00000000E+00
  0.00000000E+00  0.00000000E+00  0.00000000E+00
  0.00000000E+00  0.00000000E+00  0.00000000E+00
  0.00000000E+00  0.00000000E+00  0.00000000E+00
  0.00000000E+00  0.00000000E+00  0.00000000E+00
  0.00000000E+00  0.00000000E+00  0.00000000E+00
  0.00000000E+00  0.00000000E+00  0.00000000E+00
  0.00000000E+00  0.00000000E+00  0.00000000E+00
  0.00000000E+00  0.00000000E+00  0.00000000E+00
  0.00000000E+00  0.00000000E+00  0.00000000E+00
  0.00000000E+00  0.00000000E+00  0.00000000E+00
  0.00000000E+00  0.00000000E+00  0.00000000E+00
  0.00000000E+00  0.00000000E+00  0.00000000E+00
  0.00000000E+00  0.00000000E+00  0.00000000E+00
  0.00000000E+00  0.00000000E+00  0.00000000E+00
  0.00000000E+00  0.00000000E+00  0.00000000E+00
  0.00000000E+00  0.00000000E+00  0.00000000E+00
  0.00000000E+00  0.00000000E+00  0.00000000E+00
  0.00000000E+00  0.00000000E+00  0.00000000E+00
  0.00000000E+00  0.00000000E+00  0.00000000E+00
  0.00000000E+00  0.00000000E+00  0.00000000E+00
  0.00000000E+00  0.00000000E+00  0.00000000E+00
  0.00000000E+00  0.00000000E+00  0.00000000E+00
  0.00000000E+00  0.00000000E+00  0.00000000E+00
  0.00000000E+00  0.00000000E+00  0.00000000E+00
  0.00000000E+00  0.00000000E+00  0.00000000E+00
  0.00000000E+00  0.00000000E+00  0.00000000E+00
  0.00000000E+00  0.00000000E+00  0.00000000E+00
  0.00000000E+00  0.00000000E+00  0.00000000E+00
  0.00000000E+00  0.00000000E+00  0.00000000E+00
  0.00000000E+00  0.00000000E+00  0.00000000E+00
  0.00000000E+00  0.00000000E+00  0.00000000E+00
  0.00000000E+00  0.00000000E+00  0.00000000E+00
  0.00000000E+00  0.00000000E+00  0.00000000E+00
  0.00000000E+00  0.00000000E+00  0.00000000E+00
  0.00000000E+00  0.00000000E+00  0.00000000E+00
  0.00000000E+00  0.00000000E+00  0.00000000E+00
  0.00000000E+00  0.00000000E+00  0.00000000E+00
  0.00000000E+00  0.00000000E+00  0.00000000E+00
  0.00000000E+00  0.00000000E+00  0.00000000E+00
  0.00000000E+00  0.00000000E+00  0.00000000E+00
  0.00000000E+00  0.00000000E+00  0.00000000E+00
  0.00000000E+00  0.00000000E+00  0.00000000E+00
  0.00000000E+00  0.00000000E+00  0.00000000E+00
  0.00000000E+00  0.00000000E+00  0.00000000E+00
  0.00000000E+00  0.00000000E+00  0.00000000E+00
  0.00000000E+00  0.00000000E+00  0.00000000E+00
  0.00000000E+00  0.00000000E+00  0.00000000E+00
  0.00000000E+00  0.00000000E+00  0.00000000E+00
  0.00000000E+00  0.00000000E+00  0.00000000E+00
  0.00000000E+00  0.00000000E+00  0.00000000E+00
  0.00000000E+00  0.00000000E+00  0.00000000E+00
  0.00000000E+00  0.00000000E+00  0.00000000E+00
  0.00000000E+00  0.00000000E+00  0.00000000E+00
  0.00000000E+00  0.00000000E+00  0.00000000E+00
  0.00000000E+00  0.00000000E+00  0.00000000E+00
  0.00000000E+00  0.00000000E+00  0.00000000E+00
  0.00000000E+00  0.00000000E+00  0.00000000E+00
  0.00000000E+00  0.00000000E+00  0.00000000E+00
  0.00000000E+00  0.00000000E+00  0.00000000E+00
  0.00000000E+00  0.00000000E+00  0.00000000E+00
