W48 Se99                                
    1.000000000000000     
    33.0000000000000000    0.0000000000000000    0.0000000000000000
     0.0000000000000000   26.2560005188000005    0.0000000000000000
     0.0000000000000000    0.0000000000000000   18.1299991608000006
   W    Se   O    C 
    48    99     2     1
Direct
  0.2767036297129501  0.0463039547773058  0.5000323831414136
  0.2857804003185906  0.2801549896535657  0.5000494723886606
  0.2825975934003522  0.5422810022205256  0.5000137880609977
  0.2867891641024092  0.7751744834099716  0.5000619977580566
  0.4517650502466102  0.0353929780504656  0.4999910090742475
  0.4548072212304638  0.2860081054482027  0.4997112453688147
  0.4562181409405985  0.5354627248324808  0.4994533289485045
  0.4544891747224200  0.7854716834307106  0.4992372682670924
  0.6250230615662805  0.0351309136241072  0.4995944508220991
  0.6269413199474797  0.2840243847021506  0.5006111722121492
  0.6305680484812241  0.5354027256462274  0.5015178464522596
  0.6267492925961350  0.7865644289638712  0.5004919573952012
  0.2850882874762413  0.1700318543266544  0.5000132921251843
  0.2819452634954316  0.4041162806354776  0.5000401600531929
  0.2874404088001029  0.6658979609760517  0.5000399576642403
  0.2773257450409383  0.8979592143840546  0.5000573989317294
  0.4531674261697055  0.1600829332487314  0.4999542184129838
  0.4559069663348730  0.4102641602254833  0.4995950523353189
  0.4561728731136280  0.6596732493308093  0.4993028981747998
  0.4525981727583597  0.9101035910728693  0.4997007671104685
  0.6254807394988602  0.1587905812668171  0.4999953417650110
  0.6296138335920199  0.4101621175076100  0.5014209289598414
  0.6283867538738145  0.6611935397609584  0.5013254232185923
  0.6257581698514317  0.9114284810483197  0.5001494924106008
  0.3676125510437147  0.2235830242742184  0.4999604247878402
  0.3685821742134835  0.4728734650919996  0.4997208460377068
  0.3692563116592705  0.7219207974671484  0.4996369529657233
  0.3648998184543245  0.9725445088017711  0.5000177251318630
  0.5405917343466871  0.2223221090848846  0.4998904302987255
  0.5431454561825668  0.4729172541881272  0.5002535145671857
  0.5416341557636091  0.7230777349339128  0.4997016091414110
  0.5384904566126545  0.9729313888060916  0.4997497044553668
  0.7136128059635682  0.2114681014225919  0.5004414442980323
  0.7186614943187581  0.4628156825962879  0.5032822612224221
  0.7137920181278321  0.7182989879158653  0.5052003458933868
  0.7122845453160962  0.9767137310561321  0.5000468196946660
  0.3661765755680135  0.0991856452945315  0.5000330813248755
  0.3693900740194939  0.3480962882594424  0.4998189801086126
  0.3705226471029045  0.5978010053219610  0.4995783345039025
  0.3674095872262264  0.8459277744517066  0.4998380960955773
  0.5384978732223561  0.0974009452140439  0.4999074865043633
  0.5420959713252896  0.3479645944471985  0.5001221837372718
  0.5430174105089328  0.5978091049538696  0.5000245540444052
  0.5402815816938599  0.8484787128146679  0.4995424350081252
  0.7122067768258920  0.0931617611357295  0.4994948377656794
  0.7149960669632525  0.3517742221327861  0.5024684369384095
  0.7163005345901514  0.6088758347925550  0.5031572274540552
  0.7141048946410548  0.8579241369113525  0.5011531546878741
  0.2501177247302982  0.1069764371781272  0.5905707637585734
  0.2529821444612426  0.3441654830831996  0.5905094182628990
  0.2542636793124153  0.6026185983340688  0.5906567419105890
  0.2512974647028558  0.8374749920354716  0.5912156184875439
  0.4233985805810940  0.0979702013562723  0.5935162075918577
  0.4265869044990007  0.3485575057006571  0.5934174011661203
  0.4276345425704938  0.5974586017593890  0.5933378459965877
  0.4246866088481692  0.8473596840196362  0.5930365891778860
  0.5958197881646436  0.0971061300388413  0.5930475138953223
  0.5996072294628728  0.3474024827103701  0.5936109377016222
  0.6003036885082678  0.5974603636702880  0.5938769573283963
  0.5976702622458190  0.8486498866364331  0.5933608441737791
  0.4255500675337002  0.2234656973721717  0.5928099942223066
  0.4267919328114940  0.4729123063847778  0.5921614189320122
  0.4271270780136492  0.7222067095735233  0.5924521827299469
  0.4227268189828437  0.9724657941973102  0.5927405896539931
  0.5979760414393384  0.2219633515481394  0.5935846848624745
  0.6009411087763630  0.4732111993031206  0.5937794260943675
  0.5986625112964492  0.7237707326015048  0.5935064718943923
  0.5959276676948553  0.9730531970986861  0.5928968123639393
  0.3343461373815106  0.0355251599741990  0.5916464101149471
  0.3399144978698816  0.2860817542441754  0.5952933700161364
  0.3394081110451443  0.5352912958703004  0.5925185151291316
  0.3401201538355427  0.7829463997465904  0.5960034128992694
  0.5093841356279150  0.0350914998495584  0.5932439039539520
  0.5124288313269081  0.2854681560591689  0.5928099827395611
  0.5138363193766650  0.5353176006090715  0.5928019631002435
  0.5119501987642080  0.7855705894413920  0.5923576227224648
  0.6831575664428775  0.0351334297881931  0.5961780288294654
  0.6866037058464206  0.2817532697460277  0.5905577067211053
  0.6928070684038553  0.5356628987937669  0.5895109408957298
  0.6859701897986077  0.7889116267125312  0.5919007575646662
  0.3384466307448860  0.1622177119278733  0.5959088339190393
  0.3387777152246026  0.4108790552271106  0.5927404123365426
  0.3415253649461247  0.6597717531372198  0.5952148810740880
  0.3351827030228010  0.9091942748036398  0.5916794182840363
  0.5106455598691955  0.1604218123088103  0.5931711525276318
  0.5135502479947923  0.4106395331206666  0.5930759129830870
  0.5135399272624993  0.6602092842242561  0.5928325005708099
  0.5103016733120860  0.9101786624319338  0.5929658397640019
  0.6832382573517275  0.1558342151095772  0.5963726599606358
  0.6859156497708143  0.4091083734067117  0.5999152775999097
  0.6828487138444328  0.6618086534653023  0.6021234091765525
  0.6835041514820037  0.9140430698422011  0.5968141483035506
  0.2501290609756948  0.1069740074090273  0.4094433051860275
  0.2529490030016460  0.3441426754549960  0.4096291674804097
  0.2541801586274361  0.6025948350195682  0.4094564959174522
  0.2512471370111410  0.8375312977133857  0.4088922781582902
  0.4233746678336219  0.0979482902974721  0.4065554927885691
  0.4265216808284183  0.3484557325099088  0.4059477067150810
  0.4275470964716908  0.5973531252366863  0.4054942734403573
  0.4244557508702443  0.8476179906027101  0.4060850381781732
  0.5957738245847760  0.0973019880223854  0.4065760326549698
  0.6001240717387802  0.3478235778315801  0.4078056055522564
  0.6014582865242273  0.5973414384707828  0.4079083700428252
  0.5981735092415893  0.8483368933115454  0.4066537270340179
  0.2258200985014325  0.2261421562456500  0.5000047708796400
  0.2327469759636920  0.4734874313383731  0.5000057415270344
  0.2272542369922558  0.7196501756030307  0.5000170967309242
  0.2319551039839231  0.9717101927391528  0.5000295242840116
  0.4254844434862225  0.2233194233203490  0.4069358884575341
  0.4267061379041526  0.4728137688029878  0.4069302707066780
  0.4269633140095026  0.7222094699094804  0.4062349837472047
  0.4226386935133545  0.9726484104136935  0.4071452740272297
  0.5982293955387706  0.2224132098677004  0.4067131696764169
  0.6015867856240418  0.4733040499922646  0.4081384982349098
  0.5995613098680965  0.7233092645544652  0.4071732921757354
  0.5960222921952268  0.9728027073855907  0.4066955744120871
  0.3343416003485083  0.0355429514055887  0.4084385792777811
  0.3398153954032496  0.2860050704879706  0.4046193073025021
  0.3391677955790464  0.5351942978166224  0.4070475969541310
  0.3399163536376095  0.7830801590727912  0.4037758770579851
  0.5093147569668174  0.0352070547584388  0.4066003394584737
  0.5126192386275669  0.2856147944366356  0.4069025098699169
  0.5142657413397981  0.5352345033475105  0.4068571957099693
  0.5122360539633805  0.7854515658774628  0.4062983640368992
  0.6831719209152632  0.0347458507450101  0.4030177848353296
  0.6870424372900562  0.2824121553479972  0.4116645581149010
  0.6926051448126831  0.5350016043805339  0.4147894582412293
  0.6871775601421199  0.7874099089509450  0.4122196555391103
  0.3384411670663599  0.1621867462233291  0.4041177278657866
  0.3386410456323256  0.4108284233915420  0.4070314598582858
  0.3412385777376659  0.6597862692468887  0.4043354948625701
  0.3351035449022374  0.9092902823413931  0.4083244208635908
  0.5106440806371734  0.1604282366465685  0.4066842214477709
  0.5138918841750587  0.4106864667439737  0.4067425616353005
  0.5138993443152207  0.6599799810536069  0.4063352236949486
  0.5102374090748339  0.9103273777894753  0.4063352194571460
  0.6832014555207163  0.1563396411013431  0.4036929982333225
  0.6872016050395706  0.4093090279965167  0.4046992786878744
  0.6862646978429363  0.6627856763119400  0.4043681865604560
  0.6838224754816408  0.9130485144475875  0.4043448591250387
  0.7725647054742860  0.9151960129782187  0.5021152282912669
  0.7679469242182484  0.7895796175825234  0.4995385676058281
  0.7737885092292054  0.6663019347846040  0.5326719245807664
  0.7770368494922139  0.4018042688089838  0.5122178509721125
  0.7676649266926084  0.2790638462511752  0.5000486160914035
  0.7722898880046418  0.1546124518603842  0.5003193050551266
  0.7720610710616234  0.0349075346522510  0.4980985301135403
  0.7917841078938211  0.5745929604219798  0.4385541975163517
  0.7682943735161124  0.5078999390575658  0.5018301070779170
  0.7667205618058737  0.5575511413280287  0.4817632260103765
 
  0.00000000E+00  0.00000000E+00  0.00000000E+00
  0.00000000E+00  0.00000000E+00  0.00000000E+00
  0.00000000E+00  0.00000000E+00  0.00000000E+00
  0.00000000E+00  0.00000000E+00  0.00000000E+00
  0.00000000E+00  0.00000000E+00  0.00000000E+00
  0.00000000E+00  0.00000000E+00  0.00000000E+00
  0.00000000E+00  0.00000000E+00  0.00000000E+00
  0.00000000E+00  0.00000000E+00  0.00000000E+00
  0.00000000E+00  0.00000000E+00  0.00000000E+00
  0.00000000E+00  0.00000000E+00  0.00000000E+00
  0.00000000E+00  0.00000000E+00  0.00000000E+00
  0.00000000E+00  0.00000000E+00  0.00000000E+00
  0.00000000E+00  0.00000000E+00  0.00000000E+00
  0.00000000E+00  0.00000000E+00  0.00000000E+00
  0.00000000E+00  0.00000000E+00  0.00000000E+00
  0.00000000E+00  0.00000000E+00  0.00000000E+00
  0.00000000E+00  0.00000000E+00  0.00000000E+00
  0.00000000E+00  0.00000000E+00  0.00000000E+00
  0.00000000E+00  0.00000000E+00  0.00000000E+00
  0.00000000E+00  0.00000000E+00  0.00000000E+00
  0.00000000E+00  0.00000000E+00  0.00000000E+00
  0.00000000E+00  0.00000000E+00  0.00000000E+00
  0.00000000E+00  0.00000000E+00  0.00000000E+00
  0.00000000E+00  0.00000000E+00  0.00000000E+00
  0.00000000E+00  0.00000000E+00  0.00000000E+00
  0.00000000E+00  0.00000000E+00  0.00000000E+00
  0.00000000E+00  0.00000000E+00  0.00000000E+00
  0.00000000E+00  0.00000000E+00  0.00000000E+00
  0.00000000E+00  0.00000000E+00  0.00000000E+00
  0.00000000E+00  0.00000000E+00  0.00000000E+00
  0.00000000E+00  0.00000000E+00  0.00000000E+00
  0.00000000E+00  0.00000000E+00  0.00000000E+00
  0.00000000E+00  0.00000000E+00  0.00000000E+00
  0.00000000E+00  0.00000000E+00  0.00000000E+00
  0.00000000E+00  0.00000000E+00  0.00000000E+00
  0.00000000E+00  0.00000000E+00  0.00000000E+00
  0.00000000E+00  0.00000000E+00  0.00000000E+00
  0.00000000E+00  0.00000000E+00  0.00000000E+00
  0.00000000E+00  0.00000000E+00  0.00000000E+00
  0.00000000E+00  0.00000000E+00  0.00000000E+00
  0.00000000E+00  0.00000000E+00  0.00000000E+00
  0.00000000E+00  0.00000000E+00  0.00000000E+00
  0.00000000E+00  0.00000000E+00  0.00000000E+00
  0.00000000E+00  0.00000000E+00  0.00000000E+00
  0.00000000E+00  0.00000000E+00  0.00000000E+00
  0.00000000E+00  0.00000000E+00  0.00000000E+00
  0.00000000E+00  0.00000000E+00  0.00000000E+00
  0.00000000E+00  0.00000000E+00  0.00000000E+00
  0.00000000E+00  0.00000000E+00  0.00000000E+00
  0.00000000E+00  0.00000000E+00  0.00000000E+00
  0.00000000E+00  0.00000000E+00  0.00000000E+00
  0.00000000E+00  0.00000000E+00  0.00000000E+00
  0.00000000E+00  0.00000000E+00  0.00000000E+00
  0.00000000E+00  0.00000000E+00  0.00000000E+00
  0.00000000E+00  0.00000000E+00  0.00000000E+00
  0.00000000E+00  0.00000000E+00  0.00000000E+00
  0.00000000E+00  0.00000000E+00  0.00000000E+00
  0.00000000E+00  0.00000000E+00  0.00000000E+00
  0.00000000E+00  0.00000000E+00  0.00000000E+00
  0.00000000E+00  0.00000000E+00  0.00000000E+00
  0.00000000E+00  0.00000000E+00  0.00000000E+00
  0.00000000E+00  0.00000000E+00  0.00000000E+00
  0.00000000E+00  0.00000000E+00  0.00000000E+00
  0.00000000E+00  0.00000000E+00  0.00000000E+00
  0.00000000E+00  0.00000000E+00  0.00000000E+00
  0.00000000E+00  0.00000000E+00  0.00000000E+00
  0.00000000E+00  0.00000000E+00  0.00000000E+00
  0.00000000E+00  0.00000000E+00  0.00000000E+00
  0.00000000E+00  0.00000000E+00  0.00000000E+00
  0.00000000E+00  0.00000000E+00  0.00000000E+00
  0.00000000E+00  0.00000000E+00  0.00000000E+00
  0.00000000E+00  0.00000000E+00  0.00000000E+00
  0.00000000E+00  0.00000000E+00  0.00000000E+00
  0.00000000E+00  0.00000000E+00  0.00000000E+00
  0.00000000E+00  0.00000000E+00  0.00000000E+00
  0.00000000E+00  0.00000000E+00  0.00000000E+00
  0.00000000E+00  0.00000000E+00  0.00000000E+00
  0.00000000E+00  0.00000000E+00  0.00000000E+00
  0.00000000E+00  0.00000000E+00  0.00000000E+00
  0.00000000E+00  0.00000000E+00  0.00000000E+00
  0.00000000E+00  0.00000000E+00  0.00000000E+00
  0.00000000E+00  0.00000000E+00  0.00000000E+00
  0.00000000E+00  0.00000000E+00  0.00000000E+00
  0.00000000E+00  0.00000000E+00  0.00000000E+00
  0.00000000E+00  0.00000000E+00  0.00000000E+00
  0.00000000E+00  0.00000000E+00  0.00000000E+00
  0.00000000E+00  0.00000000E+00  0.00000000E+00
  0.00000000E+00  0.00000000E+00  0.00000000E+00
  0.00000000E+00  0.00000000E+00  0.00000000E+00
  0.00000000E+00  0.00000000E+00  0.00000000E+00
  0.00000000E+00  0.00000000E+00  0.00000000E+00
  0.00000000E+00  0.00000000E+00  0.00000000E+00
  0.00000000E+00  0.00000000E+00  0.00000000E+00
  0.00000000E+00  0.00000000E+00  0.00000000E+00
  0.00000000E+00  0.00000000E+00  0.00000000E+00
  0.00000000E+00  0.00000000E+00  0.00000000E+00
  0.00000000E+00  0.00000000E+00  0.00000000E+00
  0.00000000E+00  0.00000000E+00  0.00000000E+00
  0.00000000E+00  0.00000000E+00  0.00000000E+00
  0.00000000E+00  0.00000000E+00  0.00000000E+00
  0.00000000E+00  0.00000000E+00  0.00000000E+00
  0.00000000E+00  0.00000000E+00  0.00000000E+00
  0.00000000E+00  0.00000000E+00  0.00000000E+00
  0.00000000E+00  0.00000000E+00  0.00000000E+00
  0.00000000E+00  0.00000000E+00  0.00000000E+00
  0.00000000E+00  0.00000000E+00  0.00000000E+00
  0.00000000E+00  0.00000000E+00  0.00000000E+00
  0.00000000E+00  0.00000000E+00  0.00000000E+00
  0.00000000E+00  0.00000000E+00  0.00000000E+00
  0.00000000E+00  0.00000000E+00  0.00000000E+00
  0.00000000E+00  0.00000000E+00  0.00000000E+00
  0.00000000E+00  0.00000000E+00  0.00000000E+00
  0.00000000E+00  0.00000000E+00  0.00000000E+00
  0.00000000E+00  0.00000000E+00  0.00000000E+00
  0.00000000E+00  0.00000000E+00  0.00000000E+00
  0.00000000E+00  0.00000000E+00  0.00000000E+00
  0.00000000E+00  0.00000000E+00  0.00000000E+00
  0.00000000E+00  0.00000000E+00  0.00000000E+00
  0.00000000E+00  0.00000000E+00  0.00000000E+00
  0.00000000E+00  0.00000000E+00  0.00000000E+00
  0.00000000E+00  0.00000000E+00  0.00000000E+00
  0.00000000E+00  0.00000000E+00  0.00000000E+00
  0.00000000E+00  0.00000000E+00  0.00000000E+00
  0.00000000E+00  0.00000000E+00  0.00000000E+00
  0.00000000E+00  0.00000000E+00  0.00000000E+00
  0.00000000E+00  0.00000000E+00  0.00000000E+00
  0.00000000E+00  0.00000000E+00  0.00000000E+00
  0.00000000E+00  0.00000000E+00  0.00000000E+00
  0.00000000E+00  0.00000000E+00  0.00000000E+00
  0.00000000E+00  0.00000000E+00  0.00000000E+00
  0.00000000E+00  0.00000000E+00  0.00000000E+00
  0.00000000E+00  0.00000000E+00  0.00000000E+00
  0.00000000E+00  0.00000000E+00  0.00000000E+00
  0.00000000E+00  0.00000000E+00  0.00000000E+00
  0.00000000E+00  0.00000000E+00  0.00000000E+00
  0.00000000E+00  0.00000000E+00  0.00000000E+00
  0.00000000E+00  0.00000000E+00  0.00000000E+00
  0.00000000E+00  0.00000000E+00  0.00000000E+00
  0.00000000E+00  0.00000000E+00  0.00000000E+00
  0.00000000E+00  0.00000000E+00  0.00000000E+00
  0.00000000E+00  0.00000000E+00  0.00000000E+00
  0.00000000E+00  0.00000000E+00  0.00000000E+00
  0.00000000E+00  0.00000000E+00  0.00000000E+00
  0.00000000E+00  0.00000000E+00  0.00000000E+00
  0.00000000E+00  0.00000000E+00  0.00000000E+00
  0.00000000E+00  0.00000000E+00  0.00000000E+00
  0.00000000E+00  0.00000000E+00  0.00000000E+00
  0.00000000E+00  0.00000000E+00  0.00000000E+00
  0.00000000E+00  0.00000000E+00  0.00000000E+00
  0.00000000E+00  0.00000000E+00  0.00000000E+00
