Mo36 Se72                               
   1.00000000000000     
    19.7339992522999985    0.0000000000000000    0.0000000000000000
    -9.8669996262000002   17.0901446708000009    0.0000000000000000
     0.0000000000000000    0.0000000000000000   25.8540000915999997
   Mo   Se   O    C 
    36    71     1     1
Direct
  0.1202761921857274  0.0465313479479263  0.5001001879945264
  0.1208827801885022  0.2136044515618423  0.4997743458727584
  0.1208641203815333  0.3794415240520053  0.4997429410394361
  0.1202917592486514  0.5459044685047942  0.5000078625551296
  0.1201140544605721  0.7126629722789204  0.5001245828806304
  0.1200900681900734  0.8795359140191650  0.5001772526913655
  0.2868221641939073  0.0466003339909804  0.5000185107461377
  0.2873574905873255  0.2142633376503227  0.4991781987498456
  0.2894287767376724  0.3809123973078030  0.4977230714694372
  0.2873960670281193  0.5454574271698505  0.4991404770862076
  0.2868956338865942  0.7125395369677889  0.4999440909476007
  0.2867685049414064  0.8795100457788720  0.5001199132459959
  0.4533325094081491  0.0464125417183183  0.5001874350833120
  0.4532636569281010  0.2137400114117014  0.4997526378102108
  0.4519263584589623  0.3809625206988301  0.4977578339390760
  0.4519733456353805  0.5434792821345695  0.4977594160973595
  0.4533685929215068  0.7119848902201795  0.4997200040454857
  0.4533815607737068  0.8793032608936286  0.5001539304966514
  0.6199768829518959  0.0461279930938403  0.5002884939821612
  0.6198196303357051  0.2129900102564761  0.5002094265349442
  0.6190877141227702  0.3795289878151848  0.4998355500715661
  0.6186022441399714  0.5454913695927317  0.4992864087137363
  0.6191709648939465  0.7119467253484970  0.4998390097248588
  0.6199040407963352  0.8791745671695637  0.5001715686719592
  0.7866964405512249  0.0460548648374726  0.5003424303134807
  0.7866579147312009  0.2127751691183590  0.5003495146321839
  0.7864485626701452  0.3794406852069514  0.5003567896897465
  0.7862270882407429  0.5459137240907666  0.5002072110204594
  0.7862647732383508  0.7125163644270742  0.5002147138969590
  0.7864930814166158  0.8792027010596115  0.5003639786919720
  0.9535988928429049  0.0462745002367626  0.5003126776873188
  0.9536553192353168  0.2128557749675721  0.5001897147215928
  0.9535741780142715  0.3793678706492472  0.5002595645716923
  0.9533292642508115  0.5459861565532549  0.5002739794235609
  0.9532097219423790  0.7126344800607072  0.5002672298186681
  0.9533558631940053  0.8794015996157611  0.5003295291763052
  0.0653466005859400  0.1026309236895599  0.5649153997193750
  0.0653155346409946  0.2687273144197846  0.5648592478352938
  0.0653335140263991  0.4348705908379316  0.5648634272261717
  0.0647726929330901  0.6014788288678687  0.5649668958259468
  0.0645965278881917  0.7682697687356637  0.5650085767427839
  0.0647933009063877  0.9353283408587316  0.5650408830607390
  0.2319864332768589  0.1033767155484142  0.5645483737973507
  0.2337603687320566  0.2714478639894367  0.5639542710899477
  0.2337467127561723  0.4346808780084288  0.5639360585278581
  0.2319876711764977  0.6009392958758895  0.5644694776553862
  0.2313742302786537  0.7681369216092619  0.5648882839566056
  0.2313540524524811  0.9353889293274307  0.5649215205470526
  0.3978562430361592  0.1027014273910325  0.5648198990139406
  0.3981542141382590  0.2715270122091482  0.5639471250809223
  0.3981762135712614  0.5991664121943359  0.5639424148884942
  0.3979150916335001  0.7675761730991653  0.5647796971286496
  0.3978348545808217  0.9350501411059042  0.5649778581761637
  0.5643216382445928  0.1018357097255915  0.5650890076813226
  0.5638821479789087  0.2687512655914901  0.5648809381859863
  0.5613311506683232  0.4346901614067136  0.5640125344603675
  0.5613790305064228  0.5991063197112467  0.5640207185573303
  0.5640071353517655  0.7675828090432901  0.5648796311277096
  0.5643829529683444  0.9347758418688770  0.5650596911534862
  0.7310880491745664  0.1015958814603337  0.5651941793462072
  0.7308912116257034  0.2683663966246854  0.5651815212577915
  0.7300490908246644  0.4348204392448167  0.5649749670289239
  0.7294697180747391  0.6008695781761517  0.5646777949275830
  0.7301131945337573  0.7674826260198273  0.5649985416594703
  0.7309425493591206  0.9347394222070236  0.5651714573045581
  0.8980594254818470  0.1017599302212986  0.5651508509263579
  0.8980468097243559  0.2683099473793433  0.5651266834407451
  0.8978714298279513  0.4348935958301610  0.5651286045805293
  0.8974843540499009  0.6014270219699682  0.5650833708506298
  0.8975019056156270  0.7680655678753041  0.5651145651894964
  0.8978621582301471  0.9349672508883771  0.5651634372729930
  0.0644898242837399  0.1017894693116403  0.4352735410371196
  0.0645429618560058  0.2682780184827607  0.4350265522291821
  0.0644683328472908  0.4347708984868106  0.4352096450424909
  0.0643898220592334  0.6014534657584036  0.4353183097898778
  0.0643671593700148  0.7682351785842059  0.4353818482356857
  0.0644041914157967  0.9350437047022098  0.4353980906496560
  0.2311411466616136  0.1018453156721932  0.4350378962906234
  0.2309194225367577  0.2684189944540094  0.4338889389624114
  0.2309048972060594  0.4347856141391802  0.4338720575472905
  0.2312194719507232  0.6015469401797873  0.4349556789367170
  0.2312431042833296  0.7683097503509089  0.4352419300827108
  0.2311837742297840  0.9351375006551095  0.4352900746686714
  0.3979069700080586  0.1019750271641584  0.4352154281179210
  0.3979881206388711  0.2685453851006727  0.4339084314283852
  0.3977577589881776  0.4351512978474545  0.4310897514248211
  0.3980497770011340  0.6018939067668683  0.4338793006850921
  0.3980310959794480  0.7683219772761092  0.4351571116150694
  0.3979343392762544  0.9351506661581723  0.4353268513743060
  0.5644821595013028  0.1017794070408726  0.4353983852412000
  0.5644037133469837  0.2684942178674987  0.4350772270902254
  0.5644160365389084  0.4349216555815190  0.4339790409290458
  0.5644817666573942  0.6019096636449746  0.4339655545997161
  0.5645356323842066  0.7682599159281835  0.4350391690220334
  0.5645273077246813  0.9350197398478315  0.4353635918725445
  0.7311477491659204  0.1016515269362657  0.4354865439577935
  0.7311056909560136  0.2684003665896739  0.4354891646425330
  0.7309007819581055  0.4348745882103700  0.4353703872717247
  0.7309788225050013  0.6015795195821525  0.4351984681538710
  0.7309801064127370  0.7682402723059383  0.4353669742325010
  0.7312115163164634  0.9349212286974549  0.4354591754747545
  0.8978134857332805  0.1015439430492293  0.4354593034144116
  0.8977549471020652  0.2682233638899660  0.4354381645207965
  0.8977038339644281  0.4348215572438647  0.4354994349820061
  0.8976198901269257  0.6014536779768278  0.4354413532412096
  0.8976461660561270  0.7682467365589005  0.4354519309390881
  0.8977813104200294  0.9349434955694846  0.4355504078026726
  0.3978390555503566  0.4351974720314331  0.5951175673976365
  0.3977203235528393  0.4351349104969557  0.5480033478500630
 
  0.00000000E+00  0.00000000E+00  0.00000000E+00
  0.00000000E+00  0.00000000E+00  0.00000000E+00
  0.00000000E+00  0.00000000E+00  0.00000000E+00
  0.00000000E+00  0.00000000E+00  0.00000000E+00
  0.00000000E+00  0.00000000E+00  0.00000000E+00
  0.00000000E+00  0.00000000E+00  0.00000000E+00
  0.00000000E+00  0.00000000E+00  0.00000000E+00
  0.00000000E+00  0.00000000E+00  0.00000000E+00
  0.00000000E+00  0.00000000E+00  0.00000000E+00
  0.00000000E+00  0.00000000E+00  0.00000000E+00
  0.00000000E+00  0.00000000E+00  0.00000000E+00
  0.00000000E+00  0.00000000E+00  0.00000000E+00
  0.00000000E+00  0.00000000E+00  0.00000000E+00
  0.00000000E+00  0.00000000E+00  0.00000000E+00
  0.00000000E+00  0.00000000E+00  0.00000000E+00
  0.00000000E+00  0.00000000E+00  0.00000000E+00
  0.00000000E+00  0.00000000E+00  0.00000000E+00
  0.00000000E+00  0.00000000E+00  0.00000000E+00
  0.00000000E+00  0.00000000E+00  0.00000000E+00
  0.00000000E+00  0.00000000E+00  0.00000000E+00
  0.00000000E+00  0.00000000E+00  0.00000000E+00
  0.00000000E+00  0.00000000E+00  0.00000000E+00
  0.00000000E+00  0.00000000E+00  0.00000000E+00
  0.00000000E+00  0.00000000E+00  0.00000000E+00
  0.00000000E+00  0.00000000E+00  0.00000000E+00
  0.00000000E+00  0.00000000E+00  0.00000000E+00
  0.00000000E+00  0.00000000E+00  0.00000000E+00
  0.00000000E+00  0.00000000E+00  0.00000000E+00
  0.00000000E+00  0.00000000E+00  0.00000000E+00
  0.00000000E+00  0.00000000E+00  0.00000000E+00
  0.00000000E+00  0.00000000E+00  0.00000000E+00
  0.00000000E+00  0.00000000E+00  0.00000000E+00
  0.00000000E+00  0.00000000E+00  0.00000000E+00
  0.00000000E+00  0.00000000E+00  0.00000000E+00
  0.00000000E+00  0.00000000E+00  0.00000000E+00
  0.00000000E+00  0.00000000E+00  0.00000000E+00
  0.00000000E+00  0.00000000E+00  0.00000000E+00
  0.00000000E+00  0.00000000E+00  0.00000000E+00
  0.00000000E+00  0.00000000E+00  0.00000000E+00
  0.00000000E+00  0.00000000E+00  0.00000000E+00
  0.00000000E+00  0.00000000E+00  0.00000000E+00
  0.00000000E+00  0.00000000E+00  0.00000000E+00
  0.00000000E+00  0.00000000E+00  0.00000000E+00
  0.00000000E+00  0.00000000E+00  0.00000000E+00
  0.00000000E+00  0.00000000E+00  0.00000000E+00
  0.00000000E+00  0.00000000E+00  0.00000000E+00
  0.00000000E+00  0.00000000E+00  0.00000000E+00
  0.00000000E+00  0.00000000E+00  0.00000000E+00
  0.00000000E+00  0.00000000E+00  0.00000000E+00
  0.00000000E+00  0.00000000E+00  0.00000000E+00
  0.00000000E+00  0.00000000E+00  0.00000000E+00
  0.00000000E+00  0.00000000E+00  0.00000000E+00
  0.00000000E+00  0.00000000E+00  0.00000000E+00
  0.00000000E+00  0.00000000E+00  0.00000000E+00
  0.00000000E+00  0.00000000E+00  0.00000000E+00
  0.00000000E+00  0.00000000E+00  0.00000000E+00
  0.00000000E+00  0.00000000E+00  0.00000000E+00
  0.00000000E+00  0.00000000E+00  0.00000000E+00
  0.00000000E+00  0.00000000E+00  0.00000000E+00
  0.00000000E+00  0.00000000E+00  0.00000000E+00
  0.00000000E+00  0.00000000E+00  0.00000000E+00
  0.00000000E+00  0.00000000E+00  0.00000000E+00
  0.00000000E+00  0.00000000E+00  0.00000000E+00
  0.00000000E+00  0.00000000E+00  0.00000000E+00
  0.00000000E+00  0.00000000E+00  0.00000000E+00
  0.00000000E+00  0.00000000E+00  0.00000000E+00
  0.00000000E+00  0.00000000E+00  0.00000000E+00
  0.00000000E+00  0.00000000E+00  0.00000000E+00
  0.00000000E+00  0.00000000E+00  0.00000000E+00
  0.00000000E+00  0.00000000E+00  0.00000000E+00
  0.00000000E+00  0.00000000E+00  0.00000000E+00
  0.00000000E+00  0.00000000E+00  0.00000000E+00
  0.00000000E+00  0.00000000E+00  0.00000000E+00
  0.00000000E+00  0.00000000E+00  0.00000000E+00
  0.00000000E+00  0.00000000E+00  0.00000000E+00
  0.00000000E+00  0.00000000E+00  0.00000000E+00
  0.00000000E+00  0.00000000E+00  0.00000000E+00
  0.00000000E+00  0.00000000E+00  0.00000000E+00
  0.00000000E+00  0.00000000E+00  0.00000000E+00
  0.00000000E+00  0.00000000E+00  0.00000000E+00
  0.00000000E+00  0.00000000E+00  0.00000000E+00
  0.00000000E+00  0.00000000E+00  0.00000000E+00
  0.00000000E+00  0.00000000E+00  0.00000000E+00
  0.00000000E+00  0.00000000E+00  0.00000000E+00
  0.00000000E+00  0.00000000E+00  0.00000000E+00
  0.00000000E+00  0.00000000E+00  0.00000000E+00
  0.00000000E+00  0.00000000E+00  0.00000000E+00
  0.00000000E+00  0.00000000E+00  0.00000000E+00
  0.00000000E+00  0.00000000E+00  0.00000000E+00
  0.00000000E+00  0.00000000E+00  0.00000000E+00
  0.00000000E+00  0.00000000E+00  0.00000000E+00
  0.00000000E+00  0.00000000E+00  0.00000000E+00
  0.00000000E+00  0.00000000E+00  0.00000000E+00
  0.00000000E+00  0.00000000E+00  0.00000000E+00
  0.00000000E+00  0.00000000E+00  0.00000000E+00
  0.00000000E+00  0.00000000E+00  0.00000000E+00
  0.00000000E+00  0.00000000E+00  0.00000000E+00
  0.00000000E+00  0.00000000E+00  0.00000000E+00
  0.00000000E+00  0.00000000E+00  0.00000000E+00
  0.00000000E+00  0.00000000E+00  0.00000000E+00
  0.00000000E+00  0.00000000E+00  0.00000000E+00
  0.00000000E+00  0.00000000E+00  0.00000000E+00
  0.00000000E+00  0.00000000E+00  0.00000000E+00
  0.00000000E+00  0.00000000E+00  0.00000000E+00
  0.00000000E+00  0.00000000E+00  0.00000000E+00
  0.00000000E+00  0.00000000E+00  0.00000000E+00
  0.00000000E+00  0.00000000E+00  0.00000000E+00
  0.00000000E+00  0.00000000E+00  0.00000000E+00
  0.00000000E+00  0.00000000E+00  0.00000000E+00
