Mo36 Se72                               
1.0
       19.7339992523         0.0000000000         0.0000000000
       -9.8669996262        17.0901446708         0.0000000000
        0.0000000000         0.0000000000        25.8540000916
   Mo   Se    O    C
   36   71    1    1
Cartesian
     1.919077987         0.774786664        12.900646459
     0.298002630         3.639689747        12.950252470
    -1.358297773         6.507431887        12.948401290
    -3.028462920         9.344555532        12.896541483
    -4.676285804        12.182115527        12.868853151
    -6.314461905        15.020154739        12.870762157
     5.212573150         0.763875987        12.860059730
     3.586485500         3.598566492        12.953601686
     1.928024705         6.494326767        13.050290959
     0.249529365         9.377902709        12.951308829
    -1.391449003        12.202600968        12.856497283
    -3.022262265        15.028508630        12.833261588
     8.510110580         0.772700356        12.824745674
     6.907710472         3.568932963        12.881391925
     5.218785340         6.365946148        13.128740956
     3.462105601         9.407839122        13.127646458
     1.885134765        12.268464855        12.878841978
     0.265368613        15.054289010        12.823120888
    11.799175754         0.799458232        12.842256724
    10.161597663         3.633036397        12.870137562
     8.513945817         6.466740148        12.967915932
     6.824262520         9.321763674        13.052922750
     5.197344645        12.211533673        12.967080887
     3.567215814        15.054681003        12.869106303
    15.088413815         0.803671704        12.881268372
    13.448522142         3.645055835        12.880760843
    11.793243792         6.484846704        12.906566814
    10.125877587         9.325924394        12.952512080
     8.479990843        12.177498675        12.952797707
     6.853763224        15.041768026        12.907572992
    18.373788520         0.795019607        12.907293553
    16.738824971         3.649276340        12.912877856
    15.083856707         6.492930715        12.905252872
    13.419177420         9.333387898        12.901236835
    11.769468004        12.174949469        12.906471211
    10.134252713        15.024300372        12.904347515
     0.285633638         1.719560997        14.597695303
    -1.364231189         4.591819825        14.612487891
    -3.027713638         7.458306104        14.594637144
    -4.672654033        10.300065671        14.565956720
    -6.304503390        13.133670543        14.560002726
    -7.941814203        15.962574116        14.570160322
     3.582255767         1.670286922        14.583408695
     1.950575202         4.541810379        14.656419504
     0.246591486         7.489783254        14.654975684
    -1.422962919        10.338100185        14.580231284
    -3.030863903        13.151040039        14.529817708
    -4.651288930        15.958485561        14.531935039
     6.889943435         1.658620381        14.535370749
     5.320913615         4.342118389        14.620914962
     1.759917901        10.508562524        14.618709987
     0.221681263        13.207601394        14.532185691
    -1.372008336        15.979968823        14.505584408
    10.150003676         1.717036471        14.518547577
     8.538189291         4.525711508        14.586229804
     6.917658189         7.395150350        14.698269696
     5.202080841        10.365433797        14.698207223
     3.527665039        13.202834327        14.585130181
     1.902585978        16.001961783        14.518207055
    13.428378959         1.740222227        14.544611023
    11.800866145         4.570512055        14.562058926
    10.176865403         7.418829612        14.620001563
     8.513914758        10.296622841        14.663851380
     6.852973866        13.174460413        14.619853729
     5.197908716        16.003937358        14.562309669
    16.722134864         1.742579712        14.577275245
    15.079330464         4.589643932        14.576360129
    13.437320855         7.436556109        14.580992521
    11.793611876        10.286394067        14.597100606
    10.146957273        13.137988070        14.598097091
     8.499969337        15.987677032        14.583433702
     0.283863457         1.764927315        11.242315120
    -1.328488553         4.610816780        11.265906692
    -2.988798615         7.431491110        11.239576807
    -4.676876509        10.270010434        11.209324180
    -6.339253648        13.114840364        11.203302798
    -7.970872089        15.975884131        11.212103143
     3.550818049         1.747421918        11.222709750
     1.950103765         4.631801309        11.311524006
     0.327513744         7.443686075        11.310350140
    -1.369885561        10.272195480        11.218704743
    -3.040788010        13.119201696        11.170475289
    -4.685404566        15.968483963        11.172448391
     6.849704555         1.721146627        11.164161573
     5.218148783         4.611843705        11.305203349
     3.604589590         7.460764951        11.486509199
     1.942985177        10.283636880        11.302394728
     0.256911845        13.142864644        11.161238124
    -1.380038846        15.977421994        11.139839458
    10.159719837         1.755369818        11.164628177
     8.509035106         4.616561080        11.220884324
     6.779442372         7.407716539        11.395120032
     5.144324604        10.240155398        11.393359554
     3.593719645        13.132056976        11.219702554
     1.940903644        15.993471173        11.163462333
    13.461540344         1.759035667        11.188502159
    11.805929509         4.604629671        11.206730017
    10.113582647         7.439087108        11.264287500
     8.426531202        10.246374462        11.316530570
     6.840679334        13.111915051        11.264619444
     5.232104672        15.992049039        11.207096474
    16.747288737         1.759657245        11.222869396
    15.107224536         4.600280367        11.221860874
    13.432582111         7.434905739        11.226442421
    11.744330836        10.267011649        11.243471755
    10.104327552        13.109357773        11.244394278
     8.498791809        15.984014143        11.228013028
     3.288738043         7.281557986        15.739750832
     3.288738043         7.281557986        14.589724766
