Mo1 S2                                  
   1.00000000000000     
    19.1418952942000011    0.0000000000000000    0.0000000000000000
    -9.5709489007999995   16.5773646751000001    0.0000000000000000
     0.0000000000000000    0.0000000000000000   23.1298294067000008
   Mo   S 
    36    69
Direct
  0.1118503170889729  0.0567262896550322  0.4968149401519537
  0.1119976215554641  0.2231883766512834  0.4979191948663121
  0.1114967190513985  0.3888048102352311  0.4996854784662467
  0.1110064296988508  0.5553463385233064  0.5005179529520564
  0.1108855461129987  0.7223900468282646  0.4994409432716499
  0.1112035979990707  0.8893681216893325  0.4974330853673034
  0.2796635755466257  0.0589236464524277  0.4975455354762490
  0.2807600352349147  0.2273339397156636  0.5002138674077821
  0.2807511181156133  0.3912009033501558  0.5041021952912217
  0.2786091594552416  0.5543403418635557  0.5026952390078877
  0.2781712875473566  0.7223901058229600  0.4994408777687770
  0.2785349538628941  0.8904033516169226  0.4977436533935993
  0.4459265995100162  0.0589236360240362  0.4975455441066583
  0.4481757167862160  0.2296847749855450  0.5006723093218114
  0.4471823431124400  0.3945158071602325  0.5083405155313021
  0.4427276168902999  0.5499703265202998  0.5076453506398531
  0.4444094909722358  0.7203948589591562  0.4998512296377497
  0.4448312388307938  0.8893683095171138  0.4974330286157625
  0.6115424515960561  0.0567262398818628  0.4968149110997872
  0.6132403302608512  0.2273337665609566  0.5002138305591151
  0.6140001284357380  0.3945157636306800  0.5083406547990073
  0.6072772119367046  0.5478877483857505  0.5098394489449174
  0.6089253983324313  0.7170229029247166  0.4995579115018220
  0.6106186901342555  0.8873166994541507  0.4966045297518887
  0.7773555038937968  0.0548241049429509  0.4958645921779649
  0.7778573094608145  0.2231883213993486  0.4979192994694707
  0.7771163885125406  0.3912009056525115  0.5041022092174899
  0.7739093756548610  0.5499701919060089  0.5076455912524946
  0.7747641793054231  0.7170229289432002  0.4995579818690569
  0.7763281559089086  0.8859896316958555  0.4960481521954760
  0.9441351561820944  0.0548241175368862  0.4958646026956768
  0.9442828927931497  0.2218991433498155  0.4970936557613111
  0.9439745906156699  0.3888048384604534  0.4996854025947311
  0.9423976766041167  0.5543401656839945  0.5026953173739012
  0.9426520157438781  0.7203946791852464  0.4998514405802376
  0.9433646488902289  0.8873166001751711  0.4966046609012132
  0.0570717246823881  0.1126911177598543  0.4295061437876035
  0.0569828008596642  0.2794129395549321  0.4308367826731410
  0.0559216676561616  0.4451767491798028  0.4326859832495645
  0.0530726790960369  0.6094953190319597  0.4339593515524080
  0.0536670541811558  0.7756425375251338  0.4317640595535572
  0.0557391855571808  0.9443449594727487  0.4297548530113650
  0.2256628201597494  0.1166089069100998  0.4311399497525001
  0.2286259574981900  0.2849943573640102  0.4334399668973706
  0.2271471537311972  0.4454971839252069  0.4348913375890253
  0.2230891512543181  0.6094952865553606  0.4339593269838868
  0.2219611656363220  0.7772556934728591  0.4318146855438331
  0.2233378329543798  0.9464883139044490  0.4305199441824291
  0.3927034970945038  0.1187405597241343  0.4315814710424908
  0.3971972259237663  0.2939214208333383  0.4359527688008198
  0.3895825721555911  0.6034044607249515  0.4365554363725664
  0.3886423629395394  0.7756429850687292  0.4317638324420472
  0.3898168803077282  0.9464883806559590  0.4305197786302231
  0.5576124915676635  0.1166088881436770  0.4311398451900145
  0.5633908836874538  0.2939214770364506  0.4359527607037072
  0.5475276619421695  0.5918739563410857  0.4382669681496258
  0.5537544277436066  0.7725407212144156  0.4313501818670124
  0.5552724163482333  0.9443450627955700  0.4297546856748885
  0.7222860140114422  0.1126912963867809  0.4295061523785367
  0.7230350038446058  0.2849941758169897  0.4334401392046512
  0.7110131137582220  0.5918740446998120  0.4382671542563625
  0.7184499048937228  0.7702338692749143  0.4309385656841068
  0.7210692599485045  0.9422857511824432  0.4288404088092558
  0.8889567642383193  0.1112468894566935  0.4288768583469394
  0.8890967126868918  0.2794128338238215  0.4308368588266554
  0.8850165688783257  0.4454971550310332  0.4348913416955291
  0.8804885010327237  0.6034044200322922  0.4365555704556551
  0.8854530494464183  0.7725406647037626  0.4313504181599905
  0.8878833319143503  0.9422857695130876  0.4288404493623957
  0.0546230820660090  0.1103936888639947  0.5638539369394452
  0.0542985740838896  0.2760567599275253  0.5652220798884741
  0.0550624749100097  0.4434585685604461  0.5671016898177169
  0.0564847903980510  0.6121752847107609  0.5678476574786816
  0.0558062329479363  0.7792596395284732  0.5658420207504841
  0.0550380310332413  0.9448760467131021  0.5638240785417986
  0.2225175165562230  0.1124928067336857  0.5648679149282365
  0.2208090163383173  0.2777017146751024  0.5678868499965153
  0.2203525140237527  0.4423167088546588  0.5696138983826428
  0.2223570820281073  0.6121753975591746  0.5678476474443004
  0.2232600967882205  0.7798534392282331  0.5658622808658506
  0.2230758173754795  0.9466398212968947  0.5644139957498211
  0.3904279017012295  0.1141893074525360  0.5651337551192304
  0.3900059485937400  0.2804933527346350  0.5702912983412676
  0.3862860707072760  0.4417895664831498  0.5745342672588759
  0.3895926317974840  0.6122203354015975  0.5706583758816384
  0.3901202225216585  0.7792595361539203  0.5658418142968593
  0.3902305965056889  0.9466397949585305  0.5644139315371026
  0.5566418064153588  0.1124926468031149  0.5648679423781581
  0.5571540024722965  0.2804932883194765  0.5702913079789548
  0.5534309706070759  0.4401954347365981  0.5767496648911807
  0.5552933179707095  0.6116373069407028  0.5728864186792492
  0.5566235143036681  0.7776584329042470  0.5652708144605456
  0.5565037919895894  0.9448752927260604  0.5638239725807669
  0.7224370540243650  0.1103935866901816  0.5638539443187812
  0.7235591544614008  0.2777017169663759  0.5678868101053586
  0.7221699860163221  0.4417891994748416  0.5745345238868850
  0.7230105743145725  0.6116371597438066  0.5728865274863439
  0.7215584269952422  0.7764499112151034  0.5647969454715609
  0.7221831482770025  0.9433276045075715  0.5630477142474762
  0.8881004951650974  0.1095344272703744  0.5632871231791158
  0.8884248632139184  0.2760568942888104  0.5652220326361431
  0.8886307030149797  0.4423165885268916  0.5696140258932388
  0.8892945333681681  0.6122202605807742  0.5706585854973182
  0.8877019009533144  0.7776584450916707  0.5652711152768091
  0.8878111094426007  0.9433276544470708  0.5630477854499752
 
  0.00000000E+00  0.00000000E+00  0.00000000E+00
  0.00000000E+00  0.00000000E+00  0.00000000E+00
  0.00000000E+00  0.00000000E+00  0.00000000E+00
  0.00000000E+00  0.00000000E+00  0.00000000E+00
  0.00000000E+00  0.00000000E+00  0.00000000E+00
  0.00000000E+00  0.00000000E+00  0.00000000E+00
  0.00000000E+00  0.00000000E+00  0.00000000E+00
  0.00000000E+00  0.00000000E+00  0.00000000E+00
  0.00000000E+00  0.00000000E+00  0.00000000E+00
  0.00000000E+00  0.00000000E+00  0.00000000E+00
  0.00000000E+00  0.00000000E+00  0.00000000E+00
  0.00000000E+00  0.00000000E+00  0.00000000E+00
  0.00000000E+00  0.00000000E+00  0.00000000E+00
  0.00000000E+00  0.00000000E+00  0.00000000E+00
  0.00000000E+00  0.00000000E+00  0.00000000E+00
  0.00000000E+00  0.00000000E+00  0.00000000E+00
  0.00000000E+00  0.00000000E+00  0.00000000E+00
  0.00000000E+00  0.00000000E+00  0.00000000E+00
  0.00000000E+00  0.00000000E+00  0.00000000E+00
  0.00000000E+00  0.00000000E+00  0.00000000E+00
  0.00000000E+00  0.00000000E+00  0.00000000E+00
  0.00000000E+00  0.00000000E+00  0.00000000E+00
  0.00000000E+00  0.00000000E+00  0.00000000E+00
  0.00000000E+00  0.00000000E+00  0.00000000E+00
  0.00000000E+00  0.00000000E+00  0.00000000E+00
  0.00000000E+00  0.00000000E+00  0.00000000E+00
  0.00000000E+00  0.00000000E+00  0.00000000E+00
  0.00000000E+00  0.00000000E+00  0.00000000E+00
  0.00000000E+00  0.00000000E+00  0.00000000E+00
  0.00000000E+00  0.00000000E+00  0.00000000E+00
  0.00000000E+00  0.00000000E+00  0.00000000E+00
  0.00000000E+00  0.00000000E+00  0.00000000E+00
  0.00000000E+00  0.00000000E+00  0.00000000E+00
  0.00000000E+00  0.00000000E+00  0.00000000E+00
  0.00000000E+00  0.00000000E+00  0.00000000E+00
  0.00000000E+00  0.00000000E+00  0.00000000E+00
  0.00000000E+00  0.00000000E+00  0.00000000E+00
  0.00000000E+00  0.00000000E+00  0.00000000E+00
  0.00000000E+00  0.00000000E+00  0.00000000E+00
  0.00000000E+00  0.00000000E+00  0.00000000E+00
  0.00000000E+00  0.00000000E+00  0.00000000E+00
  0.00000000E+00  0.00000000E+00  0.00000000E+00
  0.00000000E+00  0.00000000E+00  0.00000000E+00
  0.00000000E+00  0.00000000E+00  0.00000000E+00
  0.00000000E+00  0.00000000E+00  0.00000000E+00
  0.00000000E+00  0.00000000E+00  0.00000000E+00
  0.00000000E+00  0.00000000E+00  0.00000000E+00
  0.00000000E+00  0.00000000E+00  0.00000000E+00
  0.00000000E+00  0.00000000E+00  0.00000000E+00
  0.00000000E+00  0.00000000E+00  0.00000000E+00
  0.00000000E+00  0.00000000E+00  0.00000000E+00
  0.00000000E+00  0.00000000E+00  0.00000000E+00
  0.00000000E+00  0.00000000E+00  0.00000000E+00
  0.00000000E+00  0.00000000E+00  0.00000000E+00
  0.00000000E+00  0.00000000E+00  0.00000000E+00
  0.00000000E+00  0.00000000E+00  0.00000000E+00
  0.00000000E+00  0.00000000E+00  0.00000000E+00
  0.00000000E+00  0.00000000E+00  0.00000000E+00
  0.00000000E+00  0.00000000E+00  0.00000000E+00
  0.00000000E+00  0.00000000E+00  0.00000000E+00
  0.00000000E+00  0.00000000E+00  0.00000000E+00
  0.00000000E+00  0.00000000E+00  0.00000000E+00
  0.00000000E+00  0.00000000E+00  0.00000000E+00
  0.00000000E+00  0.00000000E+00  0.00000000E+00
  0.00000000E+00  0.00000000E+00  0.00000000E+00
  0.00000000E+00  0.00000000E+00  0.00000000E+00
  0.00000000E+00  0.00000000E+00  0.00000000E+00
  0.00000000E+00  0.00000000E+00  0.00000000E+00
  0.00000000E+00  0.00000000E+00  0.00000000E+00
  0.00000000E+00  0.00000000E+00  0.00000000E+00
  0.00000000E+00  0.00000000E+00  0.00000000E+00
  0.00000000E+00  0.00000000E+00  0.00000000E+00
  0.00000000E+00  0.00000000E+00  0.00000000E+00
  0.00000000E+00  0.00000000E+00  0.00000000E+00
  0.00000000E+00  0.00000000E+00  0.00000000E+00
  0.00000000E+00  0.00000000E+00  0.00000000E+00
  0.00000000E+00  0.00000000E+00  0.00000000E+00
  0.00000000E+00  0.00000000E+00  0.00000000E+00
  0.00000000E+00  0.00000000E+00  0.00000000E+00
  0.00000000E+00  0.00000000E+00  0.00000000E+00
  0.00000000E+00  0.00000000E+00  0.00000000E+00
  0.00000000E+00  0.00000000E+00  0.00000000E+00
  0.00000000E+00  0.00000000E+00  0.00000000E+00
  0.00000000E+00  0.00000000E+00  0.00000000E+00
  0.00000000E+00  0.00000000E+00  0.00000000E+00
  0.00000000E+00  0.00000000E+00  0.00000000E+00
  0.00000000E+00  0.00000000E+00  0.00000000E+00
  0.00000000E+00  0.00000000E+00  0.00000000E+00
  0.00000000E+00  0.00000000E+00  0.00000000E+00
  0.00000000E+00  0.00000000E+00  0.00000000E+00
  0.00000000E+00  0.00000000E+00  0.00000000E+00
  0.00000000E+00  0.00000000E+00  0.00000000E+00
  0.00000000E+00  0.00000000E+00  0.00000000E+00
  0.00000000E+00  0.00000000E+00  0.00000000E+00
  0.00000000E+00  0.00000000E+00  0.00000000E+00
  0.00000000E+00  0.00000000E+00  0.00000000E+00
  0.00000000E+00  0.00000000E+00  0.00000000E+00
  0.00000000E+00  0.00000000E+00  0.00000000E+00
  0.00000000E+00  0.00000000E+00  0.00000000E+00
  0.00000000E+00  0.00000000E+00  0.00000000E+00
  0.00000000E+00  0.00000000E+00  0.00000000E+00
  0.00000000E+00  0.00000000E+00  0.00000000E+00
  0.00000000E+00  0.00000000E+00  0.00000000E+00
  0.00000000E+00  0.00000000E+00  0.00000000E+00
  0.00000000E+00  0.00000000E+00  0.00000000E+00
