Mo1 S2                                  
   1.00000000000000     
    19.1418952942000011    0.0000000000000000    0.0000000000000000
    -9.5709489007999995   16.5773646751000001    0.0000000000000000
     0.0000000000000000    0.0000000000000000   23.1298294067000008
   Mo   S 
    36    69
Direct
  0.1111110412689342  0.0555556086024609  0.4999999991576658
  0.1111110486295814  0.2222222826915328  0.4999999989003570
  0.1111110424628379  0.3888889488391811  0.5000000003475407
  0.1111110458261351  0.5555556186634760  0.5000000029719303
  0.1111110456290163  0.7222223048215710  0.5000000021374262
  0.1111110494026661  0.8888889500127277  0.5000000007486634
  0.2777777166586120  0.0555556122269678  0.5000000007601315
  0.2777777243850750  0.2222222851262146  0.5000000003521450
  0.2777777173180382  0.3888889502974422  0.5000000008071837
  0.2777777208973191  0.5555556189252755  0.5000000030488181
  0.2777777203453056  0.7222223093524676  0.5000000050201123
  0.2777777301914028  0.8888889496952785  0.5000000022173765
  0.4444443841210486  0.0555556065015779  0.5000000010454428
  0.4444443897474173  0.2222222827596170  0.5000000001761364
  0.4444443785117898  0.3888889472139283  0.5000000007168026
  0.4444443898820296  0.5555556147001468  0.5000000015269634
  0.4444443831172720  0.7222223055480228  0.5000000032582435
  0.4444443893950023  0.8888889469226768  0.5000000025277203
  0.6111110565726392  0.0555556079351121  0.4999999993573283
  0.6111110601946805  0.2222222730787564  0.4999999991092281
  0.6111110525716867  0.3888889446725869  0.4999999994295692
  0.6111110579185848  0.5555556136352919  0.5000000002513332
  0.6111110585616544  0.7222222983940156  0.5000000001859277
  0.6111110637036319  0.8888889474417354  0.5000000000380425
  0.7777776959566438  0.0555556125365015  0.4999999983416004
  0.7777777020343919  0.2222222811708434  0.4999999988408916
  0.7777776968471954  0.3888889513379539  0.5000000009804282
  0.7777777003867428  0.5555556175957506  0.5000000003894343
  0.7777776959488492  0.7222223080548460  0.4999999999942872
  0.7777777082010857  0.8888889510543549  0.4999999990020925
  0.9444443840622085  0.0555556033382203  0.4999999979895904
  0.9444443874793365  0.2222222797417004  0.4999999987722390
  0.9444443804995828  0.3888889480240110  0.5000000010099512
  0.9444443895613190  0.5555556140002196  0.5000000011758985
  0.9444443857826315  0.7222223050861771  0.4999999998720384
  0.9444443962500557  0.8888889519668197  0.4999999996701803
  0.0555555533121890  0.1111111022935489  0.4327153612259096
  0.0555555540122938  0.2777777651393265  0.4327153679585436
  0.0555555516633248  0.4444444474132823  0.4327153630637781
  0.0555555553041955  0.6111111093232395  0.4327153531477279
  0.0555555558396605  0.7777777744883849  0.4327153593395678
  0.0555555552540170  0.9444444360009143  0.4327153618504838
  0.2222222208795301  0.1111111017813400  0.4327153641325694
  0.2222222212470299  0.2777777698678463  0.4327153562859465
  0.2222222233495401  0.4444444480370535  0.4327153593739368
  0.2222222200186081  0.6111111088545158  0.4327153487585136
  0.2222222216314549  0.7777777786185567  0.4327153648385931
  0.2222222206568247  0.9444444351789230  0.4327153594730362
  0.3888888932888577  0.1111111035728598  0.4327153597689986
  0.3888888949805533  0.2777777665960954  0.4327153695336534
  0.3888888877979824  0.6111111067203012  0.4327153534827985
  0.3888888961100250  0.7777777768471097  0.4327153692352610
  0.3888888939583239  0.9444444317305809  0.4327153608060996
  0.5555555657438873  0.1111111016332558  0.4327153589082400
  0.5555555650624839  0.2777777677817923  0.4327153570260123
  0.5555555687292113  0.6111111081037279  0.4327153528031715
  0.5555555648323605  0.7777777736705076  0.4327153534177626
  0.5555555670049870  0.9444444314792975  0.4327153563241311
  0.7222222241946952  0.1111111003100618  0.4327153657400089
  0.7222222247689984  0.2777777655279721  0.4327153662572414
  0.7222222214292060  0.6111111090714729  0.4327153554466321
  0.7222222267440230  0.7777777735772418  0.4327153687288927
  0.7222222288886826  0.9444444360753295  0.4327153586205839
  0.8888888882580446  0.1111111055458736  0.4327153530027203
  0.8888888915793061  0.2777777702781847  0.4327153525129219
  0.8888888882373109  0.4444444454239758  0.4327153536464792
  0.8888888839144045  0.6111111122858404  0.4327153487531632
  0.8888888914352719  0.7777777785057509  0.4327153549865628
  0.8888888911325949  0.9444444335794984  0.4327153570944873
  0.0555555529385998  0.1111111028036547  0.5672846391785882
  0.0555555544494055  0.2777777650690254  0.5672846320511198
  0.0555555522640603  0.4444444466998689  0.5672846371840023
  0.0555555542283201  0.6111111085683660  0.5672846458212817
  0.0555555561039611  0.7777777737876335  0.5672846387399133
  0.0555555554670235  0.9444444345629321  0.5672846381436116
  0.2222222199996224  0.1111110989805724  0.5672846360884662
  0.2222222203603437  0.2777777704798297  0.5672846432290797
  0.2222222222862413  0.4444444477222618  0.5672846392596043
  0.2222222183296267  0.6111111072986972  0.5672846481534108
  0.2222222202283319  0.7777777782820010  0.5672846334098907
  0.2222222188488701  0.9444444333657813  0.5672846405690350
  0.3888888940916928  0.1111111028894314  0.5672846401959148
  0.3888888944663123  0.2777777660175147  0.5672846295029572
  0.3888888909394410  0.4444444412550581  0.5672846304032859
  0.3888888864374707  0.6111111059257226  0.5672846446836317
  0.3888888946188658  0.7777777748201231  0.5672846282605732
  0.3888888926495966  0.9444444304009991  0.5672846382654058
  0.5555555646785990  0.1111111006352630  0.5672846395811177
  0.5555555652630417  0.2777777667292014  0.5672846432830596
  0.5555555641556822  0.4444444448648213  0.5672846440080619
  0.5555555672399635  0.6111111076497622  0.5672846482602054
  0.5555555627239386  0.7777777716775987  0.5672846464114798
  0.5555555653429280  0.9444444303366950  0.5672846425140605
  0.7222222215766223  0.1111110988901558  0.5672846338981969
  0.7222222221835537  0.2777777651000548  0.5672846327115053
  0.7222222240189566  0.4444444449194336  0.5672846362659598
  0.7222222202986188  0.6111111073837776  0.5672846449807309
  0.7222222252323220  0.7777777730996149  0.5672846319587208
  0.7222222276028560  0.9444444352358730  0.5672846405475767
  0.8888888874825795  0.1111111047792548  0.5672846467863621
  0.8888888914796951  0.2777777703787621  0.5672846473301547
  0.8888888884684505  0.4444444460171368  0.5672846458070850
  0.8888888837505249  0.6111111107489933  0.5672846507059148
  0.8888888910369630  0.7777777769968139  0.5672846449451754
  0.8888888898200804  0.9444444318747216  0.5672846436764090
 
 
  
