Mo48 H4 Se99 C1 O1                      
   1.00000000000000     
    33.0000000000000000    0.0000000000000000    0.0000000000000000
     0.0000000000000000   26.3120002747000008    0.0000000000000000
     0.0000000000000000    0.0000000000000000   18.0970000000000013
   Mo   Se   O    C    H 
    48    99     1     1     4
Direct
  0.2860490817009784  0.0250869841389009  0.4997930992446750
  0.2806214041763530  0.2865712955589881  0.4998204571621436
  0.2877493954154793  0.5284905097393889  0.4998464000923244
  0.2821158822655492  0.7861220588903500  0.4998968869336082
  0.4537035743540552  0.0346453721046381  0.4999496863782480
  0.4518285041503236  0.2848261766867091  0.4998988406697837
  0.4556724775891941  0.5348583800781777  0.4999319654329626
  0.4549218194446458  0.7841350241875741  0.4999727450611503
  0.6258488465090870  0.0360488914246296  0.5001043382610828
  0.6235480911020299  0.2835560432448967  0.4999958387454683
  0.6302138475709080  0.5328153507141952  0.5001590685451073
  0.6275294327927056  0.7850980337390765  0.5002410492360966
  0.2796962403434889  0.1511519994122073  0.4998560372787530
  0.2862248187501049  0.4199933789944412  0.4998621345554549
  0.2817588481399341  0.6541812888907820  0.4998707428866460
  0.2866430901316634  0.9160763159743470  0.4998697319971834
  0.4520390683337275  0.1592501962414442  0.4999327720792125
  0.4539421059529452  0.4098915624272821  0.4999176147991540
  0.4557241803443715  0.6590516930767555  0.4999235140574176
  0.4547329263406230  0.9090484929947112  0.4999566530306231
  0.6248721120915000  0.1605904597579415  0.5000399961559587
  0.6263535983600542  0.4081339866939439  0.5000422409981359
  0.6300357285902984  0.6581566618712704  0.5004066572011310
  0.6269008884953343  0.9107844043853506  0.5002296095051540
  0.3642304180126517  0.2225310707590327  0.4998635949359666
  0.3686876822749076  0.4725968367032951  0.4998815730914956
  0.3675796932161542  0.7219157388671497  0.4999125977002384
  0.3682219294953836  0.9712289781314241  0.4998706847527526
  0.5375700039675186  0.2219545462143891  0.4999834760768623
  0.5420145348930558  0.4718326948142847  0.5000212842181225
  0.5423039447456508  0.7212784537990262  0.5000151349615860
  0.5404353760410091  0.9723883155684492  0.5000352685471133
  0.7111457728425397  0.2207795734038236  0.4999979385492480
  0.7140649187885020  0.4568979903116063  0.4999938960743313
  0.7147156736323327  0.7168677457061450  0.5013338394746281
  0.7136282799495394  0.9662609680828608  0.5003179887038731
  0.3674915698347684  0.0960319632031657  0.4998785444488399
  0.3664650569448661  0.3483007607916616  0.4998398880044140
  0.3701062297933302  0.5965651554696689  0.4998697960267621
  0.3687602433532565  0.8470836687121709  0.4999230307241774
  0.5393909136452230  0.0976046151074973  0.5000105030987317
  0.5387596366763979  0.3466688450852509  0.4999855635339384
  0.5430266291154165  0.5965396598339727  0.5000154063989349
  0.5411871950867847  0.8470799984657116  0.5000606456913949
  0.7134980768411067  0.1080745748337518  0.5000786038118548
  0.7079102795238689  0.3390075264482756  0.4999441817013704
  0.7203890150094269  0.6073712457731080  0.5012372481555415
  0.7137374145170264  0.8578120757758487  0.5004720525602212
  0.2530717013773860  0.0890662746857053  0.5888579995753346
  0.2499733242214882  0.3530924607745530  0.5800342874867876
  0.2547210120206720  0.5924844527848522  0.5891172288471880
  0.2529621361282408  0.8501755375567973  0.5845833646866195
  0.4244758076811784  0.0966932256793461  0.5931348501124178
  0.4240716145551092  0.3477193141314635  0.5925916112618335
  0.4272348868441058  0.5972051059806969  0.5931730732339295
  0.4262221155578408  0.8464496480177464  0.5928940745621348
  0.5970283370139190  0.0976506975783247  0.5929910173171845
  0.5959644094426685  0.3467214486732959  0.5926833223568406
  0.6013176423491159  0.5951029099294179  0.5923215794390205
  0.5987129517170371  0.8473292975303937  0.5927125458785091
  0.4224177155260116  0.2220703289322921  0.5919141552072196
  0.4264637914874214  0.4726330623418662  0.5927581957523629
  0.4258584922503102  0.7215440168783115  0.5920555745329353
  0.4259504694777460  0.9715403447034595  0.5926374139212487
  0.5946827125811475  0.2217725569993843  0.5927827523747055
  0.5999928685405409  0.4718735102455635  0.5929016664183165
  0.6002887171642525  0.7214663210541221  0.5922589021374365
  0.5980173876095630  0.9732909323486999  0.5927689458018132
  0.3393704078764531  0.0329149753405223  0.5948266175097082
  0.3355616355050138  0.2856573330727755  0.5928021000666314
  0.3410365465003117  0.5345965157499997  0.5952221316242333
  0.3381532722683649  0.7844735168163003  0.5923531544127630
  0.5112622338328044  0.0346491942953686  0.5925913833283956
  0.5092619385189228  0.2845608357819117  0.5927720829778573
  0.5135756405779384  0.5345169424636760  0.5924466213892168
  0.5129009061789765  0.7838702188306521  0.5922674017573722
  0.6866299897836364  0.0371900859953309  0.5880423772667217
  0.6807394736904903  0.2805871536301263  0.5955813313603701
  0.6936568877094532  0.5324247767111880  0.5856491568310906
  0.6873390829479459  0.7868205160878676  0.5893377097086985
  0.3359732824847618  0.1587204954235563  0.5918315494552218
  0.3386703052233122  0.4116454518863627  0.5954859239036023
  0.3386164762505618  0.6590350804435299  0.5916589196626679
  0.3397248363122243  0.9095568941765302  0.5953934132418727
  0.5095659708539096  0.1593311330484478  0.5927941606214195
  0.5116413339123886  0.4100462505846527  0.5925223724182966
  0.5137919624371813  0.6589725683102751  0.5925494378387952
  0.5123330275069835  0.9094906678773109  0.5927076673803253
  0.6822435604161724  0.1615277827435033  0.5966671307534968
  0.6842216577892498  0.4027959370492083  0.5965631187217530
  0.6862236644831334  0.6589223253489237  0.5984173876456640
  0.6831349847244891  0.9120134391694560  0.5986377847897967
  0.2531146325608066  0.0891180926719547  0.4107204213330728
  0.2498992697229131  0.3530934878402608  0.4197932934359243
  0.2547225280681959  0.5925051505343756  0.4106143980386069
  0.2529203368148735  0.8501558954732229  0.4152530998712933
  0.4245093064673724  0.0966797012411185  0.4067050925152412
  0.4241163962858380  0.3477256161954769  0.4071352635259941
  0.4272811791553973  0.5971916746702864  0.4066147325913331
  0.4262519128830967  0.8464423070945569  0.4070193622822587
  0.5970785498677019  0.0975974434121532  0.4071262014777505
  0.5959797348493520  0.3467507461504620  0.4073364898632362
  0.6015015850779223  0.5952656230696246  0.4080347931735188
  0.5988276522020246  0.8472801525982787  0.4076425551605506
  0.2298986253607670  0.2197107414563949  0.5000120324924356
  0.2274958800245735  0.4762348885252883  0.4997834804440748
  0.2302326956721190  0.7202850349283285  0.5000244294788849
  0.2269213067383733  0.9706778154952693  0.4998801832280536
  0.4224604348856209  0.2220463353823030  0.4078767104611867
  0.4264907432930838  0.4726383235290639  0.4070748426642633
  0.4258866830686904  0.7215702677319606  0.4078239439304007
  0.4260054847942430  0.9715380786458367  0.4072105349991945
  0.5947010722851813  0.2217472571434812  0.4072347884122786
  0.6000373547623176  0.4719773243090091  0.4072597612169009
  0.6004840515483940  0.7213955484878393  0.4081181928305718
  0.5980974768770903  0.9732291568369943  0.4074746912946043
  0.3394226806996871  0.0329009920951257  0.4048336765698964
  0.3355923383386664  0.2856536407635730  0.4068341548695236
  0.3410572010636626  0.5345954295043975  0.4044995903630300
  0.3381780529473482  0.7844837848411983  0.4074771904973705
  0.5113124745775025  0.0346337418088327  0.4074057767114877
  0.5093149288851840  0.2845615269716111  0.4071391777614719
  0.5136349292678867  0.5345272001216439  0.4075321804747284
  0.5129522947463816  0.7838900151821450  0.4077583324374487
  0.6866835590346981  0.0370923808727339  0.4122298262971968
  0.6807231651375861  0.2805545466928437  0.4043707691764217
  0.6936841065603317  0.5327151308215922  0.4150204822106105
  0.6877014296632409  0.7865170250598227  0.4118179111029361
  0.3359961683180765  0.1587182879900984  0.4079226008110096
  0.3386801098147762  0.4116611614921322  0.4042440095086818
  0.3386364227728936  0.6590588742204251  0.4081027651738631
  0.3397468215802305  0.9095199481472556  0.4043790589948432
  0.5096070002695338  0.1593048919943232  0.4071512664566608
  0.5116911251717596  0.4100703997819113  0.4074348436106274
  0.5138562214858660  0.6589669872735404  0.4074038955214298
  0.5123952431715482  0.9094684839815662  0.4073102321921898
  0.6822435689853610  0.1614560884708859  0.4034179568550076
  0.7745128612868563  0.9132575230126846  0.5014220129398232
  0.7671845088124551  0.7886070792413717  0.4994173556604682
  0.7771029260150951  0.6687822743774990  0.5097640803999121
  0.7814827300790171  0.4379891349589151  0.4992876533709888
  0.7702475871814234  0.2949451669312706  0.4999404080107878
  0.7726057478100239  0.1673362560841659  0.5000356255208936
  0.7666571503240691  0.0392527713492843  0.5000123763876910
  0.6841570326794728  0.4028473570861809  0.4034589907266208
  0.6870409987225287  0.6590794751214938  0.4036069360831420
  0.6832485757678904  0.9118231046535997  0.4021029407302224
  0.7745166775231515  0.5595905204622050  0.4975495531972405
  0.8179975276657568  0.5655255086825455  0.5052582477630458
  0.8315454966831684  0.5274224438388411  0.5025239812558484
  0.8250186021861108  0.5832233653891541  0.5586123479393493
  0.7685819949877298  0.5219475038800819  0.4968801366159472
  0.8295082568535282  0.5890738002374702  0.4599183158474090
 
  0.00000000E+00  0.00000000E+00  0.00000000E+00
  0.00000000E+00  0.00000000E+00  0.00000000E+00
  0.00000000E+00  0.00000000E+00  0.00000000E+00
  0.00000000E+00  0.00000000E+00  0.00000000E+00
  0.00000000E+00  0.00000000E+00  0.00000000E+00
  0.00000000E+00  0.00000000E+00  0.00000000E+00
  0.00000000E+00  0.00000000E+00  0.00000000E+00
  0.00000000E+00  0.00000000E+00  0.00000000E+00
  0.00000000E+00  0.00000000E+00  0.00000000E+00
  0.00000000E+00  0.00000000E+00  0.00000000E+00
  0.00000000E+00  0.00000000E+00  0.00000000E+00
  0.00000000E+00  0.00000000E+00  0.00000000E+00
  0.00000000E+00  0.00000000E+00  0.00000000E+00
  0.00000000E+00  0.00000000E+00  0.00000000E+00
  0.00000000E+00  0.00000000E+00  0.00000000E+00
  0.00000000E+00  0.00000000E+00  0.00000000E+00
  0.00000000E+00  0.00000000E+00  0.00000000E+00
  0.00000000E+00  0.00000000E+00  0.00000000E+00
  0.00000000E+00  0.00000000E+00  0.00000000E+00
  0.00000000E+00  0.00000000E+00  0.00000000E+00
  0.00000000E+00  0.00000000E+00  0.00000000E+00
  0.00000000E+00  0.00000000E+00  0.00000000E+00
  0.00000000E+00  0.00000000E+00  0.00000000E+00
  0.00000000E+00  0.00000000E+00  0.00000000E+00
  0.00000000E+00  0.00000000E+00  0.00000000E+00
  0.00000000E+00  0.00000000E+00  0.00000000E+00
  0.00000000E+00  0.00000000E+00  0.00000000E+00
  0.00000000E+00  0.00000000E+00  0.00000000E+00
  0.00000000E+00  0.00000000E+00  0.00000000E+00
  0.00000000E+00  0.00000000E+00  0.00000000E+00
  0.00000000E+00  0.00000000E+00  0.00000000E+00
  0.00000000E+00  0.00000000E+00  0.00000000E+00
  0.00000000E+00  0.00000000E+00  0.00000000E+00
  0.00000000E+00  0.00000000E+00  0.00000000E+00
  0.00000000E+00  0.00000000E+00  0.00000000E+00
  0.00000000E+00  0.00000000E+00  0.00000000E+00
  0.00000000E+00  0.00000000E+00  0.00000000E+00
  0.00000000E+00  0.00000000E+00  0.00000000E+00
  0.00000000E+00  0.00000000E+00  0.00000000E+00
  0.00000000E+00  0.00000000E+00  0.00000000E+00
  0.00000000E+00  0.00000000E+00  0.00000000E+00
  0.00000000E+00  0.00000000E+00  0.00000000E+00
  0.00000000E+00  0.00000000E+00  0.00000000E+00
  0.00000000E+00  0.00000000E+00  0.00000000E+00
  0.00000000E+00  0.00000000E+00  0.00000000E+00
  0.00000000E+00  0.00000000E+00  0.00000000E+00
  0.00000000E+00  0.00000000E+00  0.00000000E+00
  0.00000000E+00  0.00000000E+00  0.00000000E+00
  0.00000000E+00  0.00000000E+00  0.00000000E+00
  0.00000000E+00  0.00000000E+00  0.00000000E+00
  0.00000000E+00  0.00000000E+00  0.00000000E+00
  0.00000000E+00  0.00000000E+00  0.00000000E+00
  0.00000000E+00  0.00000000E+00  0.00000000E+00
  0.00000000E+00  0.00000000E+00  0.00000000E+00
  0.00000000E+00  0.00000000E+00  0.00000000E+00
  0.00000000E+00  0.00000000E+00  0.00000000E+00
  0.00000000E+00  0.00000000E+00  0.00000000E+00
  0.00000000E+00  0.00000000E+00  0.00000000E+00
  0.00000000E+00  0.00000000E+00  0.00000000E+00
  0.00000000E+00  0.00000000E+00  0.00000000E+00
  0.00000000E+00  0.00000000E+00  0.00000000E+00
  0.00000000E+00  0.00000000E+00  0.00000000E+00
  0.00000000E+00  0.00000000E+00  0.00000000E+00
  0.00000000E+00  0.00000000E+00  0.00000000E+00
  0.00000000E+00  0.00000000E+00  0.00000000E+00
  0.00000000E+00  0.00000000E+00  0.00000000E+00
  0.00000000E+00  0.00000000E+00  0.00000000E+00
  0.00000000E+00  0.00000000E+00  0.00000000E+00
  0.00000000E+00  0.00000000E+00  0.00000000E+00
  0.00000000E+00  0.00000000E+00  0.00000000E+00
  0.00000000E+00  0.00000000E+00  0.00000000E+00
  0.00000000E+00  0.00000000E+00  0.00000000E+00
  0.00000000E+00  0.00000000E+00  0.00000000E+00
  0.00000000E+00  0.00000000E+00  0.00000000E+00
  0.00000000E+00  0.00000000E+00  0.00000000E+00
  0.00000000E+00  0.00000000E+00  0.00000000E+00
  0.00000000E+00  0.00000000E+00  0.00000000E+00
  0.00000000E+00  0.00000000E+00  0.00000000E+00
  0.00000000E+00  0.00000000E+00  0.00000000E+00
  0.00000000E+00  0.00000000E+00  0.00000000E+00
  0.00000000E+00  0.00000000E+00  0.00000000E+00
  0.00000000E+00  0.00000000E+00  0.00000000E+00
  0.00000000E+00  0.00000000E+00  0.00000000E+00
  0.00000000E+00  0.00000000E+00  0.00000000E+00
  0.00000000E+00  0.00000000E+00  0.00000000E+00
  0.00000000E+00  0.00000000E+00  0.00000000E+00
  0.00000000E+00  0.00000000E+00  0.00000000E+00
  0.00000000E+00  0.00000000E+00  0.00000000E+00
  0.00000000E+00  0.00000000E+00  0.00000000E+00
  0.00000000E+00  0.00000000E+00  0.00000000E+00
  0.00000000E+00  0.00000000E+00  0.00000000E+00
  0.00000000E+00  0.00000000E+00  0.00000000E+00
  0.00000000E+00  0.00000000E+00  0.00000000E+00
  0.00000000E+00  0.00000000E+00  0.00000000E+00
  0.00000000E+00  0.00000000E+00  0.00000000E+00
  0.00000000E+00  0.00000000E+00  0.00000000E+00
  0.00000000E+00  0.00000000E+00  0.00000000E+00
  0.00000000E+00  0.00000000E+00  0.00000000E+00
  0.00000000E+00  0.00000000E+00  0.00000000E+00
  0.00000000E+00  0.00000000E+00  0.00000000E+00
  0.00000000E+00  0.00000000E+00  0.00000000E+00
  0.00000000E+00  0.00000000E+00  0.00000000E+00
  0.00000000E+00  0.00000000E+00  0.00000000E+00
  0.00000000E+00  0.00000000E+00  0.00000000E+00
  0.00000000E+00  0.00000000E+00  0.00000000E+00
  0.00000000E+00  0.00000000E+00  0.00000000E+00
  0.00000000E+00  0.00000000E+00  0.00000000E+00
  0.00000000E+00  0.00000000E+00  0.00000000E+00
  0.00000000E+00  0.00000000E+00  0.00000000E+00
  0.00000000E+00  0.00000000E+00  0.00000000E+00
  0.00000000E+00  0.00000000E+00  0.00000000E+00
  0.00000000E+00  0.00000000E+00  0.00000000E+00
  0.00000000E+00  0.00000000E+00  0.00000000E+00
  0.00000000E+00  0.00000000E+00  0.00000000E+00
  0.00000000E+00  0.00000000E+00  0.00000000E+00
  0.00000000E+00  0.00000000E+00  0.00000000E+00
  0.00000000E+00  0.00000000E+00  0.00000000E+00
  0.00000000E+00  0.00000000E+00  0.00000000E+00
  0.00000000E+00  0.00000000E+00  0.00000000E+00
  0.00000000E+00  0.00000000E+00  0.00000000E+00
  0.00000000E+00  0.00000000E+00  0.00000000E+00
  0.00000000E+00  0.00000000E+00  0.00000000E+00
  0.00000000E+00  0.00000000E+00  0.00000000E+00
  0.00000000E+00  0.00000000E+00  0.00000000E+00
  0.00000000E+00  0.00000000E+00  0.00000000E+00
  0.00000000E+00  0.00000000E+00  0.00000000E+00
  0.00000000E+00  0.00000000E+00  0.00000000E+00
  0.00000000E+00  0.00000000E+00  0.00000000E+00
  0.00000000E+00  0.00000000E+00  0.00000000E+00
  0.00000000E+00  0.00000000E+00  0.00000000E+00
  0.00000000E+00  0.00000000E+00  0.00000000E+00
  0.00000000E+00  0.00000000E+00  0.00000000E+00
  0.00000000E+00  0.00000000E+00  0.00000000E+00
  0.00000000E+00  0.00000000E+00  0.00000000E+00
  0.00000000E+00  0.00000000E+00  0.00000000E+00
  0.00000000E+00  0.00000000E+00  0.00000000E+00
  0.00000000E+00  0.00000000E+00  0.00000000E+00
  0.00000000E+00  0.00000000E+00  0.00000000E+00
  0.00000000E+00  0.00000000E+00  0.00000000E+00
  0.00000000E+00  0.00000000E+00  0.00000000E+00
  0.00000000E+00  0.00000000E+00  0.00000000E+00
  0.00000000E+00  0.00000000E+00  0.00000000E+00
  0.00000000E+00  0.00000000E+00  0.00000000E+00
  0.00000000E+00  0.00000000E+00  0.00000000E+00
  0.00000000E+00  0.00000000E+00  0.00000000E+00
  0.00000000E+00  0.00000000E+00  0.00000000E+00
  0.00000000E+00  0.00000000E+00  0.00000000E+00
  0.00000000E+00  0.00000000E+00  0.00000000E+00
  0.00000000E+00  0.00000000E+00  0.00000000E+00
  0.00000000E+00  0.00000000E+00  0.00000000E+00
  0.00000000E+00  0.00000000E+00  0.00000000E+00
  0.00000000E+00  0.00000000E+00  0.00000000E+00
  0.00000000E+00  0.00000000E+00  0.00000000E+00
