Mo36 Se72                               
   1.00000000000000     
    19.7339992522999985    0.0000000000000000    0.0000000000000000
    -9.8669996262000002   17.0901446708000009    0.0000000000000000
     0.0000000000000000    0.0000000000000000   25.8540000915999997
   Mo   Se   O    C 
    36    69     1     1
Direct
  0.1224231380243828  0.0482044428522955  0.5005599823962406
  0.1250925141588415  0.2155492788335087  0.5003731348861624
  0.1250187744571601  0.3817344114236405  0.5003649376046453
  0.1223480034610010  0.5463819942730923  0.5004982848459605
  0.1205734209808758  0.7126299597739146  0.5011563872307057
  0.1206299983541295  0.8801560315780306  0.5011736584574399
  0.2885770124320124  0.0489329790216177  0.4982070663404951
  0.2937901095517612  0.2176479243594276  0.4936641631917802
  0.2930966663914806  0.3826312628141926  0.4931403185599468
  0.2937412939799295  0.5482592925473672  0.4935453813569408
  0.2885262394237456  0.7117301661906125  0.4981312895031388
  0.2875453849325890  0.8797943819974019  0.5002379513897546
  0.4536084620611899  0.0469107960493175  0.5007053446622497
  0.4506764191510056  0.2153975880939192  0.4958567327154668
  0.4490904425565892  0.3766578722153001  0.4933669553040659
  0.4490259775814414  0.5446788451021293  0.4933048994541847
  0.4506351052893969  0.7074178786700572  0.4957587859117036
  0.4536210232422989  0.8787780987388105  0.5006584322598848
  0.6203027275810098  0.0462522941908989  0.5028709429489761
  0.6190043419017650  0.2130239897557853  0.5019885120977738
  0.6157062395188578  0.3777983106756047  0.4996437840910621
  0.6148953922469396  0.5436117181263463  0.5000740520242888
  0.6157049320651894  0.7101904973563933  0.4995631950352343
  0.6190213182311094  0.8782216076100571  0.5019153245760429
  0.7873380046192008  0.0463516495907782  0.5039293800168304
  0.7873092150007405  0.2132312572062680  0.5039578272527703
  0.7859818219109500  0.3792329697819136  0.5030513996076966
  0.7844843820013881  0.5452988238764105  0.5025265466057691
  0.7844936095543620  0.7115535818296383  0.5025077714945874
  0.7860354279428553  0.8790951581514619  0.5030023463977507
  0.9549718730622778  0.0472346918650585  0.5031714579202886
  0.9561801876068137  0.2142059316136724  0.5035673658409403
  0.9549059745679735  0.3799759541592770  0.5031883248410298
  0.9535960570925446  0.5460536383011192  0.5027538674917201
  0.9528669866604971  0.7125786215425645  0.5026683236764948
  0.9536697295585401  0.8798695041516136  0.5027511246282591
  0.0694714133648466  0.1051706580936616  0.5661980029479167
  0.0718995291257754  0.2720731377710977  0.5663061976910468
  0.0694175632908921  0.4365421247256771  0.5661857039597606
  0.0672269017401287  0.6019014267753667  0.5662011934918711
  0.0659284294204596  0.7690526951380096  0.5663360736578468
  0.0672720605729396  0.9375240579545772  0.5662596852810077
  0.2395178325799084  0.1110106539924039  0.5620545212772960
  0.2457697764427289  0.2759782741817198  0.5608964085012345
  0.2457427817949477  0.4419692810636688  0.5608358156702807
  0.2395052252141364  0.6005650599082409  0.5619182721131536
  0.2335536080991973  0.7674118973519515  0.5643507463484183
  0.2336265955416172  0.9382114810295130  0.5643728407563287
  0.3978904996242164  0.1075131208664631  0.5631560433792965
  0.3978377952198111  0.7624179042119170  0.5630913109708687
  0.3977851200725776  0.9348571155061830  0.5654261479295426
  0.5630535202247257  0.1018133207088474  0.5668135386806141
  0.5567827049916229  0.2679113437875418  0.5641759506686019
  0.5517983814004590  0.4276214703214176  0.5627518830304817
  0.5517123091143695  0.5964815879263811  0.5626941090332455
  0.5567693340752645  0.7610993104949549  0.5640810122474827
  0.5630640190661886  0.9333811791344634  0.5667810896029641
  0.7309181152173809  0.1015825498422788  0.5685467184808273
  0.7293930531101637  0.2684138375579288  0.5679249295015238
  0.7261745685834698  0.4331280459893413  0.5662752716979689
  0.7251628065797033  0.5987866198086454  0.5663513601506462
  0.7261233377812114  0.7654205391426094  0.5662307825794064
  0.7293852128678966  0.9332557780721886  0.5678638181902855
  0.8999523550261054  0.1027880687331798  0.5684440006446659
  0.8999484451138189  0.2694303671439494  0.5684504550366198
  0.8981411523560746  0.4352776548780963  0.5677640568987871
  0.8965896804576757  0.6010407991375040  0.5673171958216344
  0.8965910568717609  0.7678583554110227  0.5673023165056051
  0.8981855007759548  0.9352157998635866  0.5677354076446932
  0.0646645797650421  0.1024407589931809  0.4370405796749757
  0.0655247217692544  0.2688628941737096  0.4371532999693457
  0.0645580025380458  0.4343757047252859  0.4370284575935864
  0.0637261001073152  0.6009359982323134  0.4369014297014659
  0.0633725468843059  0.7678035117167149  0.4371027883550491
  0.0638559011241252  0.9351059028532759  0.4369220049401030
  0.2308670440143155  0.1020585197236894  0.4328743336666065
  0.2310697774254726  0.2669524105176130  0.4308497082950398
  0.2309273176929890  0.4361490526945957  0.4308372252324910
  0.2307356738860018  0.6009042101265969  0.4327807205106223
  0.2307576235083207  0.7683413847357683  0.4353776508024346
  0.2308612686534392  0.9345639115469869  0.4353963686058341
  0.3999570934140761  0.1023840299059708  0.4335812284499615
  0.3996189635202938  0.2686684341111460  0.4274915996813806
  0.4009782962930003  0.4365878199544878  0.4265379465822147
  0.3995607716520380  0.6031257085046883  0.4273598758564071
  0.3999006355276030  0.7696785134396953  0.4334906029853882
  0.3990056884201335  0.9355333722005724  0.4358304067707015
  0.5660154015782740  0.1021609691411162  0.4372759395708000
  0.5646180278137577  0.2673006022126650  0.4345318635938589
  0.5639533724673578  0.4351522128415397  0.4329847962225140
  0.5639023002734090  0.6010414546197320  0.4329301048524505
  0.5645964700339396  0.7695778508890710  0.4344479486157497
  0.5660440749069190  0.9361103806059851  0.4372321454499110
  0.7325655534554256  0.1024003966116598  0.4389943832371471
  0.7319593000688623  0.2682664676115031  0.4384412824496738
  0.7309591156840212  0.4346668477763014  0.4374580819447169
  0.7297626489522839  0.6010503029616218  0.4373135524386432
  0.7310128053059007  0.7686753680524311  0.4374093400155725
  0.7319895289144552  0.9360013186587826  0.4383779126300920
  0.8987414214284034  0.1025974877942413  0.4390668073127185
  0.8986916700755928  0.2683381699341525  0.4390991667959713
  0.8978179017510654  0.4345234791376580  0.4385063028086876
  0.8968520261594461  0.6011033769563986  0.4382078081565031
  0.8968936139969408  0.7680986892330660  0.4381970862127632
  0.8978970503603374  0.9356198547063067  0.4384541721442234
  0.4008623919847370  0.4365423936123689  0.5894194003299368
  0.3990096232868631  0.4356233872870985  0.5421719803750504
 
  0.00000000E+00  0.00000000E+00  0.00000000E+00
  0.00000000E+00  0.00000000E+00  0.00000000E+00
  0.00000000E+00  0.00000000E+00  0.00000000E+00
  0.00000000E+00  0.00000000E+00  0.00000000E+00
  0.00000000E+00  0.00000000E+00  0.00000000E+00
  0.00000000E+00  0.00000000E+00  0.00000000E+00
  0.00000000E+00  0.00000000E+00  0.00000000E+00
  0.00000000E+00  0.00000000E+00  0.00000000E+00
  0.00000000E+00  0.00000000E+00  0.00000000E+00
  0.00000000E+00  0.00000000E+00  0.00000000E+00
  0.00000000E+00  0.00000000E+00  0.00000000E+00
  0.00000000E+00  0.00000000E+00  0.00000000E+00
  0.00000000E+00  0.00000000E+00  0.00000000E+00
  0.00000000E+00  0.00000000E+00  0.00000000E+00
  0.00000000E+00  0.00000000E+00  0.00000000E+00
  0.00000000E+00  0.00000000E+00  0.00000000E+00
  0.00000000E+00  0.00000000E+00  0.00000000E+00
  0.00000000E+00  0.00000000E+00  0.00000000E+00
  0.00000000E+00  0.00000000E+00  0.00000000E+00
  0.00000000E+00  0.00000000E+00  0.00000000E+00
  0.00000000E+00  0.00000000E+00  0.00000000E+00
  0.00000000E+00  0.00000000E+00  0.00000000E+00
  0.00000000E+00  0.00000000E+00  0.00000000E+00
  0.00000000E+00  0.00000000E+00  0.00000000E+00
  0.00000000E+00  0.00000000E+00  0.00000000E+00
  0.00000000E+00  0.00000000E+00  0.00000000E+00
  0.00000000E+00  0.00000000E+00  0.00000000E+00
  0.00000000E+00  0.00000000E+00  0.00000000E+00
  0.00000000E+00  0.00000000E+00  0.00000000E+00
  0.00000000E+00  0.00000000E+00  0.00000000E+00
  0.00000000E+00  0.00000000E+00  0.00000000E+00
  0.00000000E+00  0.00000000E+00  0.00000000E+00
  0.00000000E+00  0.00000000E+00  0.00000000E+00
  0.00000000E+00  0.00000000E+00  0.00000000E+00
  0.00000000E+00  0.00000000E+00  0.00000000E+00
  0.00000000E+00  0.00000000E+00  0.00000000E+00
  0.00000000E+00  0.00000000E+00  0.00000000E+00
  0.00000000E+00  0.00000000E+00  0.00000000E+00
  0.00000000E+00  0.00000000E+00  0.00000000E+00
  0.00000000E+00  0.00000000E+00  0.00000000E+00
  0.00000000E+00  0.00000000E+00  0.00000000E+00
  0.00000000E+00  0.00000000E+00  0.00000000E+00
  0.00000000E+00  0.00000000E+00  0.00000000E+00
  0.00000000E+00  0.00000000E+00  0.00000000E+00
  0.00000000E+00  0.00000000E+00  0.00000000E+00
  0.00000000E+00  0.00000000E+00  0.00000000E+00
  0.00000000E+00  0.00000000E+00  0.00000000E+00
  0.00000000E+00  0.00000000E+00  0.00000000E+00
  0.00000000E+00  0.00000000E+00  0.00000000E+00
  0.00000000E+00  0.00000000E+00  0.00000000E+00
  0.00000000E+00  0.00000000E+00  0.00000000E+00
  0.00000000E+00  0.00000000E+00  0.00000000E+00
  0.00000000E+00  0.00000000E+00  0.00000000E+00
  0.00000000E+00  0.00000000E+00  0.00000000E+00
  0.00000000E+00  0.00000000E+00  0.00000000E+00
  0.00000000E+00  0.00000000E+00  0.00000000E+00
  0.00000000E+00  0.00000000E+00  0.00000000E+00
  0.00000000E+00  0.00000000E+00  0.00000000E+00
  0.00000000E+00  0.00000000E+00  0.00000000E+00
  0.00000000E+00  0.00000000E+00  0.00000000E+00
  0.00000000E+00  0.00000000E+00  0.00000000E+00
  0.00000000E+00  0.00000000E+00  0.00000000E+00
  0.00000000E+00  0.00000000E+00  0.00000000E+00
  0.00000000E+00  0.00000000E+00  0.00000000E+00
  0.00000000E+00  0.00000000E+00  0.00000000E+00
  0.00000000E+00  0.00000000E+00  0.00000000E+00
  0.00000000E+00  0.00000000E+00  0.00000000E+00
  0.00000000E+00  0.00000000E+00  0.00000000E+00
  0.00000000E+00  0.00000000E+00  0.00000000E+00
  0.00000000E+00  0.00000000E+00  0.00000000E+00
  0.00000000E+00  0.00000000E+00  0.00000000E+00
  0.00000000E+00  0.00000000E+00  0.00000000E+00
  0.00000000E+00  0.00000000E+00  0.00000000E+00
  0.00000000E+00  0.00000000E+00  0.00000000E+00
  0.00000000E+00  0.00000000E+00  0.00000000E+00
  0.00000000E+00  0.00000000E+00  0.00000000E+00
  0.00000000E+00  0.00000000E+00  0.00000000E+00
  0.00000000E+00  0.00000000E+00  0.00000000E+00
  0.00000000E+00  0.00000000E+00  0.00000000E+00
  0.00000000E+00  0.00000000E+00  0.00000000E+00
  0.00000000E+00  0.00000000E+00  0.00000000E+00
  0.00000000E+00  0.00000000E+00  0.00000000E+00
  0.00000000E+00  0.00000000E+00  0.00000000E+00
  0.00000000E+00  0.00000000E+00  0.00000000E+00
  0.00000000E+00  0.00000000E+00  0.00000000E+00
  0.00000000E+00  0.00000000E+00  0.00000000E+00
  0.00000000E+00  0.00000000E+00  0.00000000E+00
  0.00000000E+00  0.00000000E+00  0.00000000E+00
  0.00000000E+00  0.00000000E+00  0.00000000E+00
  0.00000000E+00  0.00000000E+00  0.00000000E+00
  0.00000000E+00  0.00000000E+00  0.00000000E+00
  0.00000000E+00  0.00000000E+00  0.00000000E+00
  0.00000000E+00  0.00000000E+00  0.00000000E+00
  0.00000000E+00  0.00000000E+00  0.00000000E+00
  0.00000000E+00  0.00000000E+00  0.00000000E+00
  0.00000000E+00  0.00000000E+00  0.00000000E+00
  0.00000000E+00  0.00000000E+00  0.00000000E+00
  0.00000000E+00  0.00000000E+00  0.00000000E+00
  0.00000000E+00  0.00000000E+00  0.00000000E+00
  0.00000000E+00  0.00000000E+00  0.00000000E+00
  0.00000000E+00  0.00000000E+00  0.00000000E+00
  0.00000000E+00  0.00000000E+00  0.00000000E+00
  0.00000000E+00  0.00000000E+00  0.00000000E+00
  0.00000000E+00  0.00000000E+00  0.00000000E+00
  0.00000000E+00  0.00000000E+00  0.00000000E+00
  0.00000000E+00  0.00000000E+00  0.00000000E+00
  0.00000000E+00  0.00000000E+00  0.00000000E+00
