W48 S98                                 
   1.00000000000000     
    33.0000000000000000    0.0000000000000000    0.0000000000000000
     0.0000000000000000   25.2255992888999998    0.0000000000000000
     0.0000000000000000    0.0000000000000000   17.4930000304999993
   W    S    O    C 
    48    98     1     1
Direct
  0.2881565396746462  0.0391054202889804  0.5000474153859196
  0.2906107852864287  0.2849564825809665  0.5000714486986857
  0.2891827925632287  0.5388122184220865  0.5000107851396267
  0.2906743146620776  0.7840008942919610  0.5000223226683985
  0.4552842935736613  0.0354135203403471  0.4999992878494372
  0.4560812881427270  0.2857145483330676  0.4999958530118327
  0.4566549971658536  0.5354235233916609  0.4999825057533383
  0.4561728794750766  0.7855443675738295  0.4999894438425420
  0.6221872698960639  0.0356743846241530  0.4999845430505090
  0.6228923350070855  0.2854045865293868  0.4999876907858576
  0.6241556042879749  0.5359689091408421  0.4999746661776813
  0.6223693598487015  0.7859178278101657  0.4999864285599714
  0.2902550902723112  0.1615666948963156  0.5000595295597952
  0.2890264559089969  0.4071896705592369  0.5000570029431456
  0.2910095689507662  0.6609997781898588  0.4999983055998701
  0.2883417509502897  0.9063598697455725  0.5000492196993276
  0.4556015891862542  0.1602329047226411  0.4999980027852209
  0.4564833603599112  0.4102496724091656  0.4999931959125306
  0.4564790383836312  0.6600089332345804  0.4999782850669876
  0.4555177025849336  0.9102980461316256  0.4999954084849794
  0.6214137186181506  0.1596687810269546  0.4999885180735362
  0.6240809723841789  0.4090649157423399  0.4999798219232383
  0.6232790179161493  0.6599750262877784  0.4999793673201028
  0.6225189125653395  0.9107390616239895  0.4999867913554134
  0.3721611665457199  0.2230773135042257  0.5000260903418025
  0.3722551931015589  0.4729153509967964  0.5000044774573682
  0.3726140537164607  0.7227095527871518  0.4999943901961016
  0.3712257439267519  0.9728173634564471  0.5000166273261567
  0.5391122365068528  0.2227358670310767  0.4999878507354513
  0.5405213551256651  0.4727386085245886  0.4999808432747315
  0.5395858078009800  0.7229184306420620  0.4999804608960111
  0.5391732922399259  0.9730190918648062  0.4999903396072711
  0.7031942088316183  0.2150908372725832  0.4999878348452679
  0.7036122196242640  0.4730629071634094  0.4999767627892417
  0.7039200137709861  0.7307188147033354  0.4999884955948934
  0.7081845576423011  0.9798126888630606  0.4999859523688772
  0.3728838754742993  0.0980841147196597  0.5000221445778378
  0.3736525900191515  0.3479422133796699  0.5000218183550061
  0.3739320127674204  0.5978716194424131  0.4999899405833652
  0.3732358912487657  0.8475801134002112  0.5000084530382101
  0.5383008277132160  0.0977231640981978  0.4999896378488113
  0.5400106333708491  0.3477236154796720  0.4999844991919215
  0.5402695643733075  0.5977748416325989  0.4999730558978617
  0.5391052364828841  0.8480870775287785  0.4999874390469377
  0.7065094244334228  0.0980156989087236  0.4999841357377374
  0.7069706433276485  0.3464058922434393  0.4999869637306689
  0.7073178150978280  0.5973962860938181  0.4999782235213572
  0.7072678695179727  0.8418906981590022  0.4999911886926930
  0.2618498200707043  0.0997923601065822  0.5887811592947092
  0.2624375606804406  0.3467547872773012  0.5888910478776314
  0.2626973342279571  0.5992755724081624  0.5888410043600408
  0.2621350587570612  0.8456846015824495  0.5887883292053735
  0.4278001851556125  0.0978580281927004  0.5907357837192868
  0.4286398475793299  0.3481245309200746  0.5907677663377584
  0.4289281007867694  0.5976448456992024  0.5907213324743866
  0.4282065010577227  0.8478058247881385  0.5907114651088050
  0.5935392530885139  0.0975178802883407  0.5901428673208552
  0.5955478589102984  0.3477110552392073  0.5904389783192425
  0.5958434714401890  0.5977038551870818  0.5903346135380316
  0.5945687156540925  0.8485175286751834  0.5901006817823681
  0.4279021140202861  0.2230833559720314  0.5899784661096119
  0.4282566799080489  0.4728967670147098  0.5897231945639434
  0.4284031529217546  0.7227160549482672  0.5899327003746861
  0.4270698822828154  0.9727962218057562  0.5898185549165231
  0.5945870845216016  0.2232390479602274  0.5901260723247477
  0.5964436689750611  0.4725687066174341  0.5896315224585861
  0.5951258589009016  0.7222953545478319  0.5898474445412183
  0.5948980536284617  0.9729109149215147  0.5902413015101498
  0.3430535479519162  0.0354383168621257  0.5896308282249905
  0.3445829139984788  0.2853594316528392  0.5907370126246487
  0.3441198448208460  0.5353995718885100  0.5896718485467934
  0.3446056036608225  0.7847621692003802  0.5907437083724199
  0.5107634781071766  0.0350691385140510  0.5902510724080366
  0.5115756432975401  0.2854603428183402  0.5901185572129032
  0.5123850140024303  0.5351424299789691  0.5900244841729817
  0.5116174277630690  0.7853834597011691  0.5902787500170197
  0.6783030578116034  0.0365043610546721  0.5920322762306214
  0.6809318094354601  0.2822182381633022  0.5893300028729703
  0.6812647278017738  0.5366884929269982  0.5925370929177469
  0.6766233446987749  0.7873867610361562  0.5945423129550153
  0.3441891748578861  0.1609438552892668  0.5907365509361950
  0.3439682121208154  0.4105268532500246  0.5897038912911081
  0.3449595788591218  0.6604815671167519  0.5907210156521696
  0.3432465242235012  0.9101216089405827  0.5896194960035213
  0.5109396896786623  0.1604628375670480  0.5903395179841754
  0.5122153381873409  0.4104529677228906  0.5900139856913665
  0.5119879577033636  0.6601915775729232  0.5900730352630105
  0.5111050435706788  0.9106186544413146  0.5900690425352787
  0.6765941362852262  0.1572997370973516  0.5928927887784098
  0.6816163566899989  0.4086201018657381  0.5918539584358157
  0.6814862394317356  0.6627972579480044  0.5885786292319344
  0.6803682335028084  0.9111091541550815  0.5864663855756904
  0.2618277233587696  0.0997983889025952  0.4113524337373600
  0.2624011738863768  0.3467395484606051  0.4112870606119914
  0.2626919792836122  0.5992688724433317  0.4111724919584024
  0.2621154451444520  0.8456962704838059  0.4113105813891830
  0.4277868759388919  0.0978587816063190  0.4092759554802411
  0.4286242310837608  0.3481221004439459  0.4092373330135471
  0.4289218002055427  0.5976429721370624  0.4092430220985903
  0.4281975541078358  0.8478108547812941  0.4092811680206443
  0.5935363894179468  0.0975206485972545  0.4098329271239944
  0.5955467686233157  0.3477067775221105  0.4095289177474410
  0.5958448131265882  0.5977058805130445  0.4096161942451372
  0.5945679615139892  0.8485185080615066  0.4098729017015227
  0.2386336729683641  0.2234709038217221  0.5001172167897654
  0.2401990803483088  0.4730708147447437  0.5000456059920745
  0.2389322641322505  0.7222851002017168  0.5000014094341710
  0.2397118443657153  0.9726493734338141  0.5000753578400468
  0.4278847675610790  0.2230814525799728  0.4100319398946738
  0.4282469603994045  0.4728893425329975  0.4102610135303431
  0.4283967988260596  0.7227223806943441  0.4100383916907564
  0.4270577412610291  0.9728008517560572  0.4101887286050493
  0.5945865928709553  0.2232379247106291  0.4098503090502034
  0.5964413149161872  0.4725669659299410  0.4103222206933414
  0.5951261367224346  0.7222992225806264  0.4101187146374699
  0.5948955973927869  0.9729113602245583  0.4097340028624936
  0.3430367887657481  0.0354433142112034  0.4104227478080522
  0.3445568672392380  0.2853575246361220  0.4093424210876645
  0.3441109812797438  0.5353910839424181  0.4103286057276170
  0.3445931477448339  0.7847712244431346  0.4092721826420134
  0.5107567980993510  0.0350678289789186  0.4097335482227766
  0.5115694585726649  0.2854583106986832  0.4098597826599208
  0.5123808149163822  0.5351388859683688  0.4099336614153339
  0.5116147274257226  0.7853878746457668  0.4096926988089415
  0.6783042020234408  0.0365013561460217  0.4079345512624656
  0.6809324897930481  0.2822178217993213  0.4106456217107556
  0.6812652183795395  0.5366899393563345  0.4074132393885562
  0.6766252517974769  0.7873888879313623  0.4054363833982346
  0.3441704174435838  0.1609452264704160  0.4093331867903947
  0.3439431154482018  0.4105156330223100  0.4103490687721379
  0.3449548199099757  0.6604840513591035  0.4092664002286529
  0.3432275863908571  0.9101271735210816  0.4104285617654741
  0.5109338221991372  0.1604616108819025  0.4096434658781556
  0.5122098290758874  0.4104496272099862  0.4099591128475257
  0.5119861818995007  0.6601968207991631  0.4098774888442296
  0.5111011002604569  0.9106211426521542  0.4099143538304453
  0.6765929404951103  0.1573006263696273  0.4070822546823115
  0.6816163936093794  0.4086148671214950  0.4081094109017917
  0.6814886638188713  0.6628032888329635  0.4113873521555836
  0.6803690529360573  0.9111078356463105  0.4135114372879116
  0.7587421919958512  0.9105336039278163  0.4999915451851866
  0.7630119611774560  0.7788783544599243  0.4999950904580805
  0.7711373334581835  0.6143326883619151  0.4999828974021254
  0.7714765371165914  0.3368210691316430  0.4999913461817709
  0.7617107830286005  0.1680793879493135  0.4999918576058738
  0.7632355609860200  0.0394012120433067  0.4999846507596264
  0.8001479068468124  0.4780251307044895  0.4999421413131328
  0.7647967588758048  0.4764778289229317  0.4999495395955157
 
  0.00000000E+00  0.00000000E+00  0.00000000E+00
  0.00000000E+00  0.00000000E+00  0.00000000E+00
  0.00000000E+00  0.00000000E+00  0.00000000E+00
  0.00000000E+00  0.00000000E+00  0.00000000E+00
  0.00000000E+00  0.00000000E+00  0.00000000E+00
  0.00000000E+00  0.00000000E+00  0.00000000E+00
  0.00000000E+00  0.00000000E+00  0.00000000E+00
  0.00000000E+00  0.00000000E+00  0.00000000E+00
  0.00000000E+00  0.00000000E+00  0.00000000E+00
  0.00000000E+00  0.00000000E+00  0.00000000E+00
  0.00000000E+00  0.00000000E+00  0.00000000E+00
  0.00000000E+00  0.00000000E+00  0.00000000E+00
  0.00000000E+00  0.00000000E+00  0.00000000E+00
  0.00000000E+00  0.00000000E+00  0.00000000E+00
  0.00000000E+00  0.00000000E+00  0.00000000E+00
  0.00000000E+00  0.00000000E+00  0.00000000E+00
  0.00000000E+00  0.00000000E+00  0.00000000E+00
  0.00000000E+00  0.00000000E+00  0.00000000E+00
  0.00000000E+00  0.00000000E+00  0.00000000E+00
  0.00000000E+00  0.00000000E+00  0.00000000E+00
  0.00000000E+00  0.00000000E+00  0.00000000E+00
  0.00000000E+00  0.00000000E+00  0.00000000E+00
  0.00000000E+00  0.00000000E+00  0.00000000E+00
  0.00000000E+00  0.00000000E+00  0.00000000E+00
  0.00000000E+00  0.00000000E+00  0.00000000E+00
  0.00000000E+00  0.00000000E+00  0.00000000E+00
  0.00000000E+00  0.00000000E+00  0.00000000E+00
  0.00000000E+00  0.00000000E+00  0.00000000E+00
  0.00000000E+00  0.00000000E+00  0.00000000E+00
  0.00000000E+00  0.00000000E+00  0.00000000E+00
  0.00000000E+00  0.00000000E+00  0.00000000E+00
  0.00000000E+00  0.00000000E+00  0.00000000E+00
  0.00000000E+00  0.00000000E+00  0.00000000E+00
  0.00000000E+00  0.00000000E+00  0.00000000E+00
  0.00000000E+00  0.00000000E+00  0.00000000E+00
  0.00000000E+00  0.00000000E+00  0.00000000E+00
  0.00000000E+00  0.00000000E+00  0.00000000E+00
  0.00000000E+00  0.00000000E+00  0.00000000E+00
  0.00000000E+00  0.00000000E+00  0.00000000E+00
  0.00000000E+00  0.00000000E+00  0.00000000E+00
  0.00000000E+00  0.00000000E+00  0.00000000E+00
  0.00000000E+00  0.00000000E+00  0.00000000E+00
  0.00000000E+00  0.00000000E+00  0.00000000E+00
  0.00000000E+00  0.00000000E+00  0.00000000E+00
  0.00000000E+00  0.00000000E+00  0.00000000E+00
  0.00000000E+00  0.00000000E+00  0.00000000E+00
  0.00000000E+00  0.00000000E+00  0.00000000E+00
  0.00000000E+00  0.00000000E+00  0.00000000E+00
  0.00000000E+00  0.00000000E+00  0.00000000E+00
  0.00000000E+00  0.00000000E+00  0.00000000E+00
  0.00000000E+00  0.00000000E+00  0.00000000E+00
  0.00000000E+00  0.00000000E+00  0.00000000E+00
  0.00000000E+00  0.00000000E+00  0.00000000E+00
  0.00000000E+00  0.00000000E+00  0.00000000E+00
  0.00000000E+00  0.00000000E+00  0.00000000E+00
  0.00000000E+00  0.00000000E+00  0.00000000E+00
  0.00000000E+00  0.00000000E+00  0.00000000E+00
  0.00000000E+00  0.00000000E+00  0.00000000E+00
  0.00000000E+00  0.00000000E+00  0.00000000E+00
  0.00000000E+00  0.00000000E+00  0.00000000E+00
  0.00000000E+00  0.00000000E+00  0.00000000E+00
  0.00000000E+00  0.00000000E+00  0.00000000E+00
  0.00000000E+00  0.00000000E+00  0.00000000E+00
  0.00000000E+00  0.00000000E+00  0.00000000E+00
  0.00000000E+00  0.00000000E+00  0.00000000E+00
  0.00000000E+00  0.00000000E+00  0.00000000E+00
  0.00000000E+00  0.00000000E+00  0.00000000E+00
  0.00000000E+00  0.00000000E+00  0.00000000E+00
  0.00000000E+00  0.00000000E+00  0.00000000E+00
  0.00000000E+00  0.00000000E+00  0.00000000E+00
  0.00000000E+00  0.00000000E+00  0.00000000E+00
  0.00000000E+00  0.00000000E+00  0.00000000E+00
  0.00000000E+00  0.00000000E+00  0.00000000E+00
  0.00000000E+00  0.00000000E+00  0.00000000E+00
  0.00000000E+00  0.00000000E+00  0.00000000E+00
  0.00000000E+00  0.00000000E+00  0.00000000E+00
  0.00000000E+00  0.00000000E+00  0.00000000E+00
  0.00000000E+00  0.00000000E+00  0.00000000E+00
  0.00000000E+00  0.00000000E+00  0.00000000E+00
  0.00000000E+00  0.00000000E+00  0.00000000E+00
  0.00000000E+00  0.00000000E+00  0.00000000E+00
  0.00000000E+00  0.00000000E+00  0.00000000E+00
  0.00000000E+00  0.00000000E+00  0.00000000E+00
  0.00000000E+00  0.00000000E+00  0.00000000E+00
  0.00000000E+00  0.00000000E+00  0.00000000E+00
  0.00000000E+00  0.00000000E+00  0.00000000E+00
  0.00000000E+00  0.00000000E+00  0.00000000E+00
  0.00000000E+00  0.00000000E+00  0.00000000E+00
  0.00000000E+00  0.00000000E+00  0.00000000E+00
  0.00000000E+00  0.00000000E+00  0.00000000E+00
  0.00000000E+00  0.00000000E+00  0.00000000E+00
  0.00000000E+00  0.00000000E+00  0.00000000E+00
  0.00000000E+00  0.00000000E+00  0.00000000E+00
  0.00000000E+00  0.00000000E+00  0.00000000E+00
  0.00000000E+00  0.00000000E+00  0.00000000E+00
  0.00000000E+00  0.00000000E+00  0.00000000E+00
  0.00000000E+00  0.00000000E+00  0.00000000E+00
  0.00000000E+00  0.00000000E+00  0.00000000E+00
  0.00000000E+00  0.00000000E+00  0.00000000E+00
  0.00000000E+00  0.00000000E+00  0.00000000E+00
  0.00000000E+00  0.00000000E+00  0.00000000E+00
  0.00000000E+00  0.00000000E+00  0.00000000E+00
  0.00000000E+00  0.00000000E+00  0.00000000E+00
  0.00000000E+00  0.00000000E+00  0.00000000E+00
  0.00000000E+00  0.00000000E+00  0.00000000E+00
  0.00000000E+00  0.00000000E+00  0.00000000E+00
  0.00000000E+00  0.00000000E+00  0.00000000E+00
  0.00000000E+00  0.00000000E+00  0.00000000E+00
  0.00000000E+00  0.00000000E+00  0.00000000E+00
  0.00000000E+00  0.00000000E+00  0.00000000E+00
  0.00000000E+00  0.00000000E+00  0.00000000E+00
  0.00000000E+00  0.00000000E+00  0.00000000E+00
  0.00000000E+00  0.00000000E+00  0.00000000E+00
  0.00000000E+00  0.00000000E+00  0.00000000E+00
  0.00000000E+00  0.00000000E+00  0.00000000E+00
  0.00000000E+00  0.00000000E+00  0.00000000E+00
  0.00000000E+00  0.00000000E+00  0.00000000E+00
  0.00000000E+00  0.00000000E+00  0.00000000E+00
  0.00000000E+00  0.00000000E+00  0.00000000E+00
  0.00000000E+00  0.00000000E+00  0.00000000E+00
  0.00000000E+00  0.00000000E+00  0.00000000E+00
  0.00000000E+00  0.00000000E+00  0.00000000E+00
  0.00000000E+00  0.00000000E+00  0.00000000E+00
  0.00000000E+00  0.00000000E+00  0.00000000E+00
  0.00000000E+00  0.00000000E+00  0.00000000E+00
  0.00000000E+00  0.00000000E+00  0.00000000E+00
  0.00000000E+00  0.00000000E+00  0.00000000E+00
  0.00000000E+00  0.00000000E+00  0.00000000E+00
  0.00000000E+00  0.00000000E+00  0.00000000E+00
  0.00000000E+00  0.00000000E+00  0.00000000E+00
  0.00000000E+00  0.00000000E+00  0.00000000E+00
  0.00000000E+00  0.00000000E+00  0.00000000E+00
  0.00000000E+00  0.00000000E+00  0.00000000E+00
  0.00000000E+00  0.00000000E+00  0.00000000E+00
  0.00000000E+00  0.00000000E+00  0.00000000E+00
  0.00000000E+00  0.00000000E+00  0.00000000E+00
  0.00000000E+00  0.00000000E+00  0.00000000E+00
  0.00000000E+00  0.00000000E+00  0.00000000E+00
  0.00000000E+00  0.00000000E+00  0.00000000E+00
  0.00000000E+00  0.00000000E+00  0.00000000E+00
  0.00000000E+00  0.00000000E+00  0.00000000E+00
  0.00000000E+00  0.00000000E+00  0.00000000E+00
  0.00000000E+00  0.00000000E+00  0.00000000E+00
  0.00000000E+00  0.00000000E+00  0.00000000E+00
  0.00000000E+00  0.00000000E+00  0.00000000E+00
  0.00000000E+00  0.00000000E+00  0.00000000E+00
  0.00000000E+00  0.00000000E+00  0.00000000E+00
  0.00000000E+00  0.00000000E+00  0.00000000E+00
