W48 S99                                 
   1.00000000000000     
    33.0000000000000000    0.0000000000000000    0.0000000000000000
     0.0000000000000000   25.2255992888999998    0.0000000000000000
     0.0000000000000000    0.0000000000000000   17.4930000304999993
   W    S    O    C 
    48    99     2     1
Direct
  0.2903433203179659  0.0391719511602948  0.5009569463137268
  0.2915619067418753  0.2822590282184992  0.4927479283472636
  0.2906106994720401  0.5374522384514512  0.5025761981261767
  0.2908295103220673  0.7876981266754289  0.5016412891738378
  0.4570649360606890  0.0356410106531556  0.5004714191632090
  0.4567255152527021  0.2856041630021769  0.4994244296842483
  0.4565820650394517  0.5355774386102020  0.5000136558938989
  0.4571576966225298  0.7857744817807453  0.5009847143085853
  0.6234818196896883  0.0359651800476142  0.5006447199788920
  0.6232997756527761  0.2855911371533905  0.5003418752804966
  0.6231602468757088  0.5350223472692907  0.5004334842537186
  0.6236316943101907  0.7854811537523891  0.5007665708909427
  0.2918293755529482  0.1606854428320152  0.5012876719542519
  0.2901708799092405  0.4137399196167825  0.4974011247120549
  0.2906737214579270  0.6583934608596331  0.5022248739860650
  0.2905936802849011  0.9085138467483942  0.5009291173346944
  0.4571148836061523  0.1603026646393781  0.5004061500009205
  0.4563296539777847  0.4103178983998118  0.4990593760972881
  0.4569689899288910  0.6602769816463110  0.5007725517462602
  0.4570674102950976  0.9104234351491445  0.5007437547578769
  0.6233497852680017  0.1604407352872752  0.5005390200992882
  0.6231064177258631  0.4106370635154682  0.5002808639505045
  0.6234660735932577  0.6601484578312448  0.5006538821466262
  0.6236572270560767  0.9107670899734950  0.5007321899506104
  0.3734323550150178  0.2226955948934427  0.4993119467469647
  0.3725429214917085  0.4731790147205463  0.4990271945065339
  0.3730967176896997  0.7232511855295114  0.5013069471342837
  0.3729998821933761  0.9731049984478833  0.5003274797793946
  0.5404116515765774  0.2230400382460483  0.5002973770276778
  0.5396449776544818  0.4728508346633188  0.5000287195329352
  0.5404735040410379  0.7229329329919014  0.5008202802202515
  0.5406436997258227  0.9731825345855829  0.5007117789348781
  0.7084103578505025  0.2163021832328640  0.5005929701958238
  0.7076723529931436  0.4725430294840364  0.5005654663546186
  0.7082123975542317  0.7284999150457379  0.5005728895275687
  0.7087789788580700  0.9797876157350690  0.5006264437314170
  0.3745520458940453  0.0979181253013811  0.4998220064163270
  0.3729402572970029  0.3475140460841641  0.4960989962442691
  0.3742596797434559  0.5982200116789971  0.5007884030731463
  0.3744909981303762  0.8481573230222434  0.5010012198337030
  0.5400849417281186  0.0980798594750308  0.5005824427855895
  0.5401820948436610  0.3480700128469595  0.4998845676253048
  0.5403315425588037  0.5977564078315570  0.5004816376199908
  0.5405338312230269  0.8480690534972695  0.5008695109337057
  0.7079253380283509  0.0985144903067046  0.5006343162575366
  0.7082893505337574  0.3548433671241896  0.5005559362757683
  0.7085302893503831  0.5911541124226236  0.5005722533047128
  0.7083020949792896  0.8423653488330337  0.5005844211910060
  0.2638941076930569  0.0980380697208673  0.5905244718753616
  0.2571952991297500  0.3481343242296387  0.5658828515273191
  0.2642833826629348  0.5988627269337732  0.5929097652274263
  0.2639112242141020  0.8483214082989806  0.5912810608744733
  0.4294069198564160  0.0979935752153184  0.5910371546221804
  0.4277224330426699  0.3479102777179551  0.5884208082045429
  0.4293333312415243  0.5978029568517467  0.5912693806574115
  0.4295236766101826  0.8481704260670556  0.5916678680797941
  0.5954285956189964  0.0981800428242342  0.5907273339254473
  0.5956652841603846  0.3479623992554904  0.5904861397454290
  0.5959169687735837  0.5977503975426003  0.5908277202025283
  0.5961240334191387  0.8483017454535549  0.5909406527774718
  0.4289160917581353  0.2232907341721549  0.5900267397065649
  0.4282542218333413  0.4725258663791834  0.5893616816437184
  0.4291402845432069  0.7230253075616385  0.5908330681195758
  0.4288590874832264  0.9731453326429021  0.5903496006774990
  0.5959303401116524  0.2232556261580869  0.5907214080113738
  0.5949735351445953  0.4727939977177975  0.5903350583864356
  0.5960615076874730  0.7226527158408744  0.5908833127597890
  0.5962554870570186  0.9731574167654826  0.5909951408084401
  0.3451924548617952  0.0354329110745246  0.5902476760070696
  0.3430909421617299  0.2855651511378769  0.5871243734813163
  0.3455570650115973  0.5351313636909233  0.5911286713601551
  0.3454401384954279  0.7856629448013625  0.5915064939682064
  0.5124929453503804  0.0354644446501758  0.5908818956225641
  0.5121205473801250  0.2856946556822023  0.5899570786533830
  0.5120371619374686  0.5352830178458642  0.5904048946150846
  0.5127484394144537  0.7854830785007321  0.5911186236078982
  0.6794869719460618  0.0369886794783143  0.5931098548997956
  0.6808410562682750  0.2855859398568523  0.5872908822994258
  0.6791411304719248  0.5339892261752193  0.5929923756352695
  0.6789281563325210  0.7854604049668483  0.5942447854593743
  0.3458669527970190  0.1604150208770755  0.5908868998781674
  0.3436424623598041  0.4095451948227312  0.5871641108439548
  0.3455734364406277  0.6608494220341466  0.5916239842007818
  0.3452424266557767  0.9109690119570165  0.5907568805879467
  0.5124714622973852  0.1607907868563067  0.5907820384618739
  0.5116485662554990  0.4102356087053625  0.5898393579847642
  0.5125626169058854  0.6602886666369705  0.5907966335611078
  0.5126533372568846  0.9107185555260798  0.5908809632571569
  0.6792407255391565  0.1595541393736722  0.5933166912886088
  0.6789499046929447  0.4115303296881822  0.5931790911205982
  0.6810047464330162  0.6597721513308831  0.5877453875503116
  0.6812089272168839  0.9111302565192041  0.5877695903651404
  0.2637847608225850  0.1000621151454584  0.4115267890804249
  0.2631083360710035  0.5987246554583663  0.4131838973264649
  0.2634458571643226  0.8479177667717448  0.4117921235812828
  0.4296063876191298  0.0978436227652539  0.4094824229677791
  0.4292002214447216  0.3478370614144841  0.4078865548576459
  0.4290880313162388  0.5983036797490179  0.4097760445601230
  0.4294473365981378  0.8480128792390593  0.4101775202915348
  0.5954500895034719  0.0980983562270395  0.4104638440858503
  0.5959165333266204  0.3479161446629097  0.4098468035626353
  0.5959552373691173  0.5979226264105575  0.4102227194772985
  0.5960533591849486  0.8482760499174005  0.4106703620453261
  0.2424079964280137  0.2212967016904464  0.5311405693774979
  0.2390078838940248  0.4774485596149785  0.5110173861896951
  0.2411496611240983  0.7234396596364272  0.5031284077871035
  0.2413285558937154  0.9732964237602534  0.5026064525073325
  0.4294460340865091  0.2224383621300921  0.4098594150526991
  0.4284920082240751  0.4732941930694085  0.4093374214996074
  0.4289070614996579  0.7231625019914606  0.4112473922147039
  0.4289603560297668  0.9729336105816487  0.4106937274038787
  0.5960471578342723  0.2231094267677087  0.4100802809015668
  0.5951647862568700  0.4729233567963239  0.4101671973895776
  0.5959990302418327  0.7227396581354130  0.4106341114320123
  0.5962419231266085  0.9730945404302878  0.4104063685787484
  0.3448155943856355  0.0354806847741949  0.4102594535141776
  0.3471711836432441  0.2830624230594361  0.4055745800068010
  0.3445612207775309  0.5361758753036250  0.4102115108675538
  0.3451458590120796  0.7854942430325886  0.4111482609470095
  0.5125894938198512  0.0353526974228982  0.4103159530252249
  0.5125197593792943  0.2853919429060766  0.4098055966843838
  0.5121632252919919  0.5356374346494087  0.4099464365750958
  0.5126689737895768  0.7855123073892911  0.4106914703439313
  0.6794816191377163  0.0369762114191718  0.4081737240110996
  0.6809719972466790  0.2855387496987299  0.4136891461293927
  0.6792218163438887  0.5340407651393020  0.4080482357767583
  0.6788016025779143  0.7854646797676010  0.4070510605712036
  0.3458966890655713  0.1605848273936436  0.4093600188548572
  0.3441501285388432  0.4115488488171044  0.4074293561675336
  0.3449210619243657  0.6610847681203949  0.4113477621821737
  0.3450746134995018  0.9105937781190306  0.4107036753387414
  0.5125637146358382  0.1605467811977558  0.4101460714199896
  0.5121558642807289  0.4103879576561000  0.4094511890013547
  0.5124898866806931  0.6605270509058514  0.4106007246259170
  0.5126708004364396  0.9106003738265342  0.4106969738276258
  0.6792992667932487  0.1594983662375079  0.4078639873242098
  0.6791398344975151  0.4115508038093213  0.4077385718108626
  0.6809699004484832  0.6597973297490862  0.4134800304615537
  0.6811473686063906  0.9111402823546885  0.4135278980873809
  0.7594805522536890  0.9114775857855991  0.5005973727364096
  0.7646922866345870  0.7853695398064411  0.5003354535920363
  0.7593150800923555  0.6593637668678016  0.5005020608082175
  0.7637095417499243  0.5335580350194252  0.5005265745593208
  0.7637978442799546  0.4113812360157280  0.5010213452460711
  0.7588713880498188  0.2856165485159055  0.5006746932505276
  0.7639713749444417  0.1597948856926254  0.5007582958195308
  0.7639437521818417  0.0374638249962036  0.5005246822006809
  0.2476443533853863  0.3967135447151746  0.3538068306972948
  0.2657515509726637  0.3167751070099730  0.4023683989735692
  0.2642698085453533  0.3696938280868833  0.4024004232770643
 
  0.00000000E+00  0.00000000E+00  0.00000000E+00
  0.00000000E+00  0.00000000E+00  0.00000000E+00
  0.00000000E+00  0.00000000E+00  0.00000000E+00
  0.00000000E+00  0.00000000E+00  0.00000000E+00
  0.00000000E+00  0.00000000E+00  0.00000000E+00
  0.00000000E+00  0.00000000E+00  0.00000000E+00
  0.00000000E+00  0.00000000E+00  0.00000000E+00
  0.00000000E+00  0.00000000E+00  0.00000000E+00
  0.00000000E+00  0.00000000E+00  0.00000000E+00
  0.00000000E+00  0.00000000E+00  0.00000000E+00
  0.00000000E+00  0.00000000E+00  0.00000000E+00
  0.00000000E+00  0.00000000E+00  0.00000000E+00
  0.00000000E+00  0.00000000E+00  0.00000000E+00
  0.00000000E+00  0.00000000E+00  0.00000000E+00
  0.00000000E+00  0.00000000E+00  0.00000000E+00
  0.00000000E+00  0.00000000E+00  0.00000000E+00
  0.00000000E+00  0.00000000E+00  0.00000000E+00
  0.00000000E+00  0.00000000E+00  0.00000000E+00
  0.00000000E+00  0.00000000E+00  0.00000000E+00
  0.00000000E+00  0.00000000E+00  0.00000000E+00
  0.00000000E+00  0.00000000E+00  0.00000000E+00
  0.00000000E+00  0.00000000E+00  0.00000000E+00
  0.00000000E+00  0.00000000E+00  0.00000000E+00
  0.00000000E+00  0.00000000E+00  0.00000000E+00
  0.00000000E+00  0.00000000E+00  0.00000000E+00
  0.00000000E+00  0.00000000E+00  0.00000000E+00
  0.00000000E+00  0.00000000E+00  0.00000000E+00
  0.00000000E+00  0.00000000E+00  0.00000000E+00
  0.00000000E+00  0.00000000E+00  0.00000000E+00
  0.00000000E+00  0.00000000E+00  0.00000000E+00
  0.00000000E+00  0.00000000E+00  0.00000000E+00
  0.00000000E+00  0.00000000E+00  0.00000000E+00
  0.00000000E+00  0.00000000E+00  0.00000000E+00
  0.00000000E+00  0.00000000E+00  0.00000000E+00
  0.00000000E+00  0.00000000E+00  0.00000000E+00
  0.00000000E+00  0.00000000E+00  0.00000000E+00
  0.00000000E+00  0.00000000E+00  0.00000000E+00
  0.00000000E+00  0.00000000E+00  0.00000000E+00
  0.00000000E+00  0.00000000E+00  0.00000000E+00
  0.00000000E+00  0.00000000E+00  0.00000000E+00
  0.00000000E+00  0.00000000E+00  0.00000000E+00
  0.00000000E+00  0.00000000E+00  0.00000000E+00
  0.00000000E+00  0.00000000E+00  0.00000000E+00
  0.00000000E+00  0.00000000E+00  0.00000000E+00
  0.00000000E+00  0.00000000E+00  0.00000000E+00
  0.00000000E+00  0.00000000E+00  0.00000000E+00
  0.00000000E+00  0.00000000E+00  0.00000000E+00
  0.00000000E+00  0.00000000E+00  0.00000000E+00
  0.00000000E+00  0.00000000E+00  0.00000000E+00
  0.00000000E+00  0.00000000E+00  0.00000000E+00
  0.00000000E+00  0.00000000E+00  0.00000000E+00
  0.00000000E+00  0.00000000E+00  0.00000000E+00
  0.00000000E+00  0.00000000E+00  0.00000000E+00
  0.00000000E+00  0.00000000E+00  0.00000000E+00
  0.00000000E+00  0.00000000E+00  0.00000000E+00
  0.00000000E+00  0.00000000E+00  0.00000000E+00
  0.00000000E+00  0.00000000E+00  0.00000000E+00
  0.00000000E+00  0.00000000E+00  0.00000000E+00
  0.00000000E+00  0.00000000E+00  0.00000000E+00
  0.00000000E+00  0.00000000E+00  0.00000000E+00
  0.00000000E+00  0.00000000E+00  0.00000000E+00
  0.00000000E+00  0.00000000E+00  0.00000000E+00
  0.00000000E+00  0.00000000E+00  0.00000000E+00
  0.00000000E+00  0.00000000E+00  0.00000000E+00
  0.00000000E+00  0.00000000E+00  0.00000000E+00
  0.00000000E+00  0.00000000E+00  0.00000000E+00
  0.00000000E+00  0.00000000E+00  0.00000000E+00
  0.00000000E+00  0.00000000E+00  0.00000000E+00
  0.00000000E+00  0.00000000E+00  0.00000000E+00
  0.00000000E+00  0.00000000E+00  0.00000000E+00
  0.00000000E+00  0.00000000E+00  0.00000000E+00
  0.00000000E+00  0.00000000E+00  0.00000000E+00
  0.00000000E+00  0.00000000E+00  0.00000000E+00
  0.00000000E+00  0.00000000E+00  0.00000000E+00
  0.00000000E+00  0.00000000E+00  0.00000000E+00
  0.00000000E+00  0.00000000E+00  0.00000000E+00
  0.00000000E+00  0.00000000E+00  0.00000000E+00
  0.00000000E+00  0.00000000E+00  0.00000000E+00
  0.00000000E+00  0.00000000E+00  0.00000000E+00
  0.00000000E+00  0.00000000E+00  0.00000000E+00
  0.00000000E+00  0.00000000E+00  0.00000000E+00
  0.00000000E+00  0.00000000E+00  0.00000000E+00
  0.00000000E+00  0.00000000E+00  0.00000000E+00
  0.00000000E+00  0.00000000E+00  0.00000000E+00
  0.00000000E+00  0.00000000E+00  0.00000000E+00
  0.00000000E+00  0.00000000E+00  0.00000000E+00
  0.00000000E+00  0.00000000E+00  0.00000000E+00
  0.00000000E+00  0.00000000E+00  0.00000000E+00
  0.00000000E+00  0.00000000E+00  0.00000000E+00
  0.00000000E+00  0.00000000E+00  0.00000000E+00
  0.00000000E+00  0.00000000E+00  0.00000000E+00
  0.00000000E+00  0.00000000E+00  0.00000000E+00
  0.00000000E+00  0.00000000E+00  0.00000000E+00
  0.00000000E+00  0.00000000E+00  0.00000000E+00
  0.00000000E+00  0.00000000E+00  0.00000000E+00
  0.00000000E+00  0.00000000E+00  0.00000000E+00
  0.00000000E+00  0.00000000E+00  0.00000000E+00
  0.00000000E+00  0.00000000E+00  0.00000000E+00
  0.00000000E+00  0.00000000E+00  0.00000000E+00
  0.00000000E+00  0.00000000E+00  0.00000000E+00
  0.00000000E+00  0.00000000E+00  0.00000000E+00
  0.00000000E+00  0.00000000E+00  0.00000000E+00
  0.00000000E+00  0.00000000E+00  0.00000000E+00
  0.00000000E+00  0.00000000E+00  0.00000000E+00
  0.00000000E+00  0.00000000E+00  0.00000000E+00
  0.00000000E+00  0.00000000E+00  0.00000000E+00
  0.00000000E+00  0.00000000E+00  0.00000000E+00
  0.00000000E+00  0.00000000E+00  0.00000000E+00
  0.00000000E+00  0.00000000E+00  0.00000000E+00
  0.00000000E+00  0.00000000E+00  0.00000000E+00
  0.00000000E+00  0.00000000E+00  0.00000000E+00
  0.00000000E+00  0.00000000E+00  0.00000000E+00
  0.00000000E+00  0.00000000E+00  0.00000000E+00
  0.00000000E+00  0.00000000E+00  0.00000000E+00
  0.00000000E+00  0.00000000E+00  0.00000000E+00
  0.00000000E+00  0.00000000E+00  0.00000000E+00
  0.00000000E+00  0.00000000E+00  0.00000000E+00
  0.00000000E+00  0.00000000E+00  0.00000000E+00
  0.00000000E+00  0.00000000E+00  0.00000000E+00
  0.00000000E+00  0.00000000E+00  0.00000000E+00
  0.00000000E+00  0.00000000E+00  0.00000000E+00
  0.00000000E+00  0.00000000E+00  0.00000000E+00
  0.00000000E+00  0.00000000E+00  0.00000000E+00
  0.00000000E+00  0.00000000E+00  0.00000000E+00
  0.00000000E+00  0.00000000E+00  0.00000000E+00
  0.00000000E+00  0.00000000E+00  0.00000000E+00
  0.00000000E+00  0.00000000E+00  0.00000000E+00
  0.00000000E+00  0.00000000E+00  0.00000000E+00
  0.00000000E+00  0.00000000E+00  0.00000000E+00
  0.00000000E+00  0.00000000E+00  0.00000000E+00
  0.00000000E+00  0.00000000E+00  0.00000000E+00
  0.00000000E+00  0.00000000E+00  0.00000000E+00
  0.00000000E+00  0.00000000E+00  0.00000000E+00
  0.00000000E+00  0.00000000E+00  0.00000000E+00
  0.00000000E+00  0.00000000E+00  0.00000000E+00
  0.00000000E+00  0.00000000E+00  0.00000000E+00
  0.00000000E+00  0.00000000E+00  0.00000000E+00
  0.00000000E+00  0.00000000E+00  0.00000000E+00
  0.00000000E+00  0.00000000E+00  0.00000000E+00
  0.00000000E+00  0.00000000E+00  0.00000000E+00
  0.00000000E+00  0.00000000E+00  0.00000000E+00
  0.00000000E+00  0.00000000E+00  0.00000000E+00
  0.00000000E+00  0.00000000E+00  0.00000000E+00
  0.00000000E+00  0.00000000E+00  0.00000000E+00
  0.00000000E+00  0.00000000E+00  0.00000000E+00
  0.00000000E+00  0.00000000E+00  0.00000000E+00
  0.00000000E+00  0.00000000E+00  0.00000000E+00
  0.00000000E+00  0.00000000E+00  0.00000000E+00
  0.00000000E+00  0.00000000E+00  0.00000000E+00
  0.00000000E+00  0.00000000E+00  0.00000000E+00
