W48 S99
1.0
  33.0000000000         0.0000000000         0.0000000000
   0.0000000000        25.2255992889         0.0000000000
   0.0000000000         0.0000000000        17.4930000305
W S O C
48 99 2 1
Cartesian
     9.523006020         1.080984786         8.762784424
     9.705130380         7.167267543         8.845040708
     9.658236390        13.376643404         8.745751840
     9.537449130        19.865754007         8.788313008
    15.037778910         0.906519244         8.767529225
    15.068555040         7.208594642         8.765005160
    15.060316260        13.503208308         8.757027478
    15.031877520        19.815912764         8.771917694
    20.535720480         0.902916524         8.742922872
    20.558038380         7.199842116         8.740657878
    20.548904970        13.498594545         8.740290875
    20.535413250        19.814986480         8.744196712
     9.654811320         4.181426113         8.747715954
     9.706675440        10.390304021         8.844284661
     9.527336280        16.476450307         8.761440262
     9.535404120        22.914228834         8.789164218
    15.057847860         4.055813980         8.757012958
    15.068169930        10.345303822         8.765163472
    15.042571170        16.648407668         8.767126886
    15.027663420        22.967382451         8.772345223
    20.546221410         4.042238067         8.741077185
    20.556119760        10.357645699         8.740064341
    20.543146140        16.656316397         8.741988571
    20.533633890        22.972204324         8.744592579
    12.320517000         5.654700753         8.760099598
    12.322497330        11.902169539         8.759923619
    12.258336750        18.218696683         8.784607466
    12.254392260        24.563609941         8.785510280
    17.818805070         5.624043073         8.749231372
    17.803434330        11.928039653         8.749016733
    17.793742230        18.235964110         8.755631711
    17.793959040        24.548614331         8.755934515
    23.357861670         5.448694635         8.731442216
    23.340950490        11.921517069         8.729961433
    23.332296900        18.386457261         8.731818140
    23.348081790        24.709072098         8.733104576
    12.316291350         2.501690034         8.778817983
    12.320312070         8.777939968         8.822645470
    12.319859640        15.055849746         8.777869687
    12.300906420        21.390748189         8.782831752
    17.788719300         2.473683564         8.751391408
    17.825790510         8.778631653         8.751395781
    17.808905070        15.079438204         8.750737170
    17.786233410        21.391990297         8.757530751
    23.330047290         2.478250911         8.732397508
    23.363468370         8.948591651         8.729829011
    23.358903480        14.919183755         8.730993520
    23.328823980        21.244598382         8.732867545
     8.698234050         2.645168197        10.318001341
     8.394150270         8.779648497         9.888804463
     8.701178970        14.913416426        10.316108248
     8.657875380        21.389059839        10.364474469
    14.139457860         2.487443120        10.352280624
    14.171977710         8.776827014        10.369209300
    14.142369120        15.070420052        10.352738940
    14.122227570        21.390504509        10.361869237
    19.622064990         2.474255681        10.321209032
    19.664408940         8.775015312        10.325061691
    19.649415720        15.081057183        10.323734847
    19.628618790        21.396978659        10.324800870
    14.155429530         5.631420804        10.339823509
    14.157248160        11.925807691        10.339213178
    14.113214610        18.225991926        10.343327007
    14.108190690        24.555958512        10.344491516
    19.656851280         5.626684950        10.323946512
    19.635891660        11.928017454        10.319467954
    19.635308880        18.229847911        10.323406853
    19.637159190        24.546206043        10.326736296
    11.321796420         0.933997490        10.348850072
    11.393755890         7.172802796        10.435863402
    11.414130420        13.442347261        10.362816658
    11.341793760        19.798150158        10.356586526
    16.877567520         0.897494786        10.336325783
    16.911388890         7.201864704        10.330817238
    16.894534470        13.505684452        10.331132811
    16.875845250        19.811303290        10.338361444
    22.390254810         0.928433731        10.353500411
    22.463429010         7.199691015        10.252102411
    22.402859820        13.472942129        10.351313086
    22.364899590        19.814287226        10.376044514
    11.411376900         4.115739662        10.363686934
    11.394927390        10.384334635        10.435659084
    11.325764340        16.623381351        10.348190236
    11.339605860        22.982539000        10.356776850
    16.891572390         4.055601833        10.331580107
    16.906777470        10.349641364        10.334401028
    16.885600050        16.654039787        10.332840653
    16.872672300        22.972581195        10.336345550
    22.396750860         4.019351638        10.357447356
    22.407275550        10.380811123        10.355432687
    22.447772490        16.647743478        10.258214640
    22.439095140        22.980397599        10.260734157
     8.669720400         2.557339724         7.209011204
     8.675706930        15.000194254         7.206169116
     8.659468620        21.389970231         7.212190557
    14.126830410         2.479608553         7.183075383
    14.124116160         8.777117613         7.200990664
    14.130547200        15.078081066         7.182017756
    14.108926920        21.391067545         7.190173867
    19.611210300         2.472232083         7.168852349
    19.651496370         8.774549142         7.163159602
    19.638272940        15.082864092         7.164565340
    19.614242010        21.397421116         7.172482496
     8.054530110         5.739299089         8.108030879
     8.057798760        11.819035802         8.105193165
     7.955525490        18.192572043         8.791988987
     7.953767580        24.588543932         8.796300487
    14.146846560         5.641929284         7.176450609
    14.149040070        11.915089334         7.177134410
    14.098784040        18.230222259         7.206453378
    14.093418240        24.551821009         7.206445331
    19.646439780         5.626547218         7.163107823
    19.624892430        11.927825235         7.166520357
    19.621357800        18.231990321         7.170899730
    19.623613680        24.544652651         7.168546222
    11.334875310         0.913967859         7.210631581
    11.328602010         7.255247874         7.192269529
    11.405454720        13.474387304         7.169533876
    11.338158810        19.799118317         7.216542990
    16.862700690         0.893284886         7.179968276
    16.894403460         7.204526005         7.179307215
    16.884745680        13.506844325         7.172469727
    16.859663370        19.813003748         7.184927716
    22.378773450         0.927365932         7.118913158
    22.452737670         7.198874714         7.215598543
    22.391474160        13.473810646         7.116636444
    22.350745890        19.815555065         7.097085742
    11.400905010         4.082543278         7.170573310
    11.330409090        10.301404721         7.191997512
    11.339256390        16.643469757         7.208859715
    11.335734630        22.982691363         7.217379506
    16.882291140         4.054162713         7.172588329
    16.889472600        10.346771700         7.175755262
    16.870687350        16.658494123         7.182557240
    16.856297040        22.971283842         7.187366066
    22.386012330         4.018194035         7.112709790
    22.394932560        10.380749069         7.110803578
    22.436138670        16.649008541         7.211253282
    22.426699350        22.980387509         7.213242586
    25.019185950        22.989389012         8.726684120
    25.196439840        19.817093070         8.724029732
    25.026110340        16.642544734         8.724999894
    25.183299570        13.466137271         8.726991822
    25.194097500        10.377478570         8.719961035
    25.027455090         7.196591041         8.726439043
    25.186208520         4.018685934         8.726268486
    25.172878830         0.935064280         8.726371520
     9.707000000        10.390000000         7.192000000
     9.707000000         8.070000000         7.192000000
     9.707000000         9.230000000         7.192000000
