W48 Se99
1.0
  33.0000000000000000    0.0000000000000000    0.0000000000000000
   0.0000000000000000   26.2560005200000006    0.0000000000000000
   0.0000000000000000    0.0000000000000000   18.1299999999999990
W Se
48 99
direct
   0.2811379200000000    0.0430463900000000    0.5022487700000000 W
   0.2864604600000000    0.2772325600000000    0.4991224000000000 W
   0.2866359000000000    0.5278094200000000    0.4988117800000000 W
   0.2818122300000000    0.7875452600000000    0.5025136900000000 W
   0.4541892900000000    0.0359359800000000    0.5014761900000000 W
   0.4549160000000000    0.2858579300000000    0.4994809400000000 W
   0.4547005700000000    0.5354428700000000    0.4996828300000000 W
   0.4542079500000000    0.7856972600000000    0.5016670400000000 W
   0.6268858200000000    0.0354308500000000    0.5012521100000000 W
   0.6274667600000000    0.2854155800000000    0.5000025800000000 W
   0.6274527100000000    0.5355615500000001    0.5005790600000000 W
   0.6269689700000000    0.7856330200000000    0.5007540700000001 W
   0.2866810100000000    0.1683636700000000    0.5000871500000000 W
   0.2864589900000000    0.4187748000000000    0.4985136100000000 W
   0.2812630300000000    0.6531134500000000    0.5010531800000000 W
   0.2816891800000000    0.9083665200000000    0.5029022399999999 W
   0.4547397000000000    0.1607219300000000    0.5003396800000000 W
   0.4548132200000000    0.4101653900000000    0.4992096500000000 W
   0.4545394000000000    0.6601808000000000    0.5008078300000000 W
   0.4540257300000000    0.9102443500000000    0.5018861600000000 W
   0.6275830800000000    0.1599248700000000    0.5000429000000000 W
   0.6278542600000000    0.4109343200000000    0.4997114500000000 W
   0.6275576000000000    0.6601864800000000    0.5002701000000001 W
   0.6271870400000000    0.9109322900000000    0.5005685800000000 W
   0.3688213100000000    0.2238655200000000    0.4991930800000000 W
   0.3687754200000000    0.4721969800000000    0.4983968700000000 W
   0.3670106900000000    0.7225831100000000    0.5017677699999999 W
   0.3668234500000000    0.9734453199999999    0.5024786100000000 W
   0.5417910000000000    0.2228117300000000    0.5000319700000000 W
   0.5408953100000000    0.4731184300000000    0.4997537500000000 W
   0.5414181800000000    0.7228161500000000    0.5009400899999999 W
   0.5402761100000000    0.9731210700000000    0.5011771900000001 W
   0.7152910700000000    0.2136759600000000    0.4997646900000000 W
   0.7142942900000000    0.4762196100000000    0.5006158200000000 W
   0.7151589900000000    0.7143292400000000    0.5000891400000000 W
   0.7135806200000000    0.9756321500000000    0.5011561600000000 W
   0.3687819600000000    0.0989823600000000    0.5014643000000000 W
   0.3680566900000000    0.3480275300000000    0.4994429100000000 W
   0.3688594500000000    0.5971630400000000    0.5004037300000000 W
   0.3683319400000000    0.8479777500000000    0.5022846600000000 W
   0.5405510000000000    0.0978980100000000    0.5006533300000000 W
   0.5420041400000000    0.3482958800000000    0.4996631500000000 W
   0.5407329500000000    0.5979336300000000    0.5002714500000000 W
   0.5411282700000000    0.8482584399999999    0.5013176900000000 W
   0.7137705300000000    0.0950388200000000    0.5011106800000000 W
   0.7154827300000000    0.3567221200000000    0.4997754900000000 W
   0.7141661400000000    0.5949278700000000    0.5007729800000000 W
   0.7148816800000000    0.8571392600000000    0.4999767100000000 W
   0.2531650600000000    0.1055611500000000    0.5907256900000000 Se
   0.2436346500000000    0.3481346400000000    0.5468053200000000 Se
   0.2531341300000000    0.5905114600000000    0.5893902800000000 Se
   0.2519346500000000    0.8478378700000000    0.5946314400000000 Se
   0.4259514400000000    0.0986809100000000    0.5947786800000000 Se
   0.4256129500000000    0.3480848300000000    0.5926675200000000 Se
   0.4259556200000000    0.5975363000000000    0.5939193800000000 Se
   0.4255603700000000    0.8478366300000000    0.5957234400000000 Se
   0.5980434200000000    0.0981649700000000    0.5936387700000000 Se
   0.5995875300000000    0.3481367300000000    0.5932656700000000 Se
   0.5982387900000000    0.5979557500000000    0.5932796100000000 Se
   0.5990100900000001    0.8481136700000000    0.5943114300000000 Se
   0.4262104800000000    0.2237779400000000    0.5930679700000000 Se
   0.4260435200000000    0.4724667900000000    0.5924713900000000 Se
   0.4252534500000000    0.7224981200000000    0.5940229600000000 Se
   0.4250507000000000    0.9733283200000000    0.5945943500000000 Se
   0.5994511300000001    0.2229431200000000    0.5934608500000000 Se
   0.5983414200000000    0.4729201400000000    0.5929325400000000 Se
   0.5992461500000000    0.7228888500000000    0.5940695300000000 Se
   0.5978749200000000    0.9729861200000000    0.5939527400000000 Se
   0.3377067600000000    0.0367883000000000    0.5949609600000000 Se
   0.3375156600000000    0.2852509100000000    0.5956137200000000 Se
   0.3405759300000000    0.5333796600000000    0.5948974100000000 Se
   0.3382023900000000    0.7848504100000000    0.5955470000000000 Se
   0.5117477600000000    0.0357225300000000    0.5944978000000000 Se
   0.5127778400000000    0.2857868600000000    0.5924530400000000 Se
   0.5120208200000000    0.5352943999999999    0.5933447700000000 Se
   0.5122666000000000    0.7853222300000000    0.5941494600000000 Se
   0.6844907600000000    0.0354042600000000    0.5978194300000000 Se
   0.6879344200000000    0.2852922600000000    0.5883527500000000 Se
   0.6852231400000000    0.5354888700000000    0.5974294200000000 Se
   0.6875900800000000    0.7856566500000000    0.5887798900000000 Se
   0.3406466800000000    0.1627983200000000    0.5960668200000000 Se
   0.3374586300000000    0.4110835500000000    0.5951521400000001 Se
   0.3377533400000000    0.6592201700000000    0.5939944800000000 Se
   0.3380993300000000    0.9108772400000000    0.5958704900000000 Se
   0.5123129400000000    0.1609587500000000    0.5935286700000000 Se
   0.5123467300000000    0.4102945600000000    0.5926647800000000 Se
   0.5122141600000000    0.6604447800000000    0.5938555200000000 Se
   0.5118498500000001    0.9104674600000000    0.5946043200000000 Se
   0.6856122800000000    0.1580563600000000    0.5964127800000000 Se
   0.6858926400000001    0.4127913600000000    0.5960341700000000 Se
   0.6856914200000001    0.6582051000000000    0.5963983700000000 Se
   0.6853655100000000    0.9128156400000000    0.5966879700000000 Se
   0.2538237100000000    0.1028295500000000    0.4101344700000000 Se
   0.2539919200000000    0.5934916099999999    0.4087133900000000 Se
   0.2515438900000000    0.8480460900000000    0.4111807800000000 Se
   0.4257253900000000    0.0979606200000000    0.4074317700000000 Se
   0.4257726800000000    0.3479015900000000    0.4060456900000000 Se
   0.4259374100000000    0.5982726300000000    0.4066381800000000 Se
   0.4252339800000000    0.8480222600000000    0.4082618800000000 Se
   0.5980696500000000    0.0976154400000000    0.4076003200000000 Se
   0.5996868100000000    0.3480116700000000    0.4063445600000000 Se
   0.5983366600000000    0.5980014100000000    0.4074404000000000 Se
   0.5985720700000000    0.8481123800000000    0.4075404700000000 Se
   0.2276546400000000    0.2224946400000000    0.4783429400000000 Se
   0.2277915400000000    0.4734010900000000    0.4762485300000000 Se
   0.2303292500000000    0.7207673800000000    0.5062378500000000 Se
   0.2302773100000000    0.9752620100000000    0.5062188600000000 Se
   0.4264105900000000    0.2231884200000000    0.4062119800000000 Se
   0.4264195900000000    0.4727787800000000    0.4056563400000000 Se
   0.4249593900000000    0.7230736000000000    0.4088551700000000 Se
   0.4246178700000000    0.9730532800000000    0.4094020400000000 Se
   0.5994149700000000    0.2227616800000000    0.4066683200000000 Se
   0.5985604600000000    0.4732887100000000    0.4070777800000000 Se
   0.5989679600000000    0.7231238700000000    0.4073037200000000 Se
   0.5977579500000000    0.9731372900000000    0.4079995300000000 Se
   0.3375661600000000    0.0357224300000000    0.4093439200000000 Se
   0.3375916200000000    0.2862200900000000    0.4033120800000000 Se
   0.3403715100000000    0.5351754600000000    0.4042054400000000 Se
   0.3379978100000000    0.7852709500000000    0.4089933300000000 Se
   0.5114113400000000    0.0353570800000000    0.4077557900000000 Se
   0.5129670300000000    0.2855154400000000    0.4069917600000000 Se
   0.5121849400000000    0.5356848400000001    0.4064570000000000 Se
   0.5119455900000000    0.7855896300000000    0.4085804900000000 Se
   0.6855787100000000    0.0353283400000000    0.4057653300000000 Se
   0.6879388300000000    0.2852228500000000    0.4115158600000000 Se
   0.6860764800000000    0.5356283400000000    0.4048131400000000 Se
   0.6873077200000000    0.7856869600000000    0.4118780100000000 Se
   0.3402733500000000    0.1608434400000000    0.4052337100000000 Se
   0.3376404700000000    0.4095547400000000    0.4028744700000000 Se
   0.3377787200000000    0.6605125600000000    0.4082564500000000 Se
   0.3378550600000000    0.9109230400000000    0.4094322300000000 Se
   0.5123226200000000    0.1605190600000000    0.4071528500000000 Se
   0.5126357499999999    0.4103618400000000    0.4064286900000000 Se
   0.5120937900000000    0.6608915400000001    0.4074705400000000 Se
   0.5114924700000000    0.9104162500000000    0.4083059400000000 Se
   0.6851606600000000    0.1578754900000000    0.4033712300000000 Se
   0.6856740500000000    0.4128970400000000    0.4034445900000000 Se
   0.6852895900000000    0.6582964100000001    0.4037960000000000 Se
   0.6846157800000000    0.9128290000000000    0.4036592900000000 Se
   0.7734828000000000    0.9134484500000000    0.4895312400000000 Se
   0.7679601100000000    0.7857074200000000    0.5027598200000000 Se
   0.7738064200000000    0.6577778800000000    0.4927743800000000 Se
   0.7732537000000000    0.5356132100000000    0.5121195500000000 Se
   0.7740204500000000    0.4133931500000000    0.4927227800000000 Se
   0.7683062600000000    0.2852368800000000    0.5027394800000000 Se
   0.7738039600000000    0.1571315800000000    0.4900610400000000 Se
   0.7723601500000000    0.0351939100000000    0.5175271000000000 Se
