W36 S72                                 
   1.00000000000000     
    18.9192008971999996    0.0000000000000000    0.0000000000000000
    -9.4596004485999998   16.3845085963000017    0.0000000000000000
     0.0000000000000000    0.0000000000000000   24.6459999084000003
   W    S    O    C 
    36    69     2     1
Direct
  0.1226715867185820  0.0481253944110184  0.4995817198241897
  0.1252667882908387  0.2151432583170357  0.5006392203266831
  0.1223744068240247  0.3794482099733813  0.5005289698417084
  0.1200479802275976  0.5454895030376378  0.5001549039892229
  0.1199776998766095  0.7124655931292060  0.4996641392261049
  0.1206366985170071  0.8799375093423902  0.4993915574053269
  0.2882531100192517  0.0481794571450402  0.4963426385804703
  0.2948088526631563  0.2172898993793353  0.4923002863868593
  0.2952982756036113  0.3820453691983340  0.4936176443031300
  0.2881850080217282  0.5471019331987549  0.4999272004995994
  0.2866811657148747  0.7122524104174272  0.5001172533817323
  0.2870546007904783  0.8797760878607637  0.4992117425786445
  0.4536070885800106  0.0466448804353235  0.4989436108461948
  0.4510716105849697  0.2142410643975930  0.4928459213786973
  0.4496733668885145  0.3753798726601787  0.4876163800487561
  0.4536847766420182  0.5340243013094716  0.4957089540776800
  0.4511835193667119  0.7111699327728349  0.5023800838971240
  0.4532949060578244  0.8794321214236227  0.5012549983033421
  0.6202621300343077  0.0455423211144980  0.5020481043691746
  0.6190445524467963  0.2119994867725854  0.4993543955551226
  0.6160209276169492  0.3767156118411863  0.4957983948313315
  0.6178359885156225  0.5422093301589052  0.4956469064243577
  0.6178077124881117  0.7096646979183118  0.5012088324180399
  0.6193547504904516  0.8775983985626117  0.5034073579237840
  0.7872674895484931  0.0454670149886375  0.5035047931851819
  0.7869967021717188  0.2121708265715399  0.5021561572128969
  0.7857380881099192  0.3782027527998727  0.4999394169214739
  0.7854936760015546  0.5442742851218663  0.4986876847706173
  0.7858298819430989  0.7110516950352889  0.5003065415003884
  0.7866870712895709  0.8784787720497214  0.5029285759551080
  0.9552590289979063  0.0467117704292952  0.5027251566446748
  0.9553719304109676  0.2128817819695356  0.5026840310542993
  0.9539954570541688  0.3788749387807858  0.5013476864995304
  0.9530365803905196  0.5451898276350863  0.4999897322429652
  0.9530711986138437  0.7121158087687617  0.4999943182944440
  0.9540781795064159  0.8795249327452390  0.5013569775779440
  0.0699478599658163  0.1043378037354125  0.5652156115754879
  0.0695796546005832  0.2697753500293603  0.5655723977064031
  0.0664482617807402  0.4349939226409484  0.5648305376684393
  0.0643092389625379  0.6014239692508899  0.5640197232046602
  0.0649179004859040  0.7686250257379774  0.5637489784790742
  0.0675022758997940  0.9368924651177334  0.5641996755344701
  0.2399021070770318  0.1100631494816942  0.5599498015349808
  0.2500602009223841  0.2769123710070631  0.5599346485357378
  0.2384362755726796  0.4341924486363753  0.5613801236312158
  0.2303894220117596  0.6006146265955246  0.5640504445344485
  0.2311295448529368  0.7687202472088497  0.5637202290449930
  0.2331083548726045  0.9382243956379208  0.5622694980434465
  0.3980787426624067  0.1074404268303905  0.5601132529486236
  0.3964650256933455  0.7688116896734237  0.5654015696224061
  0.3972163497826794  0.9365762872063301  0.5639910148645481
  0.5630873484684886  0.1022130029959140  0.5644056652548093
  0.5575580008662305  0.2678579117225033  0.5602111209939439
  0.5497515998946927  0.4259341186987584  0.5573607476078282
  0.5626789975397155  0.5929317709597554  0.5612564466574118
  0.5616560512061318  0.7634264037922771  0.5666074186636001
  0.5634590349114827  0.9343990900199786  0.5664689184293390
  0.7309660230352618  0.1015733062474297  0.5668663477785880
  0.7291352041484125  0.2681118983798932  0.5647009250769448
  0.7259236015974855  0.4323255546488814  0.5620425697904781
  0.7270306997746135  0.5968107717382379  0.5622517759847953
  0.7294774867557372  0.7646467394003993  0.5655055802926015
  0.7309742489798897  0.9334904213045259  0.5675443505447957
  0.8998239225816742  0.1020219780507402  0.5672364262873389
  0.8988740704374140  0.2686638365485445  0.5662469069081068
  0.8968611064955735  0.4344704250474586  0.5645207713675812
  0.8961213436461665  0.6000469780181700  0.5636005214788670
  0.8972805190394493  0.7667499020015983  0.5646386886821156
  0.8992740582503296  0.9345575180660001  0.5665243380610848
  0.0649877439160719  0.1029695590014670  0.4373826487797773
  0.0655138254042595  0.2676105757136811  0.4376026756259264
  0.0646078185455208  0.4335556179705256  0.4366281612768340
  0.0643199257121813  0.6007405670807739  0.4357845776185268
  0.0640859955829494  0.7679562901999369  0.4356253986138635
  0.0641031643502150  0.9355276460153312  0.4361904108745981
  0.2304894963727001  0.1018894752994445  0.4320534931769303
  0.2315045724584907  0.2689542269479590  0.4318559388025415
  0.2321909479070121  0.4364018419437032  0.4346351296244231
  0.2314980880111700  0.6007456800597535  0.4358832119629323
  0.2313112673081970  0.7677215840053199  0.4355199008069337
  0.2307771940438762  0.9339052086261544  0.4342947535439737
  0.3994786283129481  0.1007370990722722  0.4318323829730422
  0.3991688196287116  0.2665734990038345  0.4243284647050163
  0.3983887901707431  0.4336248104269396  0.4247393432741438
  0.4011673244662527  0.6003685234951892  0.4384578164589912
  0.3993687675958565  0.7679212076289348  0.4370319358201333
  0.3988509586007803  0.9342827682967468  0.4356349197279516
  0.5660246747635738  0.1002371353367808  0.4361408738503584
  0.5648009582988321  0.2654938089167067  0.4319423709695162
  0.5642880277584433  0.4331478849605064  0.4283449258287303
  0.5657979719727854  0.6028820734337673  0.4329076597504916
  0.5626765656810880  0.7674052908739135  0.4387211277605851
  0.5657998594816590  0.9340462769643583  0.4382974746965246
  0.7322270474847884  0.1004636597730331  0.4386295420717607
  0.7319373373191636  0.2664925648497871  0.4365192926415827
  0.7314488667095864  0.4333206595184383  0.4343159478277056
  0.7325715325583684  0.6019510457827291  0.4342088740027047
  0.7303410485581184  0.7684890086382558  0.4378315785645357
  0.7309442045767413  0.9341810635004828  0.4394428005478090
  0.8983359527535312  0.1011798639437942  0.4391315024473616
  0.8985266480559719  0.2668069324527931  0.4381779049683685
  0.8979976190171287  0.4333415937995547  0.4364461148323639
  0.8981021768412140  0.6010382042375680  0.4355314627206873
  0.8977305753653789  0.7687898472157150  0.4366137495743546
  0.8977406770243366  0.9354677993642365  0.4384887006295754
  0.3829213988348616  0.6148751678730607  0.5593506739516624
  0.4019117326472415  0.5322701840817540  0.6159679993063676
  0.4084118922771170  0.5571080187178105  0.5699247938203887
 
  0.00000000E+00  0.00000000E+00  0.00000000E+00
  0.00000000E+00  0.00000000E+00  0.00000000E+00
  0.00000000E+00  0.00000000E+00  0.00000000E+00
  0.00000000E+00  0.00000000E+00  0.00000000E+00
  0.00000000E+00  0.00000000E+00  0.00000000E+00
  0.00000000E+00  0.00000000E+00  0.00000000E+00
  0.00000000E+00  0.00000000E+00  0.00000000E+00
  0.00000000E+00  0.00000000E+00  0.00000000E+00
  0.00000000E+00  0.00000000E+00  0.00000000E+00
  0.00000000E+00  0.00000000E+00  0.00000000E+00
  0.00000000E+00  0.00000000E+00  0.00000000E+00
  0.00000000E+00  0.00000000E+00  0.00000000E+00
  0.00000000E+00  0.00000000E+00  0.00000000E+00
  0.00000000E+00  0.00000000E+00  0.00000000E+00
  0.00000000E+00  0.00000000E+00  0.00000000E+00
  0.00000000E+00  0.00000000E+00  0.00000000E+00
  0.00000000E+00  0.00000000E+00  0.00000000E+00
  0.00000000E+00  0.00000000E+00  0.00000000E+00
  0.00000000E+00  0.00000000E+00  0.00000000E+00
  0.00000000E+00  0.00000000E+00  0.00000000E+00
  0.00000000E+00  0.00000000E+00  0.00000000E+00
  0.00000000E+00  0.00000000E+00  0.00000000E+00
  0.00000000E+00  0.00000000E+00  0.00000000E+00
  0.00000000E+00  0.00000000E+00  0.00000000E+00
  0.00000000E+00  0.00000000E+00  0.00000000E+00
  0.00000000E+00  0.00000000E+00  0.00000000E+00
  0.00000000E+00  0.00000000E+00  0.00000000E+00
  0.00000000E+00  0.00000000E+00  0.00000000E+00
  0.00000000E+00  0.00000000E+00  0.00000000E+00
  0.00000000E+00  0.00000000E+00  0.00000000E+00
  0.00000000E+00  0.00000000E+00  0.00000000E+00
  0.00000000E+00  0.00000000E+00  0.00000000E+00
  0.00000000E+00  0.00000000E+00  0.00000000E+00
  0.00000000E+00  0.00000000E+00  0.00000000E+00
  0.00000000E+00  0.00000000E+00  0.00000000E+00
  0.00000000E+00  0.00000000E+00  0.00000000E+00
  0.00000000E+00  0.00000000E+00  0.00000000E+00
  0.00000000E+00  0.00000000E+00  0.00000000E+00
  0.00000000E+00  0.00000000E+00  0.00000000E+00
  0.00000000E+00  0.00000000E+00  0.00000000E+00
  0.00000000E+00  0.00000000E+00  0.00000000E+00
  0.00000000E+00  0.00000000E+00  0.00000000E+00
  0.00000000E+00  0.00000000E+00  0.00000000E+00
  0.00000000E+00  0.00000000E+00  0.00000000E+00
  0.00000000E+00  0.00000000E+00  0.00000000E+00
  0.00000000E+00  0.00000000E+00  0.00000000E+00
  0.00000000E+00  0.00000000E+00  0.00000000E+00
  0.00000000E+00  0.00000000E+00  0.00000000E+00
  0.00000000E+00  0.00000000E+00  0.00000000E+00
  0.00000000E+00  0.00000000E+00  0.00000000E+00
  0.00000000E+00  0.00000000E+00  0.00000000E+00
  0.00000000E+00  0.00000000E+00  0.00000000E+00
  0.00000000E+00  0.00000000E+00  0.00000000E+00
  0.00000000E+00  0.00000000E+00  0.00000000E+00
  0.00000000E+00  0.00000000E+00  0.00000000E+00
  0.00000000E+00  0.00000000E+00  0.00000000E+00
  0.00000000E+00  0.00000000E+00  0.00000000E+00
  0.00000000E+00  0.00000000E+00  0.00000000E+00
  0.00000000E+00  0.00000000E+00  0.00000000E+00
  0.00000000E+00  0.00000000E+00  0.00000000E+00
  0.00000000E+00  0.00000000E+00  0.00000000E+00
  0.00000000E+00  0.00000000E+00  0.00000000E+00
  0.00000000E+00  0.00000000E+00  0.00000000E+00
  0.00000000E+00  0.00000000E+00  0.00000000E+00
  0.00000000E+00  0.00000000E+00  0.00000000E+00
  0.00000000E+00  0.00000000E+00  0.00000000E+00
  0.00000000E+00  0.00000000E+00  0.00000000E+00
  0.00000000E+00  0.00000000E+00  0.00000000E+00
  0.00000000E+00  0.00000000E+00  0.00000000E+00
  0.00000000E+00  0.00000000E+00  0.00000000E+00
  0.00000000E+00  0.00000000E+00  0.00000000E+00
  0.00000000E+00  0.00000000E+00  0.00000000E+00
  0.00000000E+00  0.00000000E+00  0.00000000E+00
  0.00000000E+00  0.00000000E+00  0.00000000E+00
  0.00000000E+00  0.00000000E+00  0.00000000E+00
  0.00000000E+00  0.00000000E+00  0.00000000E+00
  0.00000000E+00  0.00000000E+00  0.00000000E+00
  0.00000000E+00  0.00000000E+00  0.00000000E+00
  0.00000000E+00  0.00000000E+00  0.00000000E+00
  0.00000000E+00  0.00000000E+00  0.00000000E+00
  0.00000000E+00  0.00000000E+00  0.00000000E+00
  0.00000000E+00  0.00000000E+00  0.00000000E+00
  0.00000000E+00  0.00000000E+00  0.00000000E+00
  0.00000000E+00  0.00000000E+00  0.00000000E+00
  0.00000000E+00  0.00000000E+00  0.00000000E+00
  0.00000000E+00  0.00000000E+00  0.00000000E+00
  0.00000000E+00  0.00000000E+00  0.00000000E+00
  0.00000000E+00  0.00000000E+00  0.00000000E+00
  0.00000000E+00  0.00000000E+00  0.00000000E+00
  0.00000000E+00  0.00000000E+00  0.00000000E+00
  0.00000000E+00  0.00000000E+00  0.00000000E+00
  0.00000000E+00  0.00000000E+00  0.00000000E+00
  0.00000000E+00  0.00000000E+00  0.00000000E+00
  0.00000000E+00  0.00000000E+00  0.00000000E+00
  0.00000000E+00  0.00000000E+00  0.00000000E+00
  0.00000000E+00  0.00000000E+00  0.00000000E+00
  0.00000000E+00  0.00000000E+00  0.00000000E+00
  0.00000000E+00  0.00000000E+00  0.00000000E+00
  0.00000000E+00  0.00000000E+00  0.00000000E+00
  0.00000000E+00  0.00000000E+00  0.00000000E+00
  0.00000000E+00  0.00000000E+00  0.00000000E+00
  0.00000000E+00  0.00000000E+00  0.00000000E+00
  0.00000000E+00  0.00000000E+00  0.00000000E+00
  0.00000000E+00  0.00000000E+00  0.00000000E+00
  0.00000000E+00  0.00000000E+00  0.00000000E+00
  0.00000000E+00  0.00000000E+00  0.00000000E+00
  0.00000000E+00  0.00000000E+00  0.00000000E+00
  0.00000000E+00  0.00000000E+00  0.00000000E+00
