W36 S72                                 
1.0
  18.9192008972         0.0000000000         0.0000000000
  -9.4596004486        16.3845085963         0.0000000000
  -0.0000000000        -0.0000000000        24.6459999084
W S O C
36 69 2 1
Cartesian
     1.860003832         0.792970944        12.340376184
     0.342634179         3.544646730        12.345938312
    -1.225961837         6.261534177        12.345937602
    -2.850298276         8.951454316        12.340376136
    -4.464299143        11.675178168        12.351180319
    -6.047782627        14.417851632        12.351180382
     4.993652965         0.792941738        12.264454777
     3.511799215         3.570595783        12.135260820
     1.976836140         6.299412982        12.085900952
     0.381092942         8.993138389        12.135260744
    -1.283498622        11.665288336        12.264454724
    -2.887964340        14.413724365        12.318459024
     8.138808475         0.768349998        12.329312307
     6.490561110         3.522065243        12.194070851
     4.913147864         6.175910462        12.041379597
     3.338035905         8.904084638        12.041379554
     1.828445606        11.597087601        12.194071397
     0.267781802        14.401368579        12.329312653
    11.300024174         0.759152579        12.398853592
     9.695831247         3.490238480        12.372283877
     8.058237167         6.188853698        12.300803784
     6.453201483         8.883843492        12.279780953
     4.921789844        11.621340034        12.300805330
     3.403516778        14.388845746        12.372286150
    14.461366029         0.760756396        12.437522489
    12.882082686         3.496153895        12.437520699
    11.277479349         6.213832855        12.409650864
     9.670700344         8.926565705        12.386902485
     8.098949371        11.648918938        12.386904016
     6.553044798        14.396796019        12.409653904
    17.626269831         0.777269203        12.421262738
    16.072352906         3.514457747        12.435543821
    14.478836394         6.228783556        12.421261446
    12.871904132         8.944991452        12.401083681
    11.278743197        11.669871304        12.394088730
     9.715507853        14.412028821        12.401085038
     0.336630634         1.733610153        13.950454012
    -1.193388615         4.469082919        13.959328821
    -2.797368114         7.161854721        13.950454219
    -4.421651265         9.864675065        13.942727462
    -6.032196983        12.598400944        13.942893974
    -7.594400249        15.360037561        13.942727315
     3.488566881         1.823535680        13.818481229
     2.113974984         4.593954900        13.769789449
     0.568434661         7.270907218        13.769789141
    -1.143521314         9.846548987        13.818481318
    -2.843533083        12.577881039        13.886095894
    -4.455635874        15.370124408        13.886096022
     6.509715416         1.755696287        13.840489967
     0.308302458        12.496859660        13.840489649
    -1.321711224        15.318000969        13.906867868
     9.682483854         1.667963340        13.950902955
     7.986903456         4.392302842        13.871428845
     6.294018001         6.988519802        13.793202650
     4.732211348         9.693648311        13.793202448
     3.330264924        12.457838444        13.871429307
     1.818705931        15.288425131        13.950904053
    12.865393572         1.662920631        14.008807264
    11.254019556         4.397235945        13.989851161
     9.615912111         7.091618028        13.941449964
     8.013484319         9.784673299        13.925143738
     6.482443274        12.518943673        13.941451622
     4.968094417        15.284778325        13.989851893
    16.059444851         1.684404954        14.013870719
    14.481025611         4.418304979        14.013870297
    12.871421176         7.133293884        13.989962482
    11.263735269         9.842671385        13.970753993
     9.688837948        12.570473705        13.970754243
     8.146291622        15.317461048        13.989964263
     0.250798184         1.689363350        10.804751516
    -1.296195592         4.409727148        10.816926911
    -2.878602932         7.109645151        10.804751593
    -4.482762993         9.839081051        10.791821939
    -6.073549223        12.574526333        10.792162717
    -7.647121998        15.319910035        10.791822158
     3.395301808         1.661154262        10.671198693
     1.837180809         4.388655001        10.617246625
     0.252243656         7.133846890        10.617246479
    -1.330780639         9.846969561        10.671198221
    -2.914922908        12.588267825        10.736957570
    -4.482335633        15.303105899        10.736957789
     6.601620930         1.667094140        10.683046933
     5.036340736         4.389520704        10.486827122
     3.462806108         7.157337919        10.422317218
     1.852573817         9.903967731        10.486826707
     0.277523756        12.620753390        10.683046285
    -1.303035549        15.328783564        10.748727979
     9.752259448         1.676306213        10.792954324
     8.165389817         4.379755287        10.714841464
     6.562949640         7.119595283        10.624082714
     4.980192194         9.861012366        10.624082403
     3.408642034        12.618688964        10.714843361
     1.860822579        15.344679572        10.792955923
    12.900055682         1.682930337        10.851199866
    11.317896713         4.397145186        10.834072431
     9.717990074         7.117247017        10.800477091
     8.116042532         9.843885838        10.790211699
     6.555678099        12.594535848        10.800480298
     4.999954414        15.340144136        10.834074625
    16.038880487         1.687435046        10.861762089
    14.473369470         4.398981177        10.861761138
    12.879353820         7.114494107        10.840428430
    11.276063944         9.841728211        10.824810180
     9.694184979        12.581622593        10.824810239
     8.133972879        15.333728509        10.840431382
     1.853000000         9.904000000        13.840000000
     3.013000000         7.908000000        13.840000000
     2.433000000         8.906000000        13.840000000
     
