W48 Se97
1.0
  33.0000000000000000    0.0000000000000000    0.0000000000000000
   0.0000000000000000   26.2560005200000006    0.0000000000000000
   0.0000000000000000    0.0000000000000000   18.1299999999999990
W Se
48 97
direct
   0.2792730800000000    0.0432308000000000    0.5042318900000000 W
   0.2862619200000000    0.2779846300000000    0.5023172200000000 W
   0.2904725800000000    0.5210891600000001    0.5049205900000000 W
   0.2864242700000000    0.7745968500000000    0.5033288600000000 W
   0.4534028200000000    0.0357664700000000    0.5014366099999999 W
   0.4549962600000000    0.2861312500000000    0.5013796400000000 W
   0.4554163100000000    0.5352042900000000    0.5016163200000000 W
   0.4542523900000000    0.7852351000000000    0.5013613400000000 W
   0.6270249000000000    0.0354983700000000    0.4996839200000000 W
   0.6275028600000000    0.2852932000000000    0.4998455200000000 W
   0.6281537800000000    0.5356150900000000    0.4999156500000000 W
   0.6268875400000000    0.7857470400000000    0.4996157400000000 W
   0.2863524700000000    0.1710769500000000    0.5031383100000000 W
   0.2905016200000000    0.4245085900000000    0.5049718200000000 W
   0.2862444600000000    0.6677652900000000    0.5022596400000000 W
   0.2792895300000000    0.9023687600000000    0.5042586700000000 W
   0.4541810300000000    0.1607746300000000    0.5012224900000000 W
   0.4556091800000000    0.4105594900000000    0.5016929600000000 W
   0.4548367300000000    0.6598645600000000    0.5013306000000000 W
   0.4535971100000000    0.9101292800000000    0.5014954700000001 W
   0.6274098500000000    0.1599173100000000    0.4997037900000000 W
   0.6282665700000000    0.4108707100000000    0.4999344300000000 W
   0.6278681200000000    0.6603138000000000    0.4996925200000000 W
   0.6270382200000000    0.9110373600000000    0.4995603400000000 W
   0.3679343000000000    0.2249226000000000    0.5018457500000000 W
   0.3723860200000000    0.4727743000000000    0.5023801200000000 W
   0.3679465800000000    0.7209102200000000    0.5020021500000000 W
   0.3663096000000000    0.9728787800000001    0.5028694600000000 W
   0.5416510100000000    0.2227716100000000    0.5004542700000000 W
   0.5415708700000000    0.4731272900000000    0.5008097200000000 W
   0.5415955800000000    0.7227374600000001    0.5004663700000000 W
   0.5399255400000000    0.9731829200000000    0.5003845000000000 W
   0.7151160600000001    0.2138231000000000    0.4990621700000000 W
   0.7147152000000000    0.4767185400000000    0.4992064700000000 W
   0.7150988500000000    0.7145355300000000    0.4988059100000000 W
   0.7136319200000000    0.9766628700000000    0.4989857300000000 W
   0.3680865700000000    0.0994670700000000    0.5026611800000000 W
   0.3683777300000000    0.3481013600000000    0.5028560800000000 W
   0.3682421300000000    0.5976365300000001    0.5027716400000000 W
   0.3681907300000000    0.8463664100000000    0.5027926700000001 W
   0.5401280300000000    0.0978505500000000    0.5003802400000000 W
   0.5424228000000000    0.3480781100000000    0.5007114499999999 W
   0.5413361500000000    0.5980474300000000    0.5006405900000001 W
   0.5410402000000000    0.8483064800000000    0.5004230200000001 W
   0.7138030300000000    0.0943081300000000    0.4991171000000000 W
   0.7155535700000000    0.3566987200000000    0.4991044000000000 W
   0.7145256500000000    0.5947153700000000    0.4991185400000000 W
   0.7146685500000000    0.8572192300000000    0.4987349900000000 W
   0.2527381400000000    0.1059106900000000    0.5929664700000000 Se
   0.2406145400000000    0.3555077300000000    0.5250685500000000 Se
   0.2406286300000000    0.5901842700000000    0.5248785200000000 Se
   0.2526887400000000    0.8397116100000001    0.5930031400000000 Se
   0.4254632100000000    0.0984447300000000    0.5953530800000000 Se
   0.4263473400000000    0.3481910600000000    0.5951573700000000 Se
   0.4261564200000000    0.5976920400000000    0.5950312200000000 Se
   0.4256281000000000    0.8475321200000000    0.5954936700000000 Se
   0.5979841800000000    0.0978213900000000    0.5927507900000000 Se
   0.6002316400000000    0.3479712000000000    0.5937083000000000 Se
   0.5990929800000000    0.5980723100000001    0.5930063800000001 Se
   0.5989626700000000    0.8482608400000000    0.5932572900000000 Se
   0.4259800500000000    0.2238160400000000    0.5945172399999999 Se
   0.4285843700000000    0.4728653900000000    0.5969361500000000 Se
   0.4259815300000000    0.7221966500000000    0.5946376400000000 Se
   0.4245070400000000    0.9728942400000000    0.5946317900000000 Se
   0.5995261800000000    0.2227159800000000    0.5934126600000000 Se
   0.5993026400000000    0.4731420200000000    0.5931435700000000 Se
   0.5995031300000000    0.7230384700000000    0.5933394600000000 Se
   0.5978364500000000    0.9731916300000000    0.5926746700000000 Se
   0.3368177700000000    0.0361510700000000    0.5951222400000000 Se
   0.3367430600000000    0.2867817700000000    0.5986086800000000 Se
   0.3406379900000000    0.5334090200000000    0.5999039700000000 Se
   0.3401713200000000    0.7829505600000000    0.5983811700000000 Se
   0.5112751100000000    0.0355167500000000    0.5939597900000000 Se
   0.5131547100000000    0.2855350100000000    0.5936150300000000 Se
   0.5131480100000000    0.5356895100000000    0.5943829100000000 Se
   0.5124524700000000    0.7853959000000000    0.5934812200000000 Se
   0.6854169900000000    0.0354745100000000    0.5960487000000000 Se
   0.6880743499999999    0.2852638800000000    0.5878920600000000 Se
   0.6865379900000000    0.5357061200000000    0.5962030400000000 Se
   0.6875416000000000    0.7858350600000000    0.5875824500000000 Se
   0.3401081300000000    0.1629018800000000    0.5981613600000000 Se
   0.3406861100000000    0.4121654900000000    0.6000007900000000 Se
   0.3366964300000000    0.6589739100000001    0.5985942800000000 Se
   0.3368204700000000    0.9096397300000000    0.5951605200000000 Se
   0.5121062600000000    0.1607327700000000    0.5937245500000000 Se
   0.5135318600000000    0.4101507400000000    0.5941934100000000 Se
   0.5127054400000000    0.6605835600000000    0.5939657900000000 Se
   0.5116637600000000    0.9104344900000000    0.5937638100000000 Se
   0.6855928100000001    0.1578897200000000    0.5956552400000000 Se
   0.6864776400000000    0.4129524900000000    0.5957366300000000 Se
   0.6860605300000000    0.6584011000000000    0.5955392900000001 Se
   0.6852710100000000    0.9130787700000000    0.5954527300000000 Se
   0.2524665000000000    0.1051062300000000    0.4143774500000000 Se
   0.2525875000000000    0.8403608800000000    0.4144041500000000 Se
   0.4246796700000000    0.0983365300000000    0.4081768400000000 Se
   0.4256152300000000    0.3483900600000000    0.4087616200000000 Se
   0.4254472200000000    0.5974563000000001    0.4087345100000000 Se
   0.4248305800000000    0.8476281400000000    0.4083018500000000 Se
   0.5975595900000000    0.0978560500000000    0.4070806400000000 Se
   0.5996735399999999    0.3480779000000000    0.4066479800000000 Se
   0.5985322000000000    0.5979282200000000    0.4071694900000000 Se
   0.5984004100000000    0.8482139500000000    0.4064155800000000 Se
   0.2258975700000000    0.2241742700000000    0.4932295300000000 Se
   0.2258861100000000    0.7215836200000000    0.4935656000000000 Se
   0.2302309500000000    0.9727900500000000    0.5042962000000000 Se
   0.4255134700000000    0.2238731100000000    0.4083155900000000 Se
   0.4279883500000000    0.4727380400000000    0.4069411500000000 Se
   0.4254465000000000    0.7221932300000000    0.4083923300000000 Se
   0.4236289300000000    0.9728730400000000    0.4092433400000000 Se
   0.5990451200000000    0.2228260700000000    0.4065517100000000 Se
   0.5987401200000000    0.4731327400000000    0.4073030300000000 Se
   0.5989514800000000    0.7229829500000000    0.4064851000000000 Se
   0.5973594400000000    0.9732232700000000    0.4070386700000000 Se
   0.3358993000000000    0.0359242900000000    0.4114434000000000 Se
   0.3364941800000000    0.2878613600000000    0.4061176000000000 Se
   0.3392292600000000    0.5333417400000000    0.4073095300000000 Se
   0.3393592600000000    0.7835849600000000    0.4075587700000000 Se
   0.5106060200000000    0.0355103000000000    0.4074733000000000 Se
   0.5125927700000000    0.2857194700000000    0.4081275900000000 Se
   0.5125726600000000    0.5355737000000000    0.4077386200000000 Se
   0.5118602200000000    0.7853684600000000    0.4081020900000000 Se
   0.6850578500000000    0.0355655500000000    0.4025433300000000 Se
   0.6875974300000000    0.2853023900000000    0.4107810500000000 Se
   0.6861105600000000    0.5356294400000000    0.4026757200000000 Se
   0.6869922000000001    0.7857961100000000    0.4104762500000000 Se
   0.3392707600000000    0.1621639300000000    0.4073548100000000 Se
   0.3392246300000000    0.4121827100000000    0.4072930500000000 Se
   0.3364603400000000    0.6579956800000000    0.4060009400000000 Se
   0.3359405900000000    0.9097764400000000    0.4114652700000000 Se
   0.5115991500000000    0.1607691000000000    0.4075899700000000 Se
   0.5129478200000001    0.4102352000000000    0.4079619700000000 Se
   0.5121645800000000    0.6604628000000000    0.4076096000000000 Se
   0.5109776800000000    0.9104275400000000    0.4076945000000000 Se
   0.6851396199999999    0.1579347200000000    0.4028917500000000 Se
   0.6859099000000000    0.4129416000000000    0.4030515700000000 Se
   0.6855263400000000    0.6582628400000000    0.4028010600000000 Se
   0.6847476400000000    0.9131742600000000    0.4026717500000000 Se
   0.7733498300000000    0.9133620800000000    0.4978282300000000 Se
   0.7677649000000000    0.7860750500000000    0.4981433400000000 Se
   0.7739171700000000    0.6585100300000000    0.4980915700000000 Se
   0.7739418600000000    0.5358528299999999    0.4996756800000000 Se
   0.7742113400000000    0.4130251100000000    0.4981422000000000 Se
   0.7682112400000000    0.2850715600000000    0.4986249200000000 Se
   0.7736767400000000    0.1574916500000000    0.4981737200000000 Se
   0.7731180000000000    0.0353823400000000    0.4997248900000000 Se
