W48 Se99                                
   1.00000000000000     
    33.0000000000000000    0.0000000000000000    0.0000000000000000
     0.0000000000000000   26.2560005188000005    0.0000000000000000
     0.0000000000000000    0.0000000000000000   18.1299991608000006
   W    Se   O    C 
    48    99     1     1
Direct
  0.2813822854475276  0.0423432843588927  0.5033046125048770
  0.2856752968136220  0.2768843928505547  0.5037842443171670
  0.2859667222922440  0.5299430328631232  0.4984197991683814
  0.2819988290856941  0.7876848483740133  0.5024151893845072
  0.4544555397793317  0.0358453173434796  0.5010083013935969
  0.4546557730529557  0.2855433791535376  0.4987113624139212
  0.4545495003828250  0.5356976975150047  0.5004748926232381
  0.4544419145804284  0.7858108525108349  0.5020265607572370
  0.6271836646591993  0.0354433401510050  0.5009408947261704
  0.6273219115467299  0.2854711967682064  0.4996766166941953
  0.6272547952086143  0.5355087741716247  0.5008135130290086
  0.6271341688665473  0.7855133193933241  0.5008768643075499
  0.2865500741788338  0.1668697379837809  0.5021339368551168
  0.2857413393906398  0.4193816457580866  0.4922838309222115
  0.2813021286484911  0.6545695822398372  0.5004408524151387
  0.2818493372012796  0.9085434782589346  0.5035971596124611
  0.4548070054844118  0.1606322099967414  0.4994117764377748
  0.4546009697266271  0.4101654744162389  0.4993133406568830
  0.4545759398628064  0.6603129806868964  0.5014332554152290
  0.4543320083492262  0.9102422302210158  0.5018605895726225
  0.6276231592972294  0.1599967713698192  0.4996988728955145
  0.6276509411782811  0.4109312200056792  0.4996517559433826
  0.6275292164412676  0.6600671423062181  0.5004723652455567
  0.6274665126745376  0.9108690933760926  0.5005679508050704
  0.3688328420640374  0.2234296498516244  0.4991170399940970
  0.3677968242962777  0.4721895161700047  0.4989711196045334
  0.3673027428500433  0.7228825703027013  0.5021463257886438
  0.3671465534558465  0.9732984611833260  0.5026715787979441
  0.5417475573579438  0.2228279021080652  0.4992989456542247
  0.5406518156201869  0.4730374976550280  0.4999990448824292
  0.5415270704227879  0.7228170413850776  0.5012680045531610
  0.5405535603174343  0.9731003589283702  0.5008696242117807
  0.7152837134511927  0.2138876893514734  0.4997797389069447
  0.7140798358407849  0.4760360660866922  0.5007641424058562
  0.7151762893972631  0.7140242623001427  0.5001846758855280
  0.7139226917290387  0.9758380155597521  0.5012407093324072
  0.3689877065546128  0.0987898838346624  0.5016187890375221
  0.3670137208049411  0.3481685582999674  0.4988838121623829
  0.3689553693641017  0.5974263335955285  0.5008106467357649
  0.3686000470858701  0.8480571264541865  0.5026082493729191
  0.5407052176105154  0.0978528455659102  0.5000085621637993
  0.5417053905058751  0.3483295910979294  0.4993407139255908
  0.5406567325569753  0.5979067791642834  0.5007636673985800
  0.5414025190675176  0.8482451845908940  0.5013619422517408
  0.7139957776918777  0.0948935168365210  0.5010632927510130
  0.7153048627345626  0.3568480377012548  0.4996927873552295
  0.7140251372765860  0.5948719623300533  0.5009767613705733
  0.7151431546137275  0.8568855919530876  0.5002138478071103
  0.2544714061473314  0.1044637512222906  0.5942244217899315
  0.2457899757414523  0.3463422995159249  0.5588756125438863
  0.2522880125047564  0.5928227094803660  0.5888485421139578
  0.2520480932082094  0.8478835419238564  0.5948405978666429
  0.4263684026123897  0.0986581565205071  0.5942943590622960
  0.4250339469617614  0.3477638760206645  0.5916656361017232
  0.4258948134046534  0.5977410122781066  0.5947043209404157
  0.4258489557733256  0.8480485064659362  0.5959940780355382
  0.5981109287456334  0.0981617975349494  0.5931703251213563
  0.5992777545704016  0.3480386811056775  0.5929510833056639
  0.5981977183049594  0.5979038803391603  0.5936117579643536
  0.5992806191618953  0.8481088065013864  0.5943846015896810
  0.4264038166222832  0.2234020715231395  0.5924459925495498
  0.4254991552244576  0.4723116124277880  0.5926506145091963
  0.4254156524262029  0.7227835815383230  0.5945797150315144
  0.4254972868781906  0.9733993000438232  0.5944735693106509
  0.5992790208514052  0.2229659202429133  0.5929701760310664
  0.5981582160533847  0.4728016820062280  0.5930501552813467
  0.5993746687779549  0.7228697089378073  0.5943006611618529
  0.5981201134850664  0.9730587728037747  0.5937097010900061
  0.3383539468999288  0.0366368156161840  0.5954470614969622
  0.3390858757638711  0.2839742207780560  0.5963569568470675
  0.3396639640353740  0.5341321614768404  0.5949046223513932
  0.3382960956925558  0.7850688175382672  0.5958048953554993
  0.5120090335328484  0.0357820361775794  0.5940427757749873
  0.5124650696985782  0.2856331168859896  0.5917475983289933
  0.5119421423060686  0.5351883119804697  0.5938534659836350
  0.5125231404778603  0.7854620733777367  0.5944032021587446
  0.6847534828166104  0.0354738357426569  0.5977775648083750
  0.6877204609930061  0.2854086318995712  0.5882212117253118
  0.6849540110815013  0.5353657020272493  0.5975878074437802
  0.6877426447473454  0.7854285358921587  0.5889203579064883
  0.3412905481142090  0.1626780515947104  0.5965906421179312
  0.3366714343970258  0.4100981696925459  0.5934630368505154
  0.3377128617203340  0.6596768916946445  0.5939906836212074
  0.3384540396924223  0.9109191602680866  0.5962329367769570
  0.5123497453788204  0.1609321329663516  0.5926990938808530
  0.5120851177980938  0.4101102079133909  0.5927495605099438
  0.5123095410565099  0.6605342920917536  0.5943338171197610
  0.5121868094000419  0.9105643852463032  0.5944988542073517
  0.6855686292045959  0.1581300041628637  0.5962383007044352
  0.6856520226431115  0.4127253765813705  0.5960372075815954
  0.6856551791569174  0.6580275647976563  0.5965691270039031
  0.6856065444169701  0.9127647660146039  0.5967524363237118
  0.2530520551343827  0.1016403642674959  0.4124453183163510
  0.2542700048861661  0.5951265352535700  0.4073548376774383
  0.2517424416150931  0.8482158365330008  0.4114599485397150
  0.4256724331994448  0.0977267369507899  0.4069573169893843
  0.4253487181333213  0.3478097068338286  0.4060588907007769
  0.4260295469106694  0.5984396420121101  0.4071736557379921
  0.4254508447357850  0.8480020929206091  0.4084482406307757
  0.5982949569294220  0.0975673929342662  0.4071873771908869
  0.5994630055808727  0.3481343753906074  0.4061541620320099
  0.5981699757177452  0.5979473973008425  0.4077026786233446
  0.5988487582052855  0.8480131307256968  0.4075782520042495
  0.2283306696735252  0.2217978774628122  0.4778969076856967
  0.2264543337727432  0.4776806376484899  0.4835697207494576
  0.2299340011121274  0.7215041231980877  0.5032575218194495
  0.2301525021887798  0.9749667955836827  0.5072741055468128
  0.4261181293985317  0.2230608122062776  0.4052580371921337
  0.4261618821713853  0.4732244719892691  0.4067038800924152
  0.4252181581291765  0.7232036605382248  0.4092771746700663
  0.4247731623534179  0.9728754205526897  0.4092403164593748
  0.5994675291127081  0.2228108622881919  0.4061617823772821
  0.5983149632412150  0.4733503394201364  0.4072143232456114
  0.5990101917062987  0.7230269010688275  0.4074952447736280
  0.5980831757514835  0.9730374493688601  0.4078039893192269
  0.3376293340178549  0.0354729295088561  0.4098191090429424
  0.3355885775988696  0.2855657652989763  0.4051162675328825
  0.3404079185941811  0.5356776949169699  0.4043177185446254
  0.3383219789017176  0.7854569107659586  0.4091952126804586
  0.5116424564279782  0.0351698362452026  0.4072112487886201
  0.5127929969326104  0.2855917733179680  0.4063639261397753
  0.5119488351443380  0.5357592518721290  0.4070376050600188
  0.5121139926262046  0.7855325876677668  0.4088147161275089
  0.6859164803337521  0.0352904933243323  0.4054457070724951
  0.6878707140219831  0.2853502990985248  0.4113791418495651
  0.6859187411137810  0.5355566310426880  0.4051179627502179
  0.6874777263781340  0.7854843870674628  0.4120356040638598
  0.3396866116013584  0.1605477610593695  0.4058943023773125
  0.3404807363902194  0.4110847702539857  0.4009513285223036
  0.3383890476006925  0.6608840193004255  0.4084720684630483
  0.3379396360277553  0.9108412366047247  0.4097939922422213
  0.5124374150936006  0.1604471007574659  0.4063502031580057
  0.5123155940144244  0.4104863011749487  0.4063075370499263
  0.5120811924493225  0.6608893984205224  0.4079539787862103
  0.5117560335198732  0.9102838397160085  0.4081694328487515
  0.6854045723210334  0.1579020654566037  0.4033907285152836
  0.6854570250501340  0.4129132841793677  0.4033160464889178
  0.6851866831726170  0.6581510617081534  0.4038426979001812
  0.6850623956866997  0.9127477522630087  0.4039162094053310
  0.7737493788854692  0.9133129458635665  0.4912993572372315
  0.7680997272719452  0.7854066472520884  0.5027532703355604
  0.7737832421621818  0.6575405627755799  0.4921297294735112
  0.7730027051940311  0.5354827088737082  0.5140133913290157
  0.7738824394831667  0.4133790927400014  0.4920924266795694
  0.7682072692506736  0.2853709796330861  0.5027097495694264
  0.7738657769247723  0.1573517780070617  0.4915599616872655
  0.7727898780374716  0.0353069770660497  0.5157986503944159
  0.2354490848295399  0.3630942915945639  0.3661700062838804
  0.2529378285884647  0.3822397689678638  0.4145221461734963
 
  0.00000000E+00  0.00000000E+00  0.00000000E+00
  0.00000000E+00  0.00000000E+00  0.00000000E+00
  0.00000000E+00  0.00000000E+00  0.00000000E+00
  0.00000000E+00  0.00000000E+00  0.00000000E+00
  0.00000000E+00  0.00000000E+00  0.00000000E+00
  0.00000000E+00  0.00000000E+00  0.00000000E+00
  0.00000000E+00  0.00000000E+00  0.00000000E+00
  0.00000000E+00  0.00000000E+00  0.00000000E+00
  0.00000000E+00  0.00000000E+00  0.00000000E+00
  0.00000000E+00  0.00000000E+00  0.00000000E+00
  0.00000000E+00  0.00000000E+00  0.00000000E+00
  0.00000000E+00  0.00000000E+00  0.00000000E+00
  0.00000000E+00  0.00000000E+00  0.00000000E+00
  0.00000000E+00  0.00000000E+00  0.00000000E+00
  0.00000000E+00  0.00000000E+00  0.00000000E+00
  0.00000000E+00  0.00000000E+00  0.00000000E+00
  0.00000000E+00  0.00000000E+00  0.00000000E+00
  0.00000000E+00  0.00000000E+00  0.00000000E+00
  0.00000000E+00  0.00000000E+00  0.00000000E+00
  0.00000000E+00  0.00000000E+00  0.00000000E+00
  0.00000000E+00  0.00000000E+00  0.00000000E+00
  0.00000000E+00  0.00000000E+00  0.00000000E+00
  0.00000000E+00  0.00000000E+00  0.00000000E+00
  0.00000000E+00  0.00000000E+00  0.00000000E+00
  0.00000000E+00  0.00000000E+00  0.00000000E+00
  0.00000000E+00  0.00000000E+00  0.00000000E+00
  0.00000000E+00  0.00000000E+00  0.00000000E+00
  0.00000000E+00  0.00000000E+00  0.00000000E+00
  0.00000000E+00  0.00000000E+00  0.00000000E+00
  0.00000000E+00  0.00000000E+00  0.00000000E+00
  0.00000000E+00  0.00000000E+00  0.00000000E+00
  0.00000000E+00  0.00000000E+00  0.00000000E+00
  0.00000000E+00  0.00000000E+00  0.00000000E+00
  0.00000000E+00  0.00000000E+00  0.00000000E+00
  0.00000000E+00  0.00000000E+00  0.00000000E+00
  0.00000000E+00  0.00000000E+00  0.00000000E+00
  0.00000000E+00  0.00000000E+00  0.00000000E+00
  0.00000000E+00  0.00000000E+00  0.00000000E+00
  0.00000000E+00  0.00000000E+00  0.00000000E+00
  0.00000000E+00  0.00000000E+00  0.00000000E+00
  0.00000000E+00  0.00000000E+00  0.00000000E+00
  0.00000000E+00  0.00000000E+00  0.00000000E+00
  0.00000000E+00  0.00000000E+00  0.00000000E+00
  0.00000000E+00  0.00000000E+00  0.00000000E+00
  0.00000000E+00  0.00000000E+00  0.00000000E+00
  0.00000000E+00  0.00000000E+00  0.00000000E+00
  0.00000000E+00  0.00000000E+00  0.00000000E+00
  0.00000000E+00  0.00000000E+00  0.00000000E+00
  0.00000000E+00  0.00000000E+00  0.00000000E+00
  0.00000000E+00  0.00000000E+00  0.00000000E+00
  0.00000000E+00  0.00000000E+00  0.00000000E+00
  0.00000000E+00  0.00000000E+00  0.00000000E+00
  0.00000000E+00  0.00000000E+00  0.00000000E+00
  0.00000000E+00  0.00000000E+00  0.00000000E+00
  0.00000000E+00  0.00000000E+00  0.00000000E+00
  0.00000000E+00  0.00000000E+00  0.00000000E+00
  0.00000000E+00  0.00000000E+00  0.00000000E+00
  0.00000000E+00  0.00000000E+00  0.00000000E+00
  0.00000000E+00  0.00000000E+00  0.00000000E+00
  0.00000000E+00  0.00000000E+00  0.00000000E+00
  0.00000000E+00  0.00000000E+00  0.00000000E+00
  0.00000000E+00  0.00000000E+00  0.00000000E+00
  0.00000000E+00  0.00000000E+00  0.00000000E+00
  0.00000000E+00  0.00000000E+00  0.00000000E+00
  0.00000000E+00  0.00000000E+00  0.00000000E+00
  0.00000000E+00  0.00000000E+00  0.00000000E+00
  0.00000000E+00  0.00000000E+00  0.00000000E+00
  0.00000000E+00  0.00000000E+00  0.00000000E+00
  0.00000000E+00  0.00000000E+00  0.00000000E+00
  0.00000000E+00  0.00000000E+00  0.00000000E+00
  0.00000000E+00  0.00000000E+00  0.00000000E+00
  0.00000000E+00  0.00000000E+00  0.00000000E+00
  0.00000000E+00  0.00000000E+00  0.00000000E+00
  0.00000000E+00  0.00000000E+00  0.00000000E+00
  0.00000000E+00  0.00000000E+00  0.00000000E+00
  0.00000000E+00  0.00000000E+00  0.00000000E+00
  0.00000000E+00  0.00000000E+00  0.00000000E+00
  0.00000000E+00  0.00000000E+00  0.00000000E+00
  0.00000000E+00  0.00000000E+00  0.00000000E+00
  0.00000000E+00  0.00000000E+00  0.00000000E+00
  0.00000000E+00  0.00000000E+00  0.00000000E+00
  0.00000000E+00  0.00000000E+00  0.00000000E+00
  0.00000000E+00  0.00000000E+00  0.00000000E+00
  0.00000000E+00  0.00000000E+00  0.00000000E+00
  0.00000000E+00  0.00000000E+00  0.00000000E+00
  0.00000000E+00  0.00000000E+00  0.00000000E+00
  0.00000000E+00  0.00000000E+00  0.00000000E+00
  0.00000000E+00  0.00000000E+00  0.00000000E+00
  0.00000000E+00  0.00000000E+00  0.00000000E+00
  0.00000000E+00  0.00000000E+00  0.00000000E+00
  0.00000000E+00  0.00000000E+00  0.00000000E+00
  0.00000000E+00  0.00000000E+00  0.00000000E+00
  0.00000000E+00  0.00000000E+00  0.00000000E+00
  0.00000000E+00  0.00000000E+00  0.00000000E+00
  0.00000000E+00  0.00000000E+00  0.00000000E+00
  0.00000000E+00  0.00000000E+00  0.00000000E+00
  0.00000000E+00  0.00000000E+00  0.00000000E+00
  0.00000000E+00  0.00000000E+00  0.00000000E+00
  0.00000000E+00  0.00000000E+00  0.00000000E+00
  0.00000000E+00  0.00000000E+00  0.00000000E+00
  0.00000000E+00  0.00000000E+00  0.00000000E+00
  0.00000000E+00  0.00000000E+00  0.00000000E+00
  0.00000000E+00  0.00000000E+00  0.00000000E+00
  0.00000000E+00  0.00000000E+00  0.00000000E+00
  0.00000000E+00  0.00000000E+00  0.00000000E+00
  0.00000000E+00  0.00000000E+00  0.00000000E+00
  0.00000000E+00  0.00000000E+00  0.00000000E+00
  0.00000000E+00  0.00000000E+00  0.00000000E+00
  0.00000000E+00  0.00000000E+00  0.00000000E+00
  0.00000000E+00  0.00000000E+00  0.00000000E+00
  0.00000000E+00  0.00000000E+00  0.00000000E+00
  0.00000000E+00  0.00000000E+00  0.00000000E+00
  0.00000000E+00  0.00000000E+00  0.00000000E+00
  0.00000000E+00  0.00000000E+00  0.00000000E+00
  0.00000000E+00  0.00000000E+00  0.00000000E+00
  0.00000000E+00  0.00000000E+00  0.00000000E+00
  0.00000000E+00  0.00000000E+00  0.00000000E+00
  0.00000000E+00  0.00000000E+00  0.00000000E+00
  0.00000000E+00  0.00000000E+00  0.00000000E+00
  0.00000000E+00  0.00000000E+00  0.00000000E+00
  0.00000000E+00  0.00000000E+00  0.00000000E+00
  0.00000000E+00  0.00000000E+00  0.00000000E+00
  0.00000000E+00  0.00000000E+00  0.00000000E+00
  0.00000000E+00  0.00000000E+00  0.00000000E+00
  0.00000000E+00  0.00000000E+00  0.00000000E+00
  0.00000000E+00  0.00000000E+00  0.00000000E+00
  0.00000000E+00  0.00000000E+00  0.00000000E+00
  0.00000000E+00  0.00000000E+00  0.00000000E+00
  0.00000000E+00  0.00000000E+00  0.00000000E+00
  0.00000000E+00  0.00000000E+00  0.00000000E+00
  0.00000000E+00  0.00000000E+00  0.00000000E+00
  0.00000000E+00  0.00000000E+00  0.00000000E+00
  0.00000000E+00  0.00000000E+00  0.00000000E+00
  0.00000000E+00  0.00000000E+00  0.00000000E+00
  0.00000000E+00  0.00000000E+00  0.00000000E+00
  0.00000000E+00  0.00000000E+00  0.00000000E+00
  0.00000000E+00  0.00000000E+00  0.00000000E+00
  0.00000000E+00  0.00000000E+00  0.00000000E+00
  0.00000000E+00  0.00000000E+00  0.00000000E+00
  0.00000000E+00  0.00000000E+00  0.00000000E+00
  0.00000000E+00  0.00000000E+00  0.00000000E+00
  0.00000000E+00  0.00000000E+00  0.00000000E+00
  0.00000000E+00  0.00000000E+00  0.00000000E+00
  0.00000000E+00  0.00000000E+00  0.00000000E+00
  0.00000000E+00  0.00000000E+00  0.00000000E+00
  0.00000000E+00  0.00000000E+00  0.00000000E+00
  0.00000000E+00  0.00000000E+00  0.00000000E+00
  0.00000000E+00  0.00000000E+00  0.00000000E+00
  0.00000000E+00  0.00000000E+00  0.00000000E+00
