H4 W48 C1 S98 O1                        
   1.00000000000000     
    33.0000000000000000    0.0000000000000000    0.0000000000000000
     0.0000000000000000   25.2255992900000017    0.0000000000000000
     0.0000000000000000    0.0000000000000000   17.4929999999999986
   W    S    O    C    H 
    48    98     1     1     4
Direct
  0.2880112682696080  0.0416252850055602  0.4895256053621685
  0.2932049620210655  0.2858133160816083  0.4962185846010992
  0.2920562032948957  0.5340747904475479  0.5100650381023191
  0.2919016208406158  0.7830211935847193  0.4921414829187862
  0.4549671273644657  0.0364204828292590  0.4977155358486088
  0.4556617527069785  0.2864238399966100  0.4984899343918464
  0.4551252667765697  0.5361519421234163  0.5002326920290161
  0.4555677310638030  0.7861960814627119  0.4977054659464782
  0.6216300130335781  0.0365933672372455  0.5013125391987904
  0.6218894695263955  0.2862126012665546  0.5014351730311113
  0.6217518664910665  0.5358184110271211  0.5016904235301302
  0.6218255587781877  0.7862302234995395  0.5013216240829644
  0.2915744611662192  0.1648832846188693  0.4905966619995895
  0.2940671438449986  0.4114885448849935  0.4965816791738532
  0.2929828741400696  0.6646682232318327  0.4976576638170674
  0.2881172998953935  0.9062667144777666  0.4895650267146240
  0.4554223155646205  0.1613209677333957  0.4973047070603658
  0.4553486635021531  0.4111855071343787  0.4997263782168684
  0.4552419306786133  0.6608211886334051  0.4990410823686096
  0.4550715389233444  0.9111760924398443  0.4978452501394587
  0.6217165846824781  0.1610145231579083  0.5012747087035422
  0.6217926478863796  0.4113915759659719  0.5016417402403237
  0.6218557140825204  0.6609616048009814  0.5015145239017249
  0.6217698339494884  0.9114807265433975  0.5013273786613954
  0.3723618790723438  0.2248297153565373  0.4946512534509209
  0.3719957051993082  0.4736724592115647  0.4996366751862277
  0.3725069059899517  0.7228559488860762  0.4956505585409922
  0.3706854029669535  0.9738861736691469  0.4957220063112873
  0.5389977320894230  0.2236634561079415  0.4996256366559204
  0.5383576787005759  0.4736637384362464  0.5006076893388030
  0.5387811849306696  0.7235833102057865  0.4998096227822285
  0.5387039677609352  0.9739190219379620  0.4996133720874847
  0.7068271912113553  0.2168205900239851  0.5030443350014433
  0.7063010007478724  0.4732357392713963  0.5029982636807590
  0.7063937562446592  0.7300602163931083  0.5029820161553082
  0.7069445364613869  0.9802772631622800  0.5031096731599374
  0.3724693640337528  0.0995148060703257  0.4952348533690155
  0.3724724631428766  0.3486122164462542  0.4996203685356028
  0.3711290661806397  0.5981167503519129  0.5021601863980308
  0.3726404994947112  0.8481995776257323  0.4957861052705470
  0.5382552612574214  0.0987560787421860  0.4994733065169613
  0.5390239673594402  0.3488178239617975  0.5002414435316467
  0.5388784582015710  0.5984327999788189  0.5004791211225088
  0.5387041108222292  0.8488144736468716  0.4995863200787429
  0.7061933336102136  0.0991800428270942  0.5030709574535484
  0.7068831054171005  0.3555330424997138  0.5030346059913453
  0.7070424209268873  0.5921909594431292  0.5029886549521004
  0.7063609533265149  0.8424498717248530  0.5030307494046045
  0.2613619494504859  0.1042254147913960  0.5776467832731366
  0.2506499647694338  0.3494491274655366  0.5507320239029647
  0.2506062281444407  0.6027386535424532  0.5534288547124656
  0.2616430332868233  0.8438074378443146  0.5784935185980533
  0.4267308348155758  0.0989734364708618  0.5873725698837493
  0.4277303847664087  0.3482546961070282  0.5899411112406772
  0.4273695548857963  0.5989499170652526  0.5905886388614217
  0.4270003564594467  0.8487081825939872  0.5877102128158652
  0.5930945495042106  0.0987807812378072  0.5907875259535661
  0.5941616686397032  0.3485589047026016  0.5914612311011566
  0.5941397188031300  0.5986771538003206  0.5915644500074825
  0.5937226869112452  0.8490226728384074  0.5908799591224784
  0.4270577980319505  0.2235666650809675  0.5869753088382461
  0.4274888701208774  0.4733930189575860  0.5902261909482690
  0.4272633648678558  0.7239686623919225  0.5876713223956734
  0.4259311735522777  0.9738280835668665  0.5868383488359474
  0.5940102452858311  0.2237176320403048  0.5911132692285951
  0.5934364933650503  0.4736152202330469  0.5914057427501586
  0.5938350526930611  0.7235102094237519  0.5910089652607118
  0.5938034727033975  0.9738156137417857  0.5910641506911087
  0.3410301876623879  0.0371088750018928  0.5833368611033484
  0.3431192737018841  0.2845748668043214  0.5895703458948282
  0.3449488778175781  0.5345789382764318  0.5967052048955916
  0.3445218782290436  0.7846598951370518  0.5858347826743950
  0.5099413546924380  0.0361799799959583  0.5891627055732767
  0.5107589064725132  0.2860298251654195  0.5895279442101525
  0.5105542422096947  0.5362895811296777  0.5906638196874900
  0.5104714725798513  0.7862877803365790  0.5892458316541691
  0.6771134816542697  0.0375797288381235  0.5949081077872450
  0.6790149125056005  0.2861778412745025  0.5893096209066214
  0.6773914626920020  0.5348614336749472  0.5949813953511274
  0.6764155859525107  0.7862417038532505  0.5964967402628915
  0.3439726024108974  0.1632264925125006  0.5845881239324724
  0.3435429442997210  0.4115370082525119  0.5913998678562854
  0.3429811300490272  0.6636038898011608  0.5912299236507237
  0.3410974434149766  0.9107851669838852  0.5835765788854325
  0.5101845987398643  0.1613232591223537  0.5890739840803205
  0.5106270849509894  0.4109332447790685  0.5904192022754681
  0.5105603284426605  0.6611893191036677  0.5897658936313657
  0.5101498957106108  0.9113975295621080  0.5890692978807482
  0.6770771975899454  0.1601195061489021  0.5952197478269439
  0.6772948893924234  0.4122787839399011  0.5953126835531538
  0.6789875405385206  0.6608039232095060  0.5895230698092174
  0.6788134770539477  0.9116720472202146  0.5895182746329827
  0.2635176055197826  0.1009089509374531  0.3999974718297030
  0.2634384842333093  0.8471651688806111  0.4008175852614507
  0.4282817610401532  0.0988436068761493  0.4061469291037101
  0.4279109379850204  0.3491122072756374  0.4088385610782428
  0.4264521468946024  0.5978993495058467  0.4103523390971852
  0.4283916735549285  0.8486170372536980  0.4065098944099557
  0.5941979989759408  0.0987545755844917  0.4105841152131241
  0.5949677884619978  0.3487357819277208  0.4107629006908422
  0.5948378939763418  0.5985266107878916  0.4109033097141138
  0.5947784005410363  0.8490121039820927  0.4106126198308788
  0.2457250842283820  0.2282916433895704  0.4470746645757855
  0.2511204790128426  0.4731700832636060  0.4430007600796187
  0.2447627463479328  0.7211175763582687  0.4491829507786338
  0.2404299126726782  0.9739949199946585  0.4844907887720646
  0.4286698361701137  0.2244980277559908  0.4063315009836507
  0.4273861147250941  0.4740422983960480  0.4093561934547953
  0.4285650796112648  0.7228663309561253  0.4069570518958145
  0.4273647086785257  0.9737321043353400  0.4074572040132811
  0.5950568772652156  0.2238592687825476  0.4104349283634453
  0.5940882546355998  0.4736660331929521  0.4112010760161666
  0.5947907889687024  0.7233430700887280  0.4107380544659483
  0.5948615660800581  0.9738019465232715  0.4104631061216952
  0.3441891587442309  0.0363668764838780  0.4042667039672173
  0.3435197391281513  0.2888496248617839  0.4041658494451692
  0.3400852210670726  0.5369201424205711  0.4119236710937059
  0.3455974240557924  0.7853144663949733  0.4034712514492992
  0.5110843437613258  0.0360922606484432  0.4087471534512649
  0.5116475570069474  0.2864956056936493  0.4093536932486825
  0.5108059467790269  0.5361960319035962  0.4102196555853362
  0.5116380692627585  0.7860792013291510  0.4087949660004921
  0.6782108060259980  0.0375690176818403  0.4100644529732421
  0.6799317623290614  0.2862133381748546  0.4157325155198842
  0.6781748883593179  0.5348420222906614  0.4101223775159263
  0.6774615500582619  0.7862486996285833  0.4083314526238797
  0.3456255760331205  0.1623529693216115  0.4025813514192547
  0.3450308899982802  0.4107052712713568  0.4060308722148038
  0.3431235833454608  0.6583434160399017  0.4058628384194002
  0.3443604819222051  0.9112245010620148  0.4045553598267951
  0.5115019754020378  0.1614637851644538  0.4085032114666492
  0.5110609270584056  0.4112586290599131  0.4099234894453959
  0.5111985478164596  0.6606691728457793  0.4097371106239061
  0.5112426308171332  0.9113957952272512  0.4089944093379439
  0.6781795496458547  0.1601082680260346  0.4096692379260659
  0.6781446596247853  0.4122988339455990  0.4097860664366366
  0.6798240306581397  0.6607697104107293  0.4155189584492426
  0.6798299925661521  0.9116944448840023  0.4155249050453527
  0.7574956868928899  0.9122140677405814  0.5041904546441077
  0.7631495729480702  0.7862464573238609  0.5041159880231215
  0.7575661287480119  0.6602597210638675  0.5038428397702370
  0.7622070047676415  0.5343010497210332  0.5037485552557928
  0.7624193726623073  0.4120391785448537  0.5039783535686007
  0.7573626375107509  0.2861799095538653  0.5040261207528118
  0.7623432731940323  0.1603569436698135  0.5042783114846023
  0.7621110255797349  0.0381395832890209  0.5042940420655214
  0.2548530386691460  0.4979791613183974  0.6236067688667216
  0.2113217485438217  0.4902369718862370  0.6281374505568317
  0.2037697617331582  0.4704847889142493  0.6821972191674278
  0.1976474751583221  0.5297390457174247  0.6267828854052920
  0.2681380789795592  0.4634354215807455  0.6294409855561276
  0.2003429846598458  0.4666750983430099  0.5794124523214265
 
  0.00000000E+00  0.00000000E+00  0.00000000E+00
  0.00000000E+00  0.00000000E+00  0.00000000E+00
  0.00000000E+00  0.00000000E+00  0.00000000E+00
  0.00000000E+00  0.00000000E+00  0.00000000E+00
  0.00000000E+00  0.00000000E+00  0.00000000E+00
  0.00000000E+00  0.00000000E+00  0.00000000E+00
  0.00000000E+00  0.00000000E+00  0.00000000E+00
  0.00000000E+00  0.00000000E+00  0.00000000E+00
  0.00000000E+00  0.00000000E+00  0.00000000E+00
  0.00000000E+00  0.00000000E+00  0.00000000E+00
  0.00000000E+00  0.00000000E+00  0.00000000E+00
  0.00000000E+00  0.00000000E+00  0.00000000E+00
  0.00000000E+00  0.00000000E+00  0.00000000E+00
  0.00000000E+00  0.00000000E+00  0.00000000E+00
  0.00000000E+00  0.00000000E+00  0.00000000E+00
  0.00000000E+00  0.00000000E+00  0.00000000E+00
  0.00000000E+00  0.00000000E+00  0.00000000E+00
  0.00000000E+00  0.00000000E+00  0.00000000E+00
  0.00000000E+00  0.00000000E+00  0.00000000E+00
  0.00000000E+00  0.00000000E+00  0.00000000E+00
  0.00000000E+00  0.00000000E+00  0.00000000E+00
  0.00000000E+00  0.00000000E+00  0.00000000E+00
  0.00000000E+00  0.00000000E+00  0.00000000E+00
  0.00000000E+00  0.00000000E+00  0.00000000E+00
  0.00000000E+00  0.00000000E+00  0.00000000E+00
  0.00000000E+00  0.00000000E+00  0.00000000E+00
  0.00000000E+00  0.00000000E+00  0.00000000E+00
  0.00000000E+00  0.00000000E+00  0.00000000E+00
  0.00000000E+00  0.00000000E+00  0.00000000E+00
  0.00000000E+00  0.00000000E+00  0.00000000E+00
  0.00000000E+00  0.00000000E+00  0.00000000E+00
  0.00000000E+00  0.00000000E+00  0.00000000E+00
  0.00000000E+00  0.00000000E+00  0.00000000E+00
  0.00000000E+00  0.00000000E+00  0.00000000E+00
  0.00000000E+00  0.00000000E+00  0.00000000E+00
  0.00000000E+00  0.00000000E+00  0.00000000E+00
  0.00000000E+00  0.00000000E+00  0.00000000E+00
  0.00000000E+00  0.00000000E+00  0.00000000E+00
  0.00000000E+00  0.00000000E+00  0.00000000E+00
  0.00000000E+00  0.00000000E+00  0.00000000E+00
  0.00000000E+00  0.00000000E+00  0.00000000E+00
  0.00000000E+00  0.00000000E+00  0.00000000E+00
  0.00000000E+00  0.00000000E+00  0.00000000E+00
  0.00000000E+00  0.00000000E+00  0.00000000E+00
  0.00000000E+00  0.00000000E+00  0.00000000E+00
  0.00000000E+00  0.00000000E+00  0.00000000E+00
  0.00000000E+00  0.00000000E+00  0.00000000E+00
  0.00000000E+00  0.00000000E+00  0.00000000E+00
  0.00000000E+00  0.00000000E+00  0.00000000E+00
  0.00000000E+00  0.00000000E+00  0.00000000E+00
  0.00000000E+00  0.00000000E+00  0.00000000E+00
  0.00000000E+00  0.00000000E+00  0.00000000E+00
  0.00000000E+00  0.00000000E+00  0.00000000E+00
  0.00000000E+00  0.00000000E+00  0.00000000E+00
  0.00000000E+00  0.00000000E+00  0.00000000E+00
  0.00000000E+00  0.00000000E+00  0.00000000E+00
  0.00000000E+00  0.00000000E+00  0.00000000E+00
  0.00000000E+00  0.00000000E+00  0.00000000E+00
  0.00000000E+00  0.00000000E+00  0.00000000E+00
  0.00000000E+00  0.00000000E+00  0.00000000E+00
  0.00000000E+00  0.00000000E+00  0.00000000E+00
  0.00000000E+00  0.00000000E+00  0.00000000E+00
  0.00000000E+00  0.00000000E+00  0.00000000E+00
  0.00000000E+00  0.00000000E+00  0.00000000E+00
  0.00000000E+00  0.00000000E+00  0.00000000E+00
  0.00000000E+00  0.00000000E+00  0.00000000E+00
  0.00000000E+00  0.00000000E+00  0.00000000E+00
  0.00000000E+00  0.00000000E+00  0.00000000E+00
  0.00000000E+00  0.00000000E+00  0.00000000E+00
  0.00000000E+00  0.00000000E+00  0.00000000E+00
  0.00000000E+00  0.00000000E+00  0.00000000E+00
  0.00000000E+00  0.00000000E+00  0.00000000E+00
  0.00000000E+00  0.00000000E+00  0.00000000E+00
  0.00000000E+00  0.00000000E+00  0.00000000E+00
  0.00000000E+00  0.00000000E+00  0.00000000E+00
  0.00000000E+00  0.00000000E+00  0.00000000E+00
  0.00000000E+00  0.00000000E+00  0.00000000E+00
  0.00000000E+00  0.00000000E+00  0.00000000E+00
  0.00000000E+00  0.00000000E+00  0.00000000E+00
  0.00000000E+00  0.00000000E+00  0.00000000E+00
  0.00000000E+00  0.00000000E+00  0.00000000E+00
  0.00000000E+00  0.00000000E+00  0.00000000E+00
  0.00000000E+00  0.00000000E+00  0.00000000E+00
  0.00000000E+00  0.00000000E+00  0.00000000E+00
  0.00000000E+00  0.00000000E+00  0.00000000E+00
  0.00000000E+00  0.00000000E+00  0.00000000E+00
  0.00000000E+00  0.00000000E+00  0.00000000E+00
  0.00000000E+00  0.00000000E+00  0.00000000E+00
  0.00000000E+00  0.00000000E+00  0.00000000E+00
  0.00000000E+00  0.00000000E+00  0.00000000E+00
  0.00000000E+00  0.00000000E+00  0.00000000E+00
  0.00000000E+00  0.00000000E+00  0.00000000E+00
  0.00000000E+00  0.00000000E+00  0.00000000E+00
  0.00000000E+00  0.00000000E+00  0.00000000E+00
  0.00000000E+00  0.00000000E+00  0.00000000E+00
  0.00000000E+00  0.00000000E+00  0.00000000E+00
  0.00000000E+00  0.00000000E+00  0.00000000E+00
  0.00000000E+00  0.00000000E+00  0.00000000E+00
  0.00000000E+00  0.00000000E+00  0.00000000E+00
  0.00000000E+00  0.00000000E+00  0.00000000E+00
  0.00000000E+00  0.00000000E+00  0.00000000E+00
  0.00000000E+00  0.00000000E+00  0.00000000E+00
  0.00000000E+00  0.00000000E+00  0.00000000E+00
  0.00000000E+00  0.00000000E+00  0.00000000E+00
  0.00000000E+00  0.00000000E+00  0.00000000E+00
  0.00000000E+00  0.00000000E+00  0.00000000E+00
  0.00000000E+00  0.00000000E+00  0.00000000E+00
  0.00000000E+00  0.00000000E+00  0.00000000E+00
  0.00000000E+00  0.00000000E+00  0.00000000E+00
  0.00000000E+00  0.00000000E+00  0.00000000E+00
  0.00000000E+00  0.00000000E+00  0.00000000E+00
  0.00000000E+00  0.00000000E+00  0.00000000E+00
  0.00000000E+00  0.00000000E+00  0.00000000E+00
  0.00000000E+00  0.00000000E+00  0.00000000E+00
  0.00000000E+00  0.00000000E+00  0.00000000E+00
  0.00000000E+00  0.00000000E+00  0.00000000E+00
  0.00000000E+00  0.00000000E+00  0.00000000E+00
  0.00000000E+00  0.00000000E+00  0.00000000E+00
  0.00000000E+00  0.00000000E+00  0.00000000E+00
  0.00000000E+00  0.00000000E+00  0.00000000E+00
  0.00000000E+00  0.00000000E+00  0.00000000E+00
  0.00000000E+00  0.00000000E+00  0.00000000E+00
  0.00000000E+00  0.00000000E+00  0.00000000E+00
  0.00000000E+00  0.00000000E+00  0.00000000E+00
  0.00000000E+00  0.00000000E+00  0.00000000E+00
  0.00000000E+00  0.00000000E+00  0.00000000E+00
  0.00000000E+00  0.00000000E+00  0.00000000E+00
  0.00000000E+00  0.00000000E+00  0.00000000E+00
  0.00000000E+00  0.00000000E+00  0.00000000E+00
  0.00000000E+00  0.00000000E+00  0.00000000E+00
  0.00000000E+00  0.00000000E+00  0.00000000E+00
  0.00000000E+00  0.00000000E+00  0.00000000E+00
  0.00000000E+00  0.00000000E+00  0.00000000E+00
  0.00000000E+00  0.00000000E+00  0.00000000E+00
  0.00000000E+00  0.00000000E+00  0.00000000E+00
  0.00000000E+00  0.00000000E+00  0.00000000E+00
  0.00000000E+00  0.00000000E+00  0.00000000E+00
  0.00000000E+00  0.00000000E+00  0.00000000E+00
  0.00000000E+00  0.00000000E+00  0.00000000E+00
  0.00000000E+00  0.00000000E+00  0.00000000E+00
  0.00000000E+00  0.00000000E+00  0.00000000E+00
  0.00000000E+00  0.00000000E+00  0.00000000E+00
  0.00000000E+00  0.00000000E+00  0.00000000E+00
  0.00000000E+00  0.00000000E+00  0.00000000E+00
  0.00000000E+00  0.00000000E+00  0.00000000E+00
  0.00000000E+00  0.00000000E+00  0.00000000E+00
  0.00000000E+00  0.00000000E+00  0.00000000E+00
  0.00000000E+00  0.00000000E+00  0.00000000E+00
  0.00000000E+00  0.00000000E+00  0.00000000E+00
  0.00000000E+00  0.00000000E+00  0.00000000E+00
  0.00000000E+00  0.00000000E+00  0.00000000E+00
  0.00000000E+00  0.00000000E+00  0.00000000E+00
