H4 W48 C1 S98 O1
1.0
  33.0000000000000000    0.0000000000000000    0.0000000000000000
   0.0000000000000000   25.2255992900000017    0.0000000000000000
   0.0000000000000000    0.0000000000000000   17.4929999999999986
W S O C H
48 98 1 1 4
direct
   0.2882658100000000    0.0412135600000000    0.5008162500000000 W
   0.2937155300000000    0.2848858800000000    0.5075305700000000 W
   0.2946859400000000    0.5327029900000000    0.5079501500000000 W
   0.2922792900000000    0.7811717600000000    0.5026895000000000 W
   0.4552589700000000    0.0356717100000000    0.5017946100000000 W
   0.4561996500000000    0.2858641900000000    0.5020412000000000 W
   0.4563767200000000    0.5353998100000000    0.5025741200000000 W
   0.4561881500000000    0.7853614400000000    0.5013383200000000 W
   0.6220245599999999    0.0358345200000000    0.4993281000000000 W
   0.6225706700000000    0.2853617400000000    0.4994285500000000 W
   0.6227459400000001    0.5350406100000000    0.4995615300000000 W
   0.6225171300000000    0.7855732400000000    0.4992845700000000 W
   0.2920127800000000    0.1647959500000000    0.5027663200000000 W
   0.2945806900000000    0.4134861100000000    0.5079160100000000 W
   0.2939829700000000    0.6611319400000000    0.5075220600000000 W
   0.2884054700000000    0.9046613600000000    0.5008656800000000 W
   0.4558312700000000    0.1607002600000000    0.5012990800000000 W
   0.4563015300000000    0.4104571100000000    0.5025634900000000 W
   0.4564050600000000    0.6600357600000000    0.5020643500000000 W
   0.4554157800000000    0.9103460700000000    0.5018292700000000 W
   0.6221847800000000    0.1602164100000000    0.4992798500000000 W
   0.6226879700000000    0.4105490700000000    0.4995643900000000 W
   0.6227714100000000    0.6602752700000000    0.4993954400000000 W
   0.6222552300000000    0.9107788400000000    0.4993276400000000 W
   0.3729046800000000    0.2244354200000000    0.5022172800000000 W
   0.3733221000000000    0.4729812400000000    0.5035777100000000 W
   0.3731651400000000    0.7215946800000000    0.5022270300000000 W
   0.3709160700000000    0.9729941100000000    0.5034503900000000 W
   0.5395130600000000    0.2229443000000000    0.5003545700000001 W
   0.5394030300000000    0.4728546100000000    0.5009352100000000 W
   0.5396342700000000    0.7229003500000000    0.5003645000000000 W
   0.5390764300000001    0.9731786600000000    0.5004023500000000 W
   0.7074165100000001    0.2159188000000000    0.4984423900000000 W
   0.7072371500000000    0.4723907700000000    0.4983316200000000 W
   0.7071954000000000    0.7294471000000000    0.4983938100000000 W
   0.7073904100000000    0.9795711800000000    0.4986331400000000 W
   0.3727672100000000    0.0988747200000000    0.5030280100000000 W
   0.3728531700000000    0.3486585300000000    0.5061826699999999 W
   0.3730157800000000    0.5973253600000000    0.5062121700000000 W
   0.3730061300000000    0.8471220100000000    0.5030559999999999 W
   0.5386279300000000    0.0980204100000000    0.5002990600000000 W
   0.5398207900000001    0.3480371300000000    0.5008186200000000 W
   0.5399708200000000    0.5977099400000000    0.5008085700000000 W
   0.5392352500000001    0.8480775100000000    0.5003107500000000 W
   0.7066472900000000    0.0983567300000000    0.4985921500000000 W
   0.7077006000000000    0.3546233200000000    0.4983398500000000 W
   0.7080040100000000    0.5914426600000000    0.4983418900000000 W
   0.7069964700000000    0.8418235300000000    0.4985005000000000 W
   0.2630038100000000    0.1039727900000000    0.5906045500000000 S
   0.2536779600000000    0.3497398400000000    0.5650420400000000 S
   0.2538143500000000    0.5964235300000000    0.5650732400000000 S
   0.2631848100000000    0.8419246800000000    0.5905990900000000 S
   0.4281951900000000    0.0983281500000000    0.5925977300000000 S
   0.4292203300000000    0.3480302700000000    0.5940408800000000 S
   0.4293877100000000    0.5978967100000000    0.5940687300000000 S
   0.4284581700000000    0.8476578100000000    0.5926338500000000 S
   0.5943369500000000    0.0980237500000000    0.5896951900000000 S
   0.5957647900000000    0.3477864500000000    0.5902910700000000 S
   0.5959317000000000    0.5979217999999999    0.5902704900000000 S
   0.5951020400000000    0.8482812300000000    0.5897542000000000 S
   0.4286936700000000    0.2231891600000000    0.5920035700000000 S
   0.4292286600000000    0.4729470500000000    0.5933248400000000 S
   0.4289947700000000    0.7228331200000000    0.5919827000000000 S
   0.4272844600000000    0.9729742000000000    0.5920491600000000 S
   0.5953737900000000    0.2229532800000000    0.5899937800000000 S
   0.5951833399999999    0.4728393500000000    0.5901395900000000 S
   0.5954648299999999    0.7227808200000000    0.5898086100000000 S
   0.5950405300000000    0.9730633900000000    0.5899548400000000 S
   0.3423437400000000    0.0363536100000000    0.5923869700000000 S
   0.3450294800000000    0.2847000700000000    0.5980828400000000 S
   0.3456484800000000    0.5335508900000000    0.5990612900000000 S
   0.3460427000000000    0.7830598700000000    0.5938187400000000 S
   0.5112335600000000    0.0354204400000000    0.5909986100000000 S
   0.5122278100000000    0.2854301900000000    0.5911093800000000 S
   0.5124031800000000    0.5355133399999999    0.5916707000000000 S
   0.5120176200000000    0.7854443300000000    0.5908579500000000 S
   0.6782718599999999    0.0368385500000000    0.5912983500000000 S
   0.6804637100000001    0.2853289600000000    0.5854892200000000 S
   0.6791410900000000    0.5340611600000000    0.5911622900000000 S
   0.6779129000000000    0.7855272400000000    0.5928350500000000 S
   0.3457989000000000    0.1629664700000000    0.5938172000000000 S
   0.3455459500000000    0.4124938300000000    0.5990427699999999 S
   0.3452767100000000    0.6613373000000000    0.5981126100000000 S
   0.3424952400000000    0.9095880300000000    0.5924281400000000 S
   0.5115810600000000    0.1606670600000000    0.5908866500000000 S
   0.5123160800000000    0.4102758400000000    0.5916786500000000 S
   0.5124226600000000    0.6603768200000000    0.5911212200000000 S
   0.5114966600000000    0.9105980100000000    0.5908396299999999 S
   0.6783492600000000    0.1593260200000000    0.5915324300000000 S
   0.6789922600000000    0.4114431300000000    0.5914826900000000 S
   0.6806181000000000    0.6600794200000000    0.5856561300000001 S
   0.6800441900000000    0.9109424100000000    0.5858213799999999 S
   0.2625573200000000    0.1005106900000000    0.4130947300000000 S
   0.2627720200000000    0.8453855200000000    0.4130317600000000 S
   0.4274730600000000    0.0981594300000000    0.4114741400000000 S
   0.4274392700000000    0.3483917300000000    0.4132080400000000 S
   0.4275932500000000    0.5975488000000000    0.4132349300000000 S
   0.4277437300000000    0.8478305400000000    0.4115233300000000 S
   0.5937356200000000    0.0979949400000000    0.4095088600000000 S
   0.5949670900000000    0.3478887400000000    0.4095992800000000 S
   0.5951315200000000    0.5978067900000000    0.4095678400000000 S
   0.5944968700000000    0.8483174600000000    0.4094741800000000 S
   0.2447089000000000    0.2276872000000000    0.4634273900000000 S
   0.2480692900000000    0.4731529000000000    0.4586780900000000 S
   0.2449578700000000    0.7183056500000000    0.4634012200000000 S
   0.2410709300000000    0.9728814099999999    0.4991853700000000 S
   0.4280501400000000    0.2238281000000000    0.4113488900000000 S
   0.4282017400000000    0.4729587700000000    0.4122437700000000 S
   0.4283546700000000    0.7222139500000000    0.4114148900000000 S
   0.4265500800000000    0.9729529900000000    0.4127567000000000 S
   0.5947540400000000    0.2230723500000000    0.4093129800000000 S
   0.5943584800000000    0.4728382100000000    0.4098983400000000 S
   0.5948322200000000    0.7226840400000000    0.4094910000000000 S
   0.5944022300000000    0.9730556299999999    0.4093500400000000 S
   0.3433583200000000    0.0356552700000000    0.4132824300000000 S
   0.3427290100000000    0.2881619700000000    0.4129869800000000 S
   0.3436119700000000    0.5362390400000000    0.4133873300000000 S
   0.3449572300000000    0.7842011900000000    0.4117957400000000 S
   0.5104199600000000    0.0353622300000000    0.4106381100000000 S
   0.5113449700000000    0.2857586400000000    0.4109946800000000 S
   0.5113600600000000    0.5354212100000000    0.4111948300000000 S
   0.5113727400000000    0.7853763300000000    0.4103952200000000 S
   0.6778472600000000    0.0367960800000000    0.4064151100000000 S
   0.6798616300000000    0.2853154200000000    0.4119208300000000 S
   0.6783837800000000    0.5340649500000000    0.4063343800000000 S
   0.6773743700000000    0.7856119700000000    0.4046278500000000 S
   0.3446563600000000    0.1618233500000000    0.4118150800000000 S
   0.3435227300000000    0.4098169800000000    0.4133883500000000 S
   0.3429945900000000    0.6578748500000000    0.4129736200000000 S
   0.3434934500000000    0.9102674600000000    0.4133126100000000 S
   0.5109605200000000    0.1607450300000000    0.4103272900000000 S
   0.5112826600000000    0.4103718000000000    0.4111844200000000 S
   0.5115139000000000    0.6600664800000000    0.4109967500000000 S
   0.5106715300000000    0.9106590600000000    0.4108358800000000 S
   0.6778753800000000    0.1592537100000000    0.4059854700000000 S
   0.6782163900000000    0.4114423200000000    0.4059988600000000 S
   0.6800222500000001    0.6600870599999999    0.4116875700000000 S
   0.6795996700000000    0.9110217400000000    0.4117744200000000 S
   0.7580483400000000    0.9116560500000001    0.4981018400000000 S
   0.7638836600000000    0.7857657500000000    0.4981227800000000 S
   0.7584309000000000    0.6596476300000000    0.4978775700000000 S
   0.7631531700000000    0.5334783500000000    0.4977450200000000 S
   0.7632870600000000    0.4110669000000000    0.4975392500000000 S
   0.7580805400000000    0.2851503800000000    0.4979349700000000 S
   0.7628782500000000    0.1594034800000000    0.4981868400000000 S
   0.7625748600000000    0.0373606600000000    0.4984631600000000 S
   0.2380577993939394    0.4985504289410631    0.5660676261333104 O
   0.1968547372727273    0.5173076566509146    0.5745600088006630 C
   0.1764357072727273    0.4832896022080940    0.5672366068684616 H
   0.1929141745454545    0.5346100531165965    0.6316924835048304 H
   0.2412294090909091    0.4560390408994274    0.5675226264191390 H
   0.1908874669696970    0.5471718458556739    0.5303861564025610 H
