H4 W48 Se99 C1 O1                       
    1.000000000000000     
    33.0000000000000000    0.0000000000000000    0.0000000000000000
     0.0000000000000000   26.2560005200000006    0.0000000000000000
     0.0000000000000000    0.0000000000000000   18.1299999999999990
   W    Se   O    C    H 
    48    99     1     1     4
Direct
  0.2805041126501344  0.0418892568860843  0.4896410414668084
  0.2867844147187015  0.2864109017932552  0.4949241270756821
  0.2796156559029883  0.5411881332853192  0.5078013377789983
  0.2850127865037571  0.7782905050105551  0.4947750380341415
  0.4531987214053976  0.0361148067926840  0.4966892696925715
  0.4538737061834803  0.2862682572816675  0.4989080300867216
  0.4529401677568687  0.5360791228928726  0.5001521646388959
  0.4540438894508149  0.7862632729839648  0.4973134319887297
  0.6264264922843591  0.0360325804941138  0.5007176731889205
  0.6261844718229620  0.2861159109888190  0.5012782384327765
  0.6262163836028565  0.5360446541898388  0.5017407024984326
  0.6263389125773263  0.7860172482746355  0.5001325209679683
  0.2845981393479036  0.1645124704610438  0.4879960328711802
  0.2850433395657886  0.4034471510061312  0.4942300713588823
  0.2847044575228095  0.6694354552361792  0.4984738484956407
  0.2798319747826711  0.9033429596547794  0.4930357580235892
  0.4537090075329625  0.1608700978859278  0.4968344405637481
  0.4531995635535474  0.4109025735391622  0.5004977826940307
  0.4536962384654389  0.6608750089229113  0.4985085214440164
  0.4534367139753159  0.9106955292669646  0.4969515862346162
  0.6265896809838958  0.1606292695738069  0.5005329174800154
  0.6264715740140373  0.4115335752117415  0.5013890578643059
  0.6266213599688282  0.6605728201118460  0.5004230210047087
  0.6267208153039868  0.9114462978133543  0.4999808657990991
  0.3670747440486417  0.2246162532389269  0.4936965264890990
  0.3657214885742636  0.4724061216785198  0.5002876576677698
  0.3681441828348564  0.7236509589888002  0.4968052368084071
  0.3658164569025573  0.9737492215473130  0.4946701370402349
  0.5406702913841884  0.2232965374873055  0.4997045161797917
  0.5394108141716257  0.4737074691611615  0.5007890903572654
  0.5407500888708998  0.7232505356574193  0.4991108831045777
  0.5396318689752863  0.9736319677875339  0.4986747226644831
  0.7142220536436580  0.2147625235956063  0.5017984512004324
  0.7129771240955834  0.4767568384202412  0.5029417280029064
  0.7142811786058272  0.7145535206848165  0.5012939513389021
  0.7132345159643383  0.9769321485093790  0.5019293928338535
  0.3675109766357598  0.0991389767995446  0.4937710426836998
  0.3674272176881938  0.3474590630261851  0.4995644989117400
  0.3667996800628145  0.5987298428836433  0.5001043322614166
  0.3677716621779077  0.8479244545206883  0.4954322318984975
  0.5396207245807898  0.0983191775435878  0.4989100901213134
  0.5405632836843732  0.3488565722237738  0.5007289858603697
  0.5395706176234465  0.5982763590350569  0.5000031612434566
  0.5407831423332402  0.8488435682718132  0.4986905950856300
  0.7131614968912736  0.0953308569490343  0.5021597710682927
  0.7141465445586479  0.3576293405102587  0.5020024925502924
  0.7130488821900726  0.5953785374635238  0.5026682512023768
  0.7143573380804941  0.8574048644831271  0.5011823773442086
  0.2505097269922381  0.1048906172664189  0.5781958150848435
  0.2370152621964064  0.3447274010238108  0.5501668929916125
  0.2529569044300315  0.6085973557363489  0.5922923603821316
  0.2514598087436646  0.8432717747272165  0.5834936746887849
  0.4236727735424456  0.0984523745163405  0.5893134015736664
  0.4246763119570792  0.3479295113375808  0.5934883201017846
  0.4244226983421548  0.5991425719642059  0.5927249345000120
  0.4243398460668073  0.8486550612805325  0.5901625831422784
  0.5966593681075516  0.0983736134728335  0.5929233552080473
  0.5979825349206885  0.3485617022104037  0.5946238122541040
  0.5967729650950460  0.5987876460569317  0.5936233552927421
  0.5979731529664573  0.8486303830203448  0.5930680315200539
  0.4239686734537782  0.2229961023532491  0.5893833266888736
  0.4236584033501664  0.4733599580943118  0.5932189211738916
  0.4252646320375532  0.7240851390426258  0.5909086366348257
  0.4231278727790090  0.9734689833155524  0.5886670982803227
  0.5979162129199309  0.2232641828285603  0.5939457217692490
  0.5967408326848768  0.4736711509391115  0.5942244234583213
  0.5979951081983429  0.7235982095143558  0.5933188041357887
  0.5967203720054742  0.9734322072094718  0.5926427137880930
  0.3352797731787563  0.0369749357613952  0.5858334443420607
  0.3371201418924346  0.2836372805749511  0.5934159608266295
  0.3385168178865722  0.5364824118847257  0.5950107057798540
  0.3384480145779485  0.7857294504827725  0.5909757488410098
  0.5100115509730601  0.0358468340976389  0.5914377285456172
  0.5111966849502113  0.2856916056625066  0.5926337916799604
  0.5103194449160019  0.5362522031626352  0.5936215898125590
  0.5113268983151447  0.7862731902620205  0.5911411172935906
  0.6837545795282259  0.0359994029931495  0.5983216703208194
  0.6863630678125887  0.2860714118841411  0.5902537321961745
  0.6835257373626404  0.5362167881067920  0.5991368007633628
  0.6863707359197273  0.7860450215735354  0.5893709846513844
  0.3377709507688271  0.1623040229004086  0.5864789896145938
  0.3355830933842774  0.4098195478647314  0.5934412368564805
  0.3388108116507217  0.6634913982982935  0.5936260520363377
  0.3357809988179355  0.9112283989234483  0.5869038740443560
  0.5105351115347238  0.1608635839674979  0.5917067752745171
  0.5107972856803191  0.4109152139515265  0.5937882473150867
  0.5109455114461214  0.6613759631922127  0.5923390735336892
  0.5105748536001896  0.9109318108434028  0.5912543834879239
  0.6842442478910595  0.1586014687640640  0.5975336650913350
  0.6842730367808081  0.4135092576870485  0.5981526174281776
  0.6842563352812094  0.6588535700788033  0.5974723042862854
  0.6843482519046938  0.9134360441542958  0.5970351947361551
  0.2535412101665571  0.1009732273392057  0.3961528029935877
  0.2508354626785705  0.6016393271656404  0.4156299315961983
  0.2526511136865283  0.8424283335314016  0.4028336454717695
  0.4256896169545982  0.0985947341976564  0.4021926195259840
  0.4252639100314623  0.3488954724574065  0.4062799506071335
  0.4239788527803978  0.5978711983806477  0.4061769083064231
  0.4254247492513633  0.8482970569982790  0.4029063890433630
  0.5977650742038637  0.0984143866839712  0.4071776312299876
  0.5984154802071682  0.3487883127461461  0.4077599774725187
  0.5975123357830869  0.5980908073503314  0.4077713468162769
  0.5988272115414254  0.8486042299620741  0.4061777235033943
  0.2355048927231473  0.2281342724328797  0.4464035981954353
  0.2426747754569279  0.4687360559506059  0.4391465845327363
  0.2251653203160584  0.7241081346834819  0.4928024062781113
  0.2304184732077335  0.9735678807568252  0.4914643890151291
  0.4261535681692935  0.2244249750081337  0.4034654742588211
  0.4235964124839549  0.4735033703358380  0.4076858750870259
  0.4258951326419858  0.7230902948536371  0.4039966814990674
  0.4245382502646488  0.9732313231880019  0.4035366255981619
  0.5986492414388892  0.2237060133429831  0.4071311480955038
  0.5973087954927651  0.4736961798194390  0.4084135375205745
  0.5986866362290129  0.7232717481726331  0.4064716829469407
  0.5978025662742309  0.9737639060288900  0.4069516888865737
  0.3380464877844424  0.0357409659523452  0.3996867709640980
  0.3383487195516705  0.2885716847690183  0.3984949139358909
  0.3343666816763597  0.5354173800738927  0.4102840930766735
  0.3393770565920416  0.7846137986548045  0.4003034967606183
  0.5113400213267653  0.0359757630563874  0.4047586826804071
  0.5121131541184948  0.2864628125416873  0.4070220958056665
  0.5105520535721252  0.5357552622637601  0.4069752167349662
  0.5122771433586941  0.7859283124707382  0.4055181762331064
  0.6854179594047777  0.0361847428247306  0.4055842434232699
  0.6868651936840960  0.2862704080770709  0.4133558376933801
  0.6852215008329205  0.5359707910375736  0.4066045091021331
  0.6871379902721987  0.7859398088431957  0.4124760786820382
  0.3404656367110977  0.1621472357688283  0.3971115854697983
  0.3392137639130364  0.4090986260188902  0.4020169839480335
  0.3383061434300330  0.6609232298842795  0.4031259405029916
  0.3370902404058144  0.9105841140236163  0.4018016512704086
  0.5120339965782880  0.1613756419669593  0.4053454046383890
  0.5110522154567617  0.4110654055334039  0.4076293601897132
  0.5115670332123127  0.6607021352469903  0.4060394231832957
  0.5116587974314690  0.9108840194958562  0.4049969894308892
  0.6847582186015312  0.1588493490595430  0.4049805464820136
  0.6844362653401256  0.4135533702533262  0.4054449711315707
  0.6847153284379237  0.6584525342325097  0.4047624890065932
  0.6849056907190862  0.9134734758171805  0.4045183039855683
  0.7729826773666210  0.9139205814491503  0.4957005185636258
  0.7672405287097438  0.7859979669955206  0.5044111466435470
  0.7729254443945432  0.6581242870594443  0.4949767612898308
  0.7719444792737536  0.5360551712334007  0.5165347965662871
  0.7727976312983467  0.4140167023469581  0.4949310202841855
  0.7671039752695639  0.2861640880321801  0.5048171181012687
  0.7728952778399105  0.1583377795514138  0.4960078125283989
  0.7722594644655740  0.0361646256247442  0.5130972589421768
  0.2510816886312374  0.4965184314503786  0.6066702628325172
  0.2074975801793685  0.4930545851313320  0.6187133226753149
  0.2020761128380892  0.4678600687526563  0.6659801191022632
  0.1970831750117046  0.5317229614706075  0.6306591720777757
  0.2612440774573490  0.4613884144211132  0.5980127402959518
  0.1922606861144600  0.4784625070807715  0.5690833782052135
 
  0.00000000E+00  0.00000000E+00  0.00000000E+00
  0.00000000E+00  0.00000000E+00  0.00000000E+00
  0.00000000E+00  0.00000000E+00  0.00000000E+00
  0.00000000E+00  0.00000000E+00  0.00000000E+00
  0.00000000E+00  0.00000000E+00  0.00000000E+00
  0.00000000E+00  0.00000000E+00  0.00000000E+00
  0.00000000E+00  0.00000000E+00  0.00000000E+00
  0.00000000E+00  0.00000000E+00  0.00000000E+00
  0.00000000E+00  0.00000000E+00  0.00000000E+00
  0.00000000E+00  0.00000000E+00  0.00000000E+00
  0.00000000E+00  0.00000000E+00  0.00000000E+00
  0.00000000E+00  0.00000000E+00  0.00000000E+00
  0.00000000E+00  0.00000000E+00  0.00000000E+00
  0.00000000E+00  0.00000000E+00  0.00000000E+00
  0.00000000E+00  0.00000000E+00  0.00000000E+00
  0.00000000E+00  0.00000000E+00  0.00000000E+00
  0.00000000E+00  0.00000000E+00  0.00000000E+00
  0.00000000E+00  0.00000000E+00  0.00000000E+00
  0.00000000E+00  0.00000000E+00  0.00000000E+00
  0.00000000E+00  0.00000000E+00  0.00000000E+00
  0.00000000E+00  0.00000000E+00  0.00000000E+00
  0.00000000E+00  0.00000000E+00  0.00000000E+00
  0.00000000E+00  0.00000000E+00  0.00000000E+00
  0.00000000E+00  0.00000000E+00  0.00000000E+00
  0.00000000E+00  0.00000000E+00  0.00000000E+00
  0.00000000E+00  0.00000000E+00  0.00000000E+00
  0.00000000E+00  0.00000000E+00  0.00000000E+00
  0.00000000E+00  0.00000000E+00  0.00000000E+00
  0.00000000E+00  0.00000000E+00  0.00000000E+00
  0.00000000E+00  0.00000000E+00  0.00000000E+00
  0.00000000E+00  0.00000000E+00  0.00000000E+00
  0.00000000E+00  0.00000000E+00  0.00000000E+00
  0.00000000E+00  0.00000000E+00  0.00000000E+00
  0.00000000E+00  0.00000000E+00  0.00000000E+00
  0.00000000E+00  0.00000000E+00  0.00000000E+00
  0.00000000E+00  0.00000000E+00  0.00000000E+00
  0.00000000E+00  0.00000000E+00  0.00000000E+00
  0.00000000E+00  0.00000000E+00  0.00000000E+00
  0.00000000E+00  0.00000000E+00  0.00000000E+00
  0.00000000E+00  0.00000000E+00  0.00000000E+00
  0.00000000E+00  0.00000000E+00  0.00000000E+00
  0.00000000E+00  0.00000000E+00  0.00000000E+00
  0.00000000E+00  0.00000000E+00  0.00000000E+00
  0.00000000E+00  0.00000000E+00  0.00000000E+00
  0.00000000E+00  0.00000000E+00  0.00000000E+00
  0.00000000E+00  0.00000000E+00  0.00000000E+00
  0.00000000E+00  0.00000000E+00  0.00000000E+00
  0.00000000E+00  0.00000000E+00  0.00000000E+00
  0.00000000E+00  0.00000000E+00  0.00000000E+00
  0.00000000E+00  0.00000000E+00  0.00000000E+00
  0.00000000E+00  0.00000000E+00  0.00000000E+00
  0.00000000E+00  0.00000000E+00  0.00000000E+00
  0.00000000E+00  0.00000000E+00  0.00000000E+00
  0.00000000E+00  0.00000000E+00  0.00000000E+00
  0.00000000E+00  0.00000000E+00  0.00000000E+00
  0.00000000E+00  0.00000000E+00  0.00000000E+00
  0.00000000E+00  0.00000000E+00  0.00000000E+00
  0.00000000E+00  0.00000000E+00  0.00000000E+00
  0.00000000E+00  0.00000000E+00  0.00000000E+00
  0.00000000E+00  0.00000000E+00  0.00000000E+00
  0.00000000E+00  0.00000000E+00  0.00000000E+00
  0.00000000E+00  0.00000000E+00  0.00000000E+00
  0.00000000E+00  0.00000000E+00  0.00000000E+00
  0.00000000E+00  0.00000000E+00  0.00000000E+00
  0.00000000E+00  0.00000000E+00  0.00000000E+00
  0.00000000E+00  0.00000000E+00  0.00000000E+00
  0.00000000E+00  0.00000000E+00  0.00000000E+00
  0.00000000E+00  0.00000000E+00  0.00000000E+00
  0.00000000E+00  0.00000000E+00  0.00000000E+00
  0.00000000E+00  0.00000000E+00  0.00000000E+00
  0.00000000E+00  0.00000000E+00  0.00000000E+00
  0.00000000E+00  0.00000000E+00  0.00000000E+00
  0.00000000E+00  0.00000000E+00  0.00000000E+00
  0.00000000E+00  0.00000000E+00  0.00000000E+00
  0.00000000E+00  0.00000000E+00  0.00000000E+00
  0.00000000E+00  0.00000000E+00  0.00000000E+00
  0.00000000E+00  0.00000000E+00  0.00000000E+00
  0.00000000E+00  0.00000000E+00  0.00000000E+00
  0.00000000E+00  0.00000000E+00  0.00000000E+00
  0.00000000E+00  0.00000000E+00  0.00000000E+00
  0.00000000E+00  0.00000000E+00  0.00000000E+00
  0.00000000E+00  0.00000000E+00  0.00000000E+00
  0.00000000E+00  0.00000000E+00  0.00000000E+00
  0.00000000E+00  0.00000000E+00  0.00000000E+00
  0.00000000E+00  0.00000000E+00  0.00000000E+00
  0.00000000E+00  0.00000000E+00  0.00000000E+00
  0.00000000E+00  0.00000000E+00  0.00000000E+00
  0.00000000E+00  0.00000000E+00  0.00000000E+00
  0.00000000E+00  0.00000000E+00  0.00000000E+00
  0.00000000E+00  0.00000000E+00  0.00000000E+00
  0.00000000E+00  0.00000000E+00  0.00000000E+00
  0.00000000E+00  0.00000000E+00  0.00000000E+00
  0.00000000E+00  0.00000000E+00  0.00000000E+00
  0.00000000E+00  0.00000000E+00  0.00000000E+00
  0.00000000E+00  0.00000000E+00  0.00000000E+00
  0.00000000E+00  0.00000000E+00  0.00000000E+00
  0.00000000E+00  0.00000000E+00  0.00000000E+00
  0.00000000E+00  0.00000000E+00  0.00000000E+00
  0.00000000E+00  0.00000000E+00  0.00000000E+00
  0.00000000E+00  0.00000000E+00  0.00000000E+00
  0.00000000E+00  0.00000000E+00  0.00000000E+00
  0.00000000E+00  0.00000000E+00  0.00000000E+00
  0.00000000E+00  0.00000000E+00  0.00000000E+00
  0.00000000E+00  0.00000000E+00  0.00000000E+00
  0.00000000E+00  0.00000000E+00  0.00000000E+00
  0.00000000E+00  0.00000000E+00  0.00000000E+00
  0.00000000E+00  0.00000000E+00  0.00000000E+00
  0.00000000E+00  0.00000000E+00  0.00000000E+00
  0.00000000E+00  0.00000000E+00  0.00000000E+00
  0.00000000E+00  0.00000000E+00  0.00000000E+00
  0.00000000E+00  0.00000000E+00  0.00000000E+00
  0.00000000E+00  0.00000000E+00  0.00000000E+00
  0.00000000E+00  0.00000000E+00  0.00000000E+00
  0.00000000E+00  0.00000000E+00  0.00000000E+00
  0.00000000E+00  0.00000000E+00  0.00000000E+00
  0.00000000E+00  0.00000000E+00  0.00000000E+00
  0.00000000E+00  0.00000000E+00  0.00000000E+00
  0.00000000E+00  0.00000000E+00  0.00000000E+00
  0.00000000E+00  0.00000000E+00  0.00000000E+00
  0.00000000E+00  0.00000000E+00  0.00000000E+00
  0.00000000E+00  0.00000000E+00  0.00000000E+00
  0.00000000E+00  0.00000000E+00  0.00000000E+00
  0.00000000E+00  0.00000000E+00  0.00000000E+00
  0.00000000E+00  0.00000000E+00  0.00000000E+00
  0.00000000E+00  0.00000000E+00  0.00000000E+00
  0.00000000E+00  0.00000000E+00  0.00000000E+00
  0.00000000E+00  0.00000000E+00  0.00000000E+00
  0.00000000E+00  0.00000000E+00  0.00000000E+00
  0.00000000E+00  0.00000000E+00  0.00000000E+00
  0.00000000E+00  0.00000000E+00  0.00000000E+00
  0.00000000E+00  0.00000000E+00  0.00000000E+00
  0.00000000E+00  0.00000000E+00  0.00000000E+00
  0.00000000E+00  0.00000000E+00  0.00000000E+00
  0.00000000E+00  0.00000000E+00  0.00000000E+00
  0.00000000E+00  0.00000000E+00  0.00000000E+00
  0.00000000E+00  0.00000000E+00  0.00000000E+00
  0.00000000E+00  0.00000000E+00  0.00000000E+00
  0.00000000E+00  0.00000000E+00  0.00000000E+00
  0.00000000E+00  0.00000000E+00  0.00000000E+00
  0.00000000E+00  0.00000000E+00  0.00000000E+00
  0.00000000E+00  0.00000000E+00  0.00000000E+00
  0.00000000E+00  0.00000000E+00  0.00000000E+00
  0.00000000E+00  0.00000000E+00  0.00000000E+00
  0.00000000E+00  0.00000000E+00  0.00000000E+00
  0.00000000E+00  0.00000000E+00  0.00000000E+00
  0.00000000E+00  0.00000000E+00  0.00000000E+00
  0.00000000E+00  0.00000000E+00  0.00000000E+00
  0.00000000E+00  0.00000000E+00  0.00000000E+00
  0.00000000E+00  0.00000000E+00  0.00000000E+00
  0.00000000E+00  0.00000000E+00  0.00000000E+00
  0.00000000E+00  0.00000000E+00  0.00000000E+00
  0.00000000E+00  0.00000000E+00  0.00000000E+00
  0.00000000E+00  0.00000000E+00  0.00000000E+00
