H4 W48 Se99 C1 O1                       
   1.00000000000000     
    33.0000000000000000    0.0000000000000000    0.0000000000000000
     0.0000000000000000   26.2560005200000006    0.0000000000000000
     0.0000000000000000    0.0000000000000000   18.1299999999999990
   W    Se   O    C    H 
    48    99     1     1     4
Direct
  0.2804615143974717  0.0421106725799341  0.4918825942932533
  0.2867427032582126  0.2854235924017765  0.4956843659763961
  0.2797631892446161  0.5411878793153219  0.5052950511333981
  0.2852550045278623  0.7783485509603277  0.4952585790609502
  0.4533944902254524  0.0359362558909838  0.4976853521967052
  0.4539168502122303  0.2859688417467081  0.4997107537360225
  0.4530332247062981  0.5358982501527426  0.5004438935624606
  0.4543110767939817  0.7861609150630182  0.4980902887052844
  0.6266184302833407  0.0358055012485920  0.5008977234026614
  0.6262360947554813  0.2858695595585729  0.5014259379629961
  0.6264412508786152  0.5357977609481663  0.5019901230450317
  0.6265418946761346  0.7858342940781412  0.5002770822615397
  0.2847090087920979  0.1654344084497167  0.4901266688904533
  0.2852755362254073  0.4036232215025999  0.4920406913998055
  0.2850096412355788  0.6693910943817095  0.4973855645171297
  0.2801213380466454  0.9035809118545330  0.4946225395409908
  0.4537660030816872  0.1606153088436064  0.4979870120664124
  0.4532615111866176  0.4105931718783578  0.5007857261519688
  0.4538738696856118  0.6607129130792913  0.4991206381238045
  0.4537101006710865  0.9105461448483699  0.4977949479092977
  0.6267219288173408  0.1604151062509619  0.5007653884472695
  0.6265861336311932  0.4112810770569890  0.5015719202267025
  0.6268375022169537  0.6603502877896027  0.5006417238796824
  0.6268865441469236  0.9113006454686152  0.5002021630561146
  0.3670854441078359  0.2244317001857271  0.4949938363575179
  0.3658608326644301  0.4722475270936999  0.4996506397607986
  0.3684092979297321  0.7235396713397714  0.4972666062341111
  0.3660749458304454  0.9735807503207279  0.4960171754197626
  0.5407405174838102  0.2230202807322788  0.5003409769723971
  0.5394971865055110  0.4734696428945303  0.5011205486323780
  0.5409875516881623  0.7230147494496497  0.4995537049435175
  0.5398186005074443  0.9734940093561082  0.4991548589159073
  0.7142997217776359  0.2144875196375499  0.5019478486104538
  0.7131932988748930  0.4765042902006673  0.5028529397092313
  0.7144830010517782  0.7143927490920431  0.5011045997874511
  0.7134123443178185  0.9767052377531029  0.5020978508726345
  0.3676909850302494  0.0988616193173688  0.4953128140323886
  0.3674738452572548  0.3472564568751698  0.4995140019507408
  0.3669440199272058  0.5984842371961064  0.4997783013324220
  0.3680997324712731  0.8478683107225932  0.4965722348548892
  0.5397510958851729  0.0981200597672326  0.4995122811538671
  0.5406027466992496  0.3486174593796165  0.5011434277094827
  0.5397241233252618  0.5979995897334016  0.5004358350032615
  0.5410365407480279  0.8486887682960890  0.4991087534963298
  0.7133168736028476  0.0949511138310699  0.5021729072544633
  0.7142470189402368  0.3573215397776501  0.5021296751334442
  0.7133131527501042  0.5952054995713717  0.5024750473226837
  0.7144549504967823  0.8572130600155892  0.5013235504139064
  0.2507896381465465  0.1049842566842294  0.5802577437161862
  0.2372572235279125  0.3456745707040367  0.5489197506835163
  0.2529884256426039  0.6084958231917095  0.5901101799848424
  0.2517337379398416  0.8431315385470909  0.5843467762568920
  0.4239737932119345  0.0981456306064313  0.5905407681994099
  0.4245311690855375  0.3478272163884691  0.5939072053714639
  0.4243367564307843  0.5989364411169091  0.5930329143866179
  0.4247855629097378  0.8484888255702467  0.5912091823355529
  0.5969236161772989  0.0981541710901928  0.5931894254621866
  0.5980676735557677  0.3483798452036195  0.5948058237283955
  0.5970195662943633  0.5985262800090596  0.5938993971690468
  0.5982716433399754  0.8484763019641586  0.5933524952029481
  0.4240446030236540  0.2228622154039457  0.5905066952502354
  0.4236175572672311  0.4731310167048760  0.5933371470738525
  0.4254488217388433  0.7239029155127367  0.5916069843024661
  0.4235444831085320  0.9732451419584295  0.5897468490518586
  0.5981110288587654  0.2230313181927354  0.5942240150877550
  0.5968799592830378  0.4734123947303933  0.5943888246650536
  0.5983231523505650  0.7234085144852955  0.5936219793775798
  0.5969682667815368  0.9732653803294131  0.5929287259460650
  0.3356113563611481  0.0366118644937336  0.5874647172809485
  0.3368914390250372  0.2839659158965718  0.5942409103846187
  0.3380206295805461  0.5360628504525878  0.5939953628274157
  0.3386633650509991  0.7854483386338379  0.5916436444701736
  0.5103414319606379  0.0356543171418771  0.5922067947377661
  0.5113246921172369  0.2855178478447759  0.5932893133669471
  0.5103829195326548  0.5359895034951423  0.5939666085578329
  0.5116975743338069  0.7860215313005906  0.5916619107667005
  0.6840235723236269  0.0357812120297001  0.5984576981313892
  0.6864460825284961  0.2857244813398119  0.5903323530475688
  0.6839503870620317  0.5360347326585884  0.5991263339363967
  0.6865836980872125  0.7858221724252098  0.5894246834926787
  0.3380795290623158  0.1621310914659684  0.5882282836640159
  0.3351484366222292  0.4099609561418213  0.5922657600543264
  0.3386996857385999  0.6630820334645913  0.5933223850231040
  0.3362191139341623  0.9110349228375255  0.5883367620841324
  0.5107128167280308  0.1606012302226826  0.5925173300756588
  0.5108273479387799  0.4106976902013582  0.5941273129342918
  0.5111643570656215  0.6611032674538274  0.5928566431643331
  0.5109599471788535  0.9107626025350480  0.5918443719816147
  0.6844122743849606  0.1582858397290186  0.5976884232064348
  0.6844610620850607  0.4132956506506621  0.5981869768554593
  0.6846095466714375  0.6586766700877622  0.5973922777144987
  0.6844823502665666  0.9132445752203850  0.5973037476156093
  0.2536199869770824  0.1016976338563026  0.3986257512373622
  0.2515192816661859  0.6019498278127426  0.4130962195900990
  0.2529335810706057  0.8427446679109611  0.4039968729805489
  0.4256790282077003  0.0984238948048844  0.4033932787170703
  0.4255044406109001  0.3484049538186179  0.4066024018333045
  0.4243482662229924  0.5978173497090753  0.4063432753631719
  0.4256142143868740  0.8482390589767744  0.4037961007822161
  0.5978232233839289  0.0982092699794838  0.4075194105857101
  0.5983884571099956  0.3485627059527043  0.4079967298064904
  0.5976062075871617  0.5978459798018151  0.4081634382632762
  0.5989867000272134  0.8484805394927806  0.4063945629536058
  0.2331662793097146  0.2275947138871802  0.4548321868275327
  0.2434782525220525  0.4687109803349316  0.4348701872236729
  0.2254543667646723  0.7240436577034879  0.4927539980957069
  0.2304888927089251  0.9735819429071845  0.4917037397147356
  0.4260701191698004  0.2239761071149876  0.4046012408348597
  0.4239446901211604  0.4732575007785180  0.4077233786015393
  0.4262672254427399  0.7230501661417811  0.4046629686728769
  0.4246271194672988  0.9731198028580484  0.4045210235420457
  0.5986195341908045  0.2234071526658904  0.4073782079326091
  0.5974156353177922  0.4734946470550077  0.4087112368892857
  0.5988263434422828  0.7230383834195763  0.4068105478427600
  0.5978635351978372  0.9736023323327989  0.4071809470054490
  0.3378600641526119  0.0356534323731688  0.4014467200000460
  0.3381871033079598  0.2879237944784621  0.3992315089682047
  0.3351297279294894  0.5353025517602218  0.4089114024058315
  0.3397820846268544  0.7848461058616140  0.4010752794227123
  0.5113789236536510  0.0358428762510474  0.4054417779592207
  0.5121038114004859  0.2861036871765485  0.4077334828347368
  0.5106627172219044  0.5355395573441768  0.4073162631127273
  0.5124476356115254  0.7857732275325189  0.4060758834734939
  0.6855348651456350  0.0358301659617800  0.4056179424746214
  0.6869244826067745  0.2859649545939585  0.4135029855449757
  0.6853468509597594  0.5357395446381713  0.4066599399330942
  0.6872497545766650  0.7857703419694863  0.4124559722554906
  0.3403381762988920  0.1618135081805539  0.3989037560300012
  0.3400289535567640  0.4086796397004034  0.4009609166123513
  0.3389852994339049  0.6610284284987646  0.4027666384360795
  0.3372034899817840  0.9105803113011233  0.4031394308975073
  0.5119546822815326  0.1611049561359549  0.4062119831280092
  0.5111367187331436  0.4107976801393038  0.4079475449961165
  0.5117307924792053  0.6604865263233523  0.4065759287712022
  0.5117714723757432  0.9107857871548161  0.4055590875526153
  0.6848694264020700  0.1585902470981105  0.4050837098322739
  0.6845135151622289  0.4132295132518000  0.4055939120110015
  0.6848079715767921  0.6582210448075834  0.4047856502300610
  0.6850400591619435  0.9132976443871260  0.4047238247094748
  0.7731167591220164  0.9136802019926828  0.4967463419111810
  0.7673718930679970  0.7859118480573278  0.5040152856092092
  0.7731321944311648  0.6580179073672480  0.4937901303845478
  0.7722183523403684  0.5358174726564096  0.5156922521609728
  0.7729242403043283  0.4136169900013694  0.4945155738535000
  0.7671675924832930  0.2858312332390348  0.5050915083884892
  0.7729707469780951  0.1580924981010052  0.4970618561285958
  0.7725138258839864  0.0358795688112613  0.5120062049228971
  0.2481993906186722  0.4970961258158910  0.6006081568948927
  0.2041372970214571  0.4983909450648783  0.6094545428393133
  0.1943580293077949  0.4629173974089690  0.6359292981502284
  0.1975623594051167  0.5311863086482408  0.6448186716328396
  0.2558535466930392  0.4614920334794487  0.5883078839184458
  0.1893223734605541  0.5028479819753220  0.5555636982223650
 
  0.00000000E+00  0.00000000E+00  0.00000000E+00
  0.00000000E+00  0.00000000E+00  0.00000000E+00
  0.00000000E+00  0.00000000E+00  0.00000000E+00
  0.00000000E+00  0.00000000E+00  0.00000000E+00
  0.00000000E+00  0.00000000E+00  0.00000000E+00
  0.00000000E+00  0.00000000E+00  0.00000000E+00
  0.00000000E+00  0.00000000E+00  0.00000000E+00
  0.00000000E+00  0.00000000E+00  0.00000000E+00
  0.00000000E+00  0.00000000E+00  0.00000000E+00
  0.00000000E+00  0.00000000E+00  0.00000000E+00
  0.00000000E+00  0.00000000E+00  0.00000000E+00
  0.00000000E+00  0.00000000E+00  0.00000000E+00
  0.00000000E+00  0.00000000E+00  0.00000000E+00
  0.00000000E+00  0.00000000E+00  0.00000000E+00
  0.00000000E+00  0.00000000E+00  0.00000000E+00
  0.00000000E+00  0.00000000E+00  0.00000000E+00
  0.00000000E+00  0.00000000E+00  0.00000000E+00
  0.00000000E+00  0.00000000E+00  0.00000000E+00
  0.00000000E+00  0.00000000E+00  0.00000000E+00
  0.00000000E+00  0.00000000E+00  0.00000000E+00
  0.00000000E+00  0.00000000E+00  0.00000000E+00
  0.00000000E+00  0.00000000E+00  0.00000000E+00
  0.00000000E+00  0.00000000E+00  0.00000000E+00
  0.00000000E+00  0.00000000E+00  0.00000000E+00
  0.00000000E+00  0.00000000E+00  0.00000000E+00
  0.00000000E+00  0.00000000E+00  0.00000000E+00
  0.00000000E+00  0.00000000E+00  0.00000000E+00
  0.00000000E+00  0.00000000E+00  0.00000000E+00
  0.00000000E+00  0.00000000E+00  0.00000000E+00
  0.00000000E+00  0.00000000E+00  0.00000000E+00
  0.00000000E+00  0.00000000E+00  0.00000000E+00
  0.00000000E+00  0.00000000E+00  0.00000000E+00
  0.00000000E+00  0.00000000E+00  0.00000000E+00
  0.00000000E+00  0.00000000E+00  0.00000000E+00
  0.00000000E+00  0.00000000E+00  0.00000000E+00
  0.00000000E+00  0.00000000E+00  0.00000000E+00
  0.00000000E+00  0.00000000E+00  0.00000000E+00
  0.00000000E+00  0.00000000E+00  0.00000000E+00
  0.00000000E+00  0.00000000E+00  0.00000000E+00
  0.00000000E+00  0.00000000E+00  0.00000000E+00
  0.00000000E+00  0.00000000E+00  0.00000000E+00
  0.00000000E+00  0.00000000E+00  0.00000000E+00
  0.00000000E+00  0.00000000E+00  0.00000000E+00
  0.00000000E+00  0.00000000E+00  0.00000000E+00
  0.00000000E+00  0.00000000E+00  0.00000000E+00
  0.00000000E+00  0.00000000E+00  0.00000000E+00
  0.00000000E+00  0.00000000E+00  0.00000000E+00
  0.00000000E+00  0.00000000E+00  0.00000000E+00
  0.00000000E+00  0.00000000E+00  0.00000000E+00
  0.00000000E+00  0.00000000E+00  0.00000000E+00
  0.00000000E+00  0.00000000E+00  0.00000000E+00
  0.00000000E+00  0.00000000E+00  0.00000000E+00
  0.00000000E+00  0.00000000E+00  0.00000000E+00
  0.00000000E+00  0.00000000E+00  0.00000000E+00
  0.00000000E+00  0.00000000E+00  0.00000000E+00
  0.00000000E+00  0.00000000E+00  0.00000000E+00
  0.00000000E+00  0.00000000E+00  0.00000000E+00
  0.00000000E+00  0.00000000E+00  0.00000000E+00
  0.00000000E+00  0.00000000E+00  0.00000000E+00
  0.00000000E+00  0.00000000E+00  0.00000000E+00
  0.00000000E+00  0.00000000E+00  0.00000000E+00
  0.00000000E+00  0.00000000E+00  0.00000000E+00
  0.00000000E+00  0.00000000E+00  0.00000000E+00
  0.00000000E+00  0.00000000E+00  0.00000000E+00
  0.00000000E+00  0.00000000E+00  0.00000000E+00
  0.00000000E+00  0.00000000E+00  0.00000000E+00
  0.00000000E+00  0.00000000E+00  0.00000000E+00
  0.00000000E+00  0.00000000E+00  0.00000000E+00
  0.00000000E+00  0.00000000E+00  0.00000000E+00
  0.00000000E+00  0.00000000E+00  0.00000000E+00
  0.00000000E+00  0.00000000E+00  0.00000000E+00
  0.00000000E+00  0.00000000E+00  0.00000000E+00
  0.00000000E+00  0.00000000E+00  0.00000000E+00
  0.00000000E+00  0.00000000E+00  0.00000000E+00
  0.00000000E+00  0.00000000E+00  0.00000000E+00
  0.00000000E+00  0.00000000E+00  0.00000000E+00
  0.00000000E+00  0.00000000E+00  0.00000000E+00
  0.00000000E+00  0.00000000E+00  0.00000000E+00
  0.00000000E+00  0.00000000E+00  0.00000000E+00
  0.00000000E+00  0.00000000E+00  0.00000000E+00
  0.00000000E+00  0.00000000E+00  0.00000000E+00
  0.00000000E+00  0.00000000E+00  0.00000000E+00
  0.00000000E+00  0.00000000E+00  0.00000000E+00
  0.00000000E+00  0.00000000E+00  0.00000000E+00
  0.00000000E+00  0.00000000E+00  0.00000000E+00
  0.00000000E+00  0.00000000E+00  0.00000000E+00
  0.00000000E+00  0.00000000E+00  0.00000000E+00
  0.00000000E+00  0.00000000E+00  0.00000000E+00
  0.00000000E+00  0.00000000E+00  0.00000000E+00
  0.00000000E+00  0.00000000E+00  0.00000000E+00
  0.00000000E+00  0.00000000E+00  0.00000000E+00
  0.00000000E+00  0.00000000E+00  0.00000000E+00
  0.00000000E+00  0.00000000E+00  0.00000000E+00
  0.00000000E+00  0.00000000E+00  0.00000000E+00
  0.00000000E+00  0.00000000E+00  0.00000000E+00
  0.00000000E+00  0.00000000E+00  0.00000000E+00
  0.00000000E+00  0.00000000E+00  0.00000000E+00
  0.00000000E+00  0.00000000E+00  0.00000000E+00
  0.00000000E+00  0.00000000E+00  0.00000000E+00
  0.00000000E+00  0.00000000E+00  0.00000000E+00
  0.00000000E+00  0.00000000E+00  0.00000000E+00
  0.00000000E+00  0.00000000E+00  0.00000000E+00
  0.00000000E+00  0.00000000E+00  0.00000000E+00
  0.00000000E+00  0.00000000E+00  0.00000000E+00
  0.00000000E+00  0.00000000E+00  0.00000000E+00
  0.00000000E+00  0.00000000E+00  0.00000000E+00
  0.00000000E+00  0.00000000E+00  0.00000000E+00
  0.00000000E+00  0.00000000E+00  0.00000000E+00
  0.00000000E+00  0.00000000E+00  0.00000000E+00
  0.00000000E+00  0.00000000E+00  0.00000000E+00
  0.00000000E+00  0.00000000E+00  0.00000000E+00
  0.00000000E+00  0.00000000E+00  0.00000000E+00
  0.00000000E+00  0.00000000E+00  0.00000000E+00
  0.00000000E+00  0.00000000E+00  0.00000000E+00
  0.00000000E+00  0.00000000E+00  0.00000000E+00
  0.00000000E+00  0.00000000E+00  0.00000000E+00
  0.00000000E+00  0.00000000E+00  0.00000000E+00
  0.00000000E+00  0.00000000E+00  0.00000000E+00
  0.00000000E+00  0.00000000E+00  0.00000000E+00
  0.00000000E+00  0.00000000E+00  0.00000000E+00
  0.00000000E+00  0.00000000E+00  0.00000000E+00
  0.00000000E+00  0.00000000E+00  0.00000000E+00
  0.00000000E+00  0.00000000E+00  0.00000000E+00
  0.00000000E+00  0.00000000E+00  0.00000000E+00
  0.00000000E+00  0.00000000E+00  0.00000000E+00
  0.00000000E+00  0.00000000E+00  0.00000000E+00
  0.00000000E+00  0.00000000E+00  0.00000000E+00
  0.00000000E+00  0.00000000E+00  0.00000000E+00
  0.00000000E+00  0.00000000E+00  0.00000000E+00
  0.00000000E+00  0.00000000E+00  0.00000000E+00
  0.00000000E+00  0.00000000E+00  0.00000000E+00
  0.00000000E+00  0.00000000E+00  0.00000000E+00
  0.00000000E+00  0.00000000E+00  0.00000000E+00
  0.00000000E+00  0.00000000E+00  0.00000000E+00
  0.00000000E+00  0.00000000E+00  0.00000000E+00
  0.00000000E+00  0.00000000E+00  0.00000000E+00
  0.00000000E+00  0.00000000E+00  0.00000000E+00
  0.00000000E+00  0.00000000E+00  0.00000000E+00
  0.00000000E+00  0.00000000E+00  0.00000000E+00
  0.00000000E+00  0.00000000E+00  0.00000000E+00
  0.00000000E+00  0.00000000E+00  0.00000000E+00
  0.00000000E+00  0.00000000E+00  0.00000000E+00
  0.00000000E+00  0.00000000E+00  0.00000000E+00
  0.00000000E+00  0.00000000E+00  0.00000000E+00
  0.00000000E+00  0.00000000E+00  0.00000000E+00
  0.00000000E+00  0.00000000E+00  0.00000000E+00
  0.00000000E+00  0.00000000E+00  0.00000000E+00
  0.00000000E+00  0.00000000E+00  0.00000000E+00
  0.00000000E+00  0.00000000E+00  0.00000000E+00
  0.00000000E+00  0.00000000E+00  0.00000000E+00
  0.00000000E+00  0.00000000E+00  0.00000000E+00
  0.00000000E+00  0.00000000E+00  0.00000000E+00
  0.00000000E+00  0.00000000E+00  0.00000000E+00
