Mo48 H4 C1 S99 O1                       
   1.00000000000000     
    33.0000000000000000    0.0000000000000000    0.0000000000000000
     0.0000000000000000   25.5199999999999996    0.0000000000000000
     0.0000000000000000    0.0000000000000000   17.4728999999999992
   Mo   S    O    C    H 
    48    99     1     1     4
Direct
  0.2853222670710095  0.1048470775416927  0.4933754122225011
  0.3701662958904442  0.0352101856439374  0.4973586221117545
  0.2860814264062732  0.2260761914718631  0.4932842464309707
  0.3703476254142902  0.1602948793390148  0.4970512909982426
  0.4525684119407852  0.0975630592062096  0.5009748932106408
  0.5357188029121558  0.0351354939251899  0.5051446546146883
  0.2859801303377528  0.3427285003494013  0.4932335036810441
  0.3704206344540635  0.2844686331637193  0.4968328760680368
  0.4532313119143738  0.2223150791946329  0.5006077683929290
  0.5356382102995031  0.1597069199588659  0.5046315541175622
  0.6177101789682861  0.0979388227165938  0.5093727655632239
  0.2850837957000669  0.4640899153891963  0.4932382690886901
  0.3701253252347321  0.4086437219149186  0.4967930692258041
  0.4530778439098169  0.3467173005258872  0.5003477413996352
  0.5358677510632082  0.2847677387674314  0.5043242975615579
  0.2862330792285320  0.6042854360151766  0.4935445227294727
  0.3698759859898326  0.5337723150540558  0.4970341215124546
  0.4522649075408369  0.4713871907903974  0.5003518117551260
  0.5355003521575367  0.4091835109595247  0.5038624569483040
  0.2862816566839887  0.7147693508338493  0.4937272006499055
  0.3702022916209474  0.6591269082783945  0.4974598627011842
  0.4525127303403415  0.5965222187035503  0.5009328605986656
  0.5351642538989415  0.5340820863919398  0.5040867857234890
  0.4528413224272242  0.7218151182416331  0.5015189202739081
  0.5354835390407628  0.6589448544265051  0.5052175775375277
  0.6185476639632090  0.2227199050007605  0.5079501159194216
  0.7025079840102240  0.0414500804949641  0.5142521570536133
  0.6186639183744681  0.3470410589541543  0.5090887575651649
  0.6980086285274522  0.1647183272482854  0.5138547419104080
  0.6178316648363463  0.4713098983419799  0.5073579113485790
  0.6982296731071521  0.2810675870836704  0.5099372245994348
  0.6174244985090567  0.5958799730135879  0.5087320100059326
  0.6974141709442447  0.4114891620840676  0.5170267241349836
  0.6192084464569394  0.7213338930369334  0.5093214721271443
  0.6980561325645640  0.5308456834925973  0.5123848180305224
  0.7021049451194220  0.6535175103000469  0.5082964603516109
  0.2863961298055340  0.8543455634863342  0.4937257266899778
  0.3703358444259885  0.7845558671525482  0.4976896610509795
  0.2864560935985344  0.9647766590007308  0.4936160066985213
  0.3704414444468825  0.9099099756260037  0.4976245897783119
  0.4530210931833490  0.8471749431135015  0.5016430751580802
  0.5359080020160443  0.7845790889361750  0.5056118944144351
  0.4529077268169659  0.9724659777230001  0.5014020761452456
  0.5358902043173853  0.9096505995729210  0.5054979666517764
  0.6177473463491870  0.8470537011520090  0.5089850294824688
  0.6193173209127798  0.9728441802243548  0.5094516638377495
  0.7015409635115364  0.7867918966194264  0.5083403947046294
  0.7015354816311413  0.9079106421523870  0.5156079896776888
  0.3137383961043564  0.0353137200941922  0.4091242719544316
  0.3115363659403192  0.0354417695291103  0.5803177300773685
  0.3156249425458576  0.1621028186362768  0.4033747354538494
  0.3133635425860602  0.1622297261212038  0.5858093390928363
  0.3983064895285864  0.0973595172559725  0.4088242448671680
  0.3960069789751437  0.0975774348951410  0.5880283478218291
  0.4814863600033983  0.0348548444594295  0.4132734635949177
  0.4790872340502619  0.0351179708971197  0.5917239716397443
  0.3156371261382597  0.2844211981615830  0.4022882544495950
  0.3134563033070230  0.2844627444955021  0.5866079163249321
  0.3991911917869106  0.2222282067108851  0.4087950335535441
  0.3969633048394356  0.2223802196159352  0.5874981714722102
  0.4815314648336069  0.1595619108117723  0.4126249233837188
  0.4792126201493918  0.1598446392924621  0.5914984918392886
  0.5642408329910054  0.0971710387642849  0.4164918313130370
  0.5615851124784130  0.0974933402812998  0.5961668002981187
  0.3153657445817905  0.4067628444159768  0.4032219124964825
  0.3131997146537728  0.4067214861009452  0.5856357277839075
  0.3990118185065662  0.3466707518630154  0.4085953077791072
  0.3968642832637963  0.3467029650029985  0.5873506575422711
  0.4818900447979871  0.2844980427241812  0.4121777424320895
  0.4795463016781745  0.2846621081990492  0.5912894461874746
  0.5642622191262997  0.2221360481014507  0.4162570266033812
  0.5620393684984375  0.2224688761030481  0.5950240443457913
  0.6489443273863591  0.0354021429169374  0.4227203696307001
  0.6461475446766187  0.0356467804439718  0.5995399461957513
  0.6471212705857414  0.1602760644198295  0.4198992617809073
  0.6436815244988126  0.1614198908719960  0.6013735249231749
  0.3134188266353344  0.5336920676687122  0.4089453414151523
  0.3113267091432578  0.5335339423582690  0.5801236259080969
  0.3979322029011994  0.4715660051797875  0.4084115410028953
  0.3958031464029225  0.4714061222537814  0.5876299525262977
  0.4812738978414445  0.4093049671762491  0.4120641474100658
  0.4791040487189290  0.4092739713807315  0.5909173800928254
  0.5647320049153988  0.3470843884200390  0.4162193262105920
  0.5621058070116117  0.3470894786554045  0.5951447782422904
  0.3168741289494802  0.6593628316144945  0.4010295304686201
  0.3144811579571442  0.6591998192296872  0.5889297836072309
  0.3982946555365204  0.5964110401840950  0.4091826106991712
  0.3960565968890961  0.5961239046855884  0.5877379429499996
  0.4808843591067334  0.5341404427784368  0.4124714618123886
  0.4787479594114439  0.5338052728759687  0.5910420448311802
  0.5637532411113149  0.4716697108357115  0.4152822954862066
  0.5614334594168464  0.4716059426542146  0.5944281260905311
  0.3986272440077026  0.7221495238993386  0.4096890686496612
  0.3962610992797294  0.7220040345160273  0.5880694809395852
  0.4812700576029999  0.6593406163838240  0.4132549021787632
  0.4788891733284141  0.6589877187768953  0.5919022409049810
  0.5637023162260091  0.5967670245934162  0.4162609865775380
  0.5614345264144155  0.5962837115563020  0.5957728374561774
  0.5645445072213909  0.7216838883820983  0.4178722804181543
  0.5624506811036635  0.7214504315999175  0.5956814519115544
  0.6477202519721769  0.2852871670946673  0.4178082136248789
  0.6469902780697512  0.2835597993532853  0.6007695559326602
  0.7288701568962395  0.1013487707491637  0.4284982575094333
  0.7251984145126591  0.1023094728520145  0.6034158977490901
  0.6496583008393247  0.4082474912635790  0.4204314861600600
  0.6444488949127122  0.4111346807940449  0.6029256473611911
  0.7514686707033865  0.2216223085614923  0.5060630415255833
  0.6468520312294010  0.5336784352709476  0.4192655041038739
  0.6432231950378404  0.5318755244442457  0.6001502147632427
  0.7318662985399664  0.3467362486990335  0.5807183240207744
  0.6472240868781823  0.6588141467744268  0.4210467449806624
  0.6471727762950648  0.6580169553182403  0.5977175816307381
  0.7470308283361157  0.4697765095987974  0.4818801574880591
  0.7284124191081597  0.5945974228181824  0.4239929656693541
  0.7246352076594587  0.5916903806971600  0.6002908838286347
  0.7488156342914624  0.7211905456027263  0.5140351221161655
  0.2311271868282205  0.1630413420826541  0.4909207127871220
  0.2305107776593495  0.2843471078131586  0.4910880881291989
  0.2295566363470094  0.6584833386881966  0.4911785880154548
  0.2365982738786713  0.0364712748498615  0.4912340489225904
  0.3138367849275360  0.7845455145732068  0.4094532339439610
  0.3115844447303691  0.7845479535618679  0.5805190237840196
  0.3171306402264459  0.9097245058523523  0.4011285469867301
  0.3146527976124320  0.9098215198430100  0.5889964378013246
  0.3988178311366747  0.8469453937931541  0.4097781968045444
  0.3964273931451237  0.8469921285428983  0.5881807636745836
  0.4816825366833845  0.7844688636504689  0.4137915507989717
  0.4792841488659051  0.7843908933555642  0.5921252421066405
  0.3986957494843317  0.9726490398694616  0.4095570721841783
  0.3963331150880199  0.9728139120024590  0.5880123863263891
  0.4816327918198012  0.9097661685890492  0.4135881839794678
  0.4792581237622302  0.9098994288325165  0.5921399864049458
  0.5641200041993960  0.8471759717479986  0.4168412502327103
  0.5619689260550315  0.8470308449389612  0.5966345214896882
  0.5648901777120606  0.9724350287981774  0.4177638335152053
  0.5623667165900843  0.9725995121956628  0.5956557895475272
  0.6467677130225067  0.7839634586158708  0.4208802750724187
  0.6469200864694975  0.7840919941314197  0.5979419910048944
  0.6486579291497213  0.9101645103336297  0.4226562471246481
  0.6450348714093883  0.9100261443946075  0.5994133784983767
  0.7276578427017962  0.8473076836523005  0.4232381620131089
  0.7259895709135038  0.8474247519380222  0.6025186274924577
  0.7491046054347845  0.9733771082625895  0.5166218974302843
  0.2297232170943738  0.9106876169253971  0.4909804937755712
  0.2365294781397636  0.7846147474962915  0.4914226197441480
  0.2363924827603780  0.5325070196038338  0.4912613279370306
  0.2309715481208774  0.4057492827685031  0.4909221846308167
  0.7354514028248176  0.3219718733167005  0.4074702277958022
  0.7792340552701188  0.3258983582163848  0.3993135715276697
  0.7924083449821152  0.2877576375268501  0.3842459289231599
  0.7907285087696835  0.3386216007154392  0.4550963008943534
  0.7232055300682210  0.3134211692559457  0.3582302088389314
  0.7864158325792127  0.3555574465703257  0.3559088931919716
 
  0.00000000E+00  0.00000000E+00  0.00000000E+00
  0.00000000E+00  0.00000000E+00  0.00000000E+00
  0.00000000E+00  0.00000000E+00  0.00000000E+00
  0.00000000E+00  0.00000000E+00  0.00000000E+00
  0.00000000E+00  0.00000000E+00  0.00000000E+00
  0.00000000E+00  0.00000000E+00  0.00000000E+00
  0.00000000E+00  0.00000000E+00  0.00000000E+00
  0.00000000E+00  0.00000000E+00  0.00000000E+00
  0.00000000E+00  0.00000000E+00  0.00000000E+00
  0.00000000E+00  0.00000000E+00  0.00000000E+00
  0.00000000E+00  0.00000000E+00  0.00000000E+00
  0.00000000E+00  0.00000000E+00  0.00000000E+00
  0.00000000E+00  0.00000000E+00  0.00000000E+00
  0.00000000E+00  0.00000000E+00  0.00000000E+00
  0.00000000E+00  0.00000000E+00  0.00000000E+00
  0.00000000E+00  0.00000000E+00  0.00000000E+00
  0.00000000E+00  0.00000000E+00  0.00000000E+00
  0.00000000E+00  0.00000000E+00  0.00000000E+00
  0.00000000E+00  0.00000000E+00  0.00000000E+00
  0.00000000E+00  0.00000000E+00  0.00000000E+00
  0.00000000E+00  0.00000000E+00  0.00000000E+00
  0.00000000E+00  0.00000000E+00  0.00000000E+00
  0.00000000E+00  0.00000000E+00  0.00000000E+00
  0.00000000E+00  0.00000000E+00  0.00000000E+00
  0.00000000E+00  0.00000000E+00  0.00000000E+00
  0.00000000E+00  0.00000000E+00  0.00000000E+00
  0.00000000E+00  0.00000000E+00  0.00000000E+00
  0.00000000E+00  0.00000000E+00  0.00000000E+00
  0.00000000E+00  0.00000000E+00  0.00000000E+00
  0.00000000E+00  0.00000000E+00  0.00000000E+00
  0.00000000E+00  0.00000000E+00  0.00000000E+00
  0.00000000E+00  0.00000000E+00  0.00000000E+00
  0.00000000E+00  0.00000000E+00  0.00000000E+00
  0.00000000E+00  0.00000000E+00  0.00000000E+00
  0.00000000E+00  0.00000000E+00  0.00000000E+00
  0.00000000E+00  0.00000000E+00  0.00000000E+00
  0.00000000E+00  0.00000000E+00  0.00000000E+00
  0.00000000E+00  0.00000000E+00  0.00000000E+00
  0.00000000E+00  0.00000000E+00  0.00000000E+00
  0.00000000E+00  0.00000000E+00  0.00000000E+00
  0.00000000E+00  0.00000000E+00  0.00000000E+00
  0.00000000E+00  0.00000000E+00  0.00000000E+00
  0.00000000E+00  0.00000000E+00  0.00000000E+00
  0.00000000E+00  0.00000000E+00  0.00000000E+00
  0.00000000E+00  0.00000000E+00  0.00000000E+00
  0.00000000E+00  0.00000000E+00  0.00000000E+00
  0.00000000E+00  0.00000000E+00  0.00000000E+00
  0.00000000E+00  0.00000000E+00  0.00000000E+00
  0.00000000E+00  0.00000000E+00  0.00000000E+00
  0.00000000E+00  0.00000000E+00  0.00000000E+00
  0.00000000E+00  0.00000000E+00  0.00000000E+00
  0.00000000E+00  0.00000000E+00  0.00000000E+00
  0.00000000E+00  0.00000000E+00  0.00000000E+00
  0.00000000E+00  0.00000000E+00  0.00000000E+00
  0.00000000E+00  0.00000000E+00  0.00000000E+00
  0.00000000E+00  0.00000000E+00  0.00000000E+00
  0.00000000E+00  0.00000000E+00  0.00000000E+00
  0.00000000E+00  0.00000000E+00  0.00000000E+00
  0.00000000E+00  0.00000000E+00  0.00000000E+00
  0.00000000E+00  0.00000000E+00  0.00000000E+00
  0.00000000E+00  0.00000000E+00  0.00000000E+00
  0.00000000E+00  0.00000000E+00  0.00000000E+00
  0.00000000E+00  0.00000000E+00  0.00000000E+00
  0.00000000E+00  0.00000000E+00  0.00000000E+00
  0.00000000E+00  0.00000000E+00  0.00000000E+00
  0.00000000E+00  0.00000000E+00  0.00000000E+00
  0.00000000E+00  0.00000000E+00  0.00000000E+00
  0.00000000E+00  0.00000000E+00  0.00000000E+00
  0.00000000E+00  0.00000000E+00  0.00000000E+00
  0.00000000E+00  0.00000000E+00  0.00000000E+00
  0.00000000E+00  0.00000000E+00  0.00000000E+00
  0.00000000E+00  0.00000000E+00  0.00000000E+00
  0.00000000E+00  0.00000000E+00  0.00000000E+00
  0.00000000E+00  0.00000000E+00  0.00000000E+00
  0.00000000E+00  0.00000000E+00  0.00000000E+00
  0.00000000E+00  0.00000000E+00  0.00000000E+00
  0.00000000E+00  0.00000000E+00  0.00000000E+00
  0.00000000E+00  0.00000000E+00  0.00000000E+00
  0.00000000E+00  0.00000000E+00  0.00000000E+00
  0.00000000E+00  0.00000000E+00  0.00000000E+00
  0.00000000E+00  0.00000000E+00  0.00000000E+00
  0.00000000E+00  0.00000000E+00  0.00000000E+00
  0.00000000E+00  0.00000000E+00  0.00000000E+00
  0.00000000E+00  0.00000000E+00  0.00000000E+00
  0.00000000E+00  0.00000000E+00  0.00000000E+00
  0.00000000E+00  0.00000000E+00  0.00000000E+00
  0.00000000E+00  0.00000000E+00  0.00000000E+00
  0.00000000E+00  0.00000000E+00  0.00000000E+00
  0.00000000E+00  0.00000000E+00  0.00000000E+00
  0.00000000E+00  0.00000000E+00  0.00000000E+00
  0.00000000E+00  0.00000000E+00  0.00000000E+00
  0.00000000E+00  0.00000000E+00  0.00000000E+00
  0.00000000E+00  0.00000000E+00  0.00000000E+00
  0.00000000E+00  0.00000000E+00  0.00000000E+00
  0.00000000E+00  0.00000000E+00  0.00000000E+00
  0.00000000E+00  0.00000000E+00  0.00000000E+00
  0.00000000E+00  0.00000000E+00  0.00000000E+00
  0.00000000E+00  0.00000000E+00  0.00000000E+00
  0.00000000E+00  0.00000000E+00  0.00000000E+00
  0.00000000E+00  0.00000000E+00  0.00000000E+00
  0.00000000E+00  0.00000000E+00  0.00000000E+00
  0.00000000E+00  0.00000000E+00  0.00000000E+00
  0.00000000E+00  0.00000000E+00  0.00000000E+00
  0.00000000E+00  0.00000000E+00  0.00000000E+00
  0.00000000E+00  0.00000000E+00  0.00000000E+00
  0.00000000E+00  0.00000000E+00  0.00000000E+00
  0.00000000E+00  0.00000000E+00  0.00000000E+00
  0.00000000E+00  0.00000000E+00  0.00000000E+00
  0.00000000E+00  0.00000000E+00  0.00000000E+00
  0.00000000E+00  0.00000000E+00  0.00000000E+00
  0.00000000E+00  0.00000000E+00  0.00000000E+00
  0.00000000E+00  0.00000000E+00  0.00000000E+00
  0.00000000E+00  0.00000000E+00  0.00000000E+00
  0.00000000E+00  0.00000000E+00  0.00000000E+00
  0.00000000E+00  0.00000000E+00  0.00000000E+00
  0.00000000E+00  0.00000000E+00  0.00000000E+00
  0.00000000E+00  0.00000000E+00  0.00000000E+00
  0.00000000E+00  0.00000000E+00  0.00000000E+00
  0.00000000E+00  0.00000000E+00  0.00000000E+00
  0.00000000E+00  0.00000000E+00  0.00000000E+00
  0.00000000E+00  0.00000000E+00  0.00000000E+00
  0.00000000E+00  0.00000000E+00  0.00000000E+00
  0.00000000E+00  0.00000000E+00  0.00000000E+00
  0.00000000E+00  0.00000000E+00  0.00000000E+00
  0.00000000E+00  0.00000000E+00  0.00000000E+00
  0.00000000E+00  0.00000000E+00  0.00000000E+00
  0.00000000E+00  0.00000000E+00  0.00000000E+00
  0.00000000E+00  0.00000000E+00  0.00000000E+00
  0.00000000E+00  0.00000000E+00  0.00000000E+00
  0.00000000E+00  0.00000000E+00  0.00000000E+00
  0.00000000E+00  0.00000000E+00  0.00000000E+00
  0.00000000E+00  0.00000000E+00  0.00000000E+00
  0.00000000E+00  0.00000000E+00  0.00000000E+00
  0.00000000E+00  0.00000000E+00  0.00000000E+00
  0.00000000E+00  0.00000000E+00  0.00000000E+00
  0.00000000E+00  0.00000000E+00  0.00000000E+00
  0.00000000E+00  0.00000000E+00  0.00000000E+00
  0.00000000E+00  0.00000000E+00  0.00000000E+00
  0.00000000E+00  0.00000000E+00  0.00000000E+00
  0.00000000E+00  0.00000000E+00  0.00000000E+00
  0.00000000E+00  0.00000000E+00  0.00000000E+00
  0.00000000E+00  0.00000000E+00  0.00000000E+00
  0.00000000E+00  0.00000000E+00  0.00000000E+00
  0.00000000E+00  0.00000000E+00  0.00000000E+00
  0.00000000E+00  0.00000000E+00  0.00000000E+00
  0.00000000E+00  0.00000000E+00  0.00000000E+00
  0.00000000E+00  0.00000000E+00  0.00000000E+00
  0.00000000E+00  0.00000000E+00  0.00000000E+00
  0.00000000E+00  0.00000000E+00  0.00000000E+00
  0.00000000E+00  0.00000000E+00  0.00000000E+00
  0.00000000E+00  0.00000000E+00  0.00000000E+00
  0.00000000E+00  0.00000000E+00  0.00000000E+00
  0.00000000E+00  0.00000000E+00  0.00000000E+00
