Mo  S                                   
    1.000000000000000     
    33.0000000000000000    0.0000000000000000    0.0000000000000000
     0.0000000000000000   25.5200004577999984    0.0000000000000000
     0.0000000000000000    0.0000000000000000   17.4729003905999996
   Mo   S    O    C 
    48    98     2     1
Direct
  0.2842733798185362  0.1053124179302674  0.4984983255818448
  0.3688367479525128  0.0354402015474040  0.4994780492878075
  0.2853391959492687  0.2261546336597194  0.4985633431677995
  0.3695729357365007  0.1604604263556075  0.4994665412583336
  0.4516182918144955  0.0975532786231141  0.5005014057733091
  0.5344879187566782  0.0346988593822902  0.5014044175796795
  0.2851906163361477  0.3425791657484652  0.4984223429879038
  0.3698309205263299  0.2844908649332704  0.4993400583918030
  0.4527541367064723  0.2223668088593944  0.5002534300301398
  0.5350964030917758  0.1593334073418677  0.5011541837254140
  0.6166236441047545  0.0965551107829876  0.5015274072019114
  0.2838946557461335  0.4636090348427052  0.4983096628264226
  0.3692734945083851  0.4085073561935129  0.4993101138703292
  0.4526071653487164  0.3467714658738779  0.5001152775144453
  0.5356538156781832  0.2848350662564492  0.5005537905576201
  0.2844002570757766  0.6038198252165599  0.4983375047448630
  0.3683934033208375  0.5335308845859837  0.4994378947452706
  0.4512338799802383  0.4714103478790523  0.5004742706128213
  0.5350121754313703  0.4097773830456907  0.5010828818771175
  0.2841734973011495  0.7145865233059310  0.4983294224414865
  0.3681659430626734  0.6589414167249250  0.4993891951728966
  0.4506982236414026  0.5964791752432702  0.5006173840068079
  0.5339353537499516  0.5344648691343461  0.5022422156055072
  0.4505310117127844  0.7217557561836141  0.5003119916979758
  0.5331984101247469  0.6591381494468195  0.5016554972214036
  0.6185416575785683  0.2218202842290998  0.5007733879610298
  0.7002458701943350  0.0360925804785205  0.4987737188703914
  0.6183591003563386  0.3479587504263056  0.4995709695338063
  0.7007192628164228  0.1566007036802083  0.5062177530996279
  0.6170786155786793  0.4733984136272756  0.5032128850627904
  0.7017124705575166  0.2891358636754802  0.4976123927421729
  0.6162148868524132  0.5975121545951350  0.5056252018680867
  0.6976459893776488  0.4209005394941620  0.5013279691627740
  0.6158576528588557  0.7212769767447610  0.5015965148879004
  0.6949120802781290  0.5343878155227775  0.5109695937891255
  0.6949770491071551  0.6612550244817830  0.5085819680486087
  0.2843609818941685  0.8545464523549964  0.4983203049287042
  0.3681177519477274  0.7845147257831059  0.4993213956975319
  0.2847658621352679  0.9652443829308054  0.4983669287851197
  0.3684993429019957  0.9100585324453089  0.4993893221231168
  0.4507433094532912  0.8471232219081720  0.5003212768403694
  0.5332844682762982  0.7843989429279861  0.5009813470546123
  0.4512388967922492  0.9724151078680615  0.5005052159687825
  0.5337459037928167  0.9092516693146415  0.5013184533536262
  0.6155842839203381  0.8460982515885631  0.5018227432470512
  0.6176011287672670  0.9711673110491069  0.5018529712597553
  0.6963522878821088  0.7822449747839291  0.5037303895224471
  0.7000360618413562  0.9045283935950557  0.4954680075403030
  0.3115867620087513  0.0357411488176346  0.4131522261992980
  0.3109980926551054  0.0356740792699616  0.5843636808176829
  0.3139716164995454  0.1623656884922938  0.4075784442262885
  0.3134135612251877  0.1623581591858798  0.5901257134868370
  0.3964860690906573  0.0975585710710335  0.4101969937158745
  0.3958798098703332  0.0975840644415058  0.5894265381042219
  0.4792863377259464  0.0348041999394806  0.4116223912089049
  0.4787738196142428  0.0348130887788963  0.5900710130470096
  0.3141472008190490  0.2843968204224161  0.4066265125130426
  0.3136588381991456  0.2844623684388100  0.5909454562059162
  0.3977885276162647  0.2223325186469443  0.4103440238857027
  0.3972843012902996  0.2224252024784335  0.5890322669818328
  0.4799694706767036  0.1595406989977550  0.4112731652429228
  0.4795413973212677  0.1597358841165451  0.5900856498440487
  0.5620956180875323  0.0968193471617543  0.4113964804045722
  0.5618678311121609  0.0967869825545844  0.5914773310645889
  0.3136873509771875  0.4065277996446836  0.4074481600668238
  0.3130872766998610  0.4065593942984704  0.5899177760302837
  0.3976269220225764  0.3466888982708399  0.4102088768770125
  0.3971365206224185  0.3466839692311420  0.5889310592491506
  0.4805533878610679  0.2846097373313231  0.4107733234618342
  0.4803045623015453  0.2846790375561667  0.5898139509104426
  0.5630109659908764  0.2217215559811846  0.4118172666836302
  0.5630499623768198  0.2222546567091278  0.5900956099779923
  0.6447302552354091  0.0335325193742554  0.4125631682693521
  0.6461564141476206  0.0334463109040325  0.5896612697329882
  0.6469909995591228  0.1590558495851130  0.4138493343688935
  0.6449487085058181  0.1593215242809140  0.5912065026773103
  0.3111710389615155  0.5332626327429273  0.4130915573301764
  0.3105352182631511  0.5332752321540383  0.5842798027175394
  0.3961199128277942  0.4714688590653258  0.4101183637937245
  0.3954586995889465  0.4713546444088914  0.5893392937572797
  0.4798417467134786  0.4096328896138748  0.4111758350368417
  0.4793598918739534  0.4092983922451507  0.5898994010305060
  0.5629038886426014  0.3476599075115575  0.4110055205135715
  0.5633473130988303  0.3471976292735183  0.5897502472175300
  0.3139652873060838  0.6590318116744766  0.4047866113815779
  0.3133130003736287  0.6590589575916610  0.5926055627053859
  0.3957211922329970  0.5961210452191840  0.4105135912348924
  0.3950078162945532  0.5961499799457267  0.5891224420747443
  0.4789714795968837  0.5341876735350172  0.4118971024066507
  0.4779996805776407  0.5340300105268326  0.5903535789036704
  0.5623476385631012  0.4729564697347665  0.4125364804428248
  0.5613170875946606  0.4719093755863527  0.5919406381941087
  0.3954873952802253  0.7219586197654024  0.4104247704394554
  0.3948981090334106  0.7220208482296466  0.5888968612162371
  0.4782352078159842  0.6590456258854741  0.4114379923367321
  0.4774888678074355  0.6592730203188149  0.5902638420920335
  0.5619245192712982  0.5968703084551554  0.4135857496409275
  0.5600666555005173  0.5972052542751142  0.5926811454979343
  0.5607933303049412  0.7213770488212613  0.4118527729283372
  0.5601929423950598  0.7219504493490737  0.5907152011213758
  0.6457010932967451  0.2840436902264344  0.4113815795543058
  0.6482831306559356  0.2849134858413068  0.5877726989920594
  0.7262996410378671  0.0965258461140987  0.4132100465211020
  0.7251233176451880  0.0953279793570361  0.5929610490242642
  0.6457334972495709  0.4131432060878460  0.4109295791902556
  0.6457146657827777  0.4103475087809622  0.5919464880229008
  0.7471732901698810  0.2213879138642541  0.5238809696179098
  0.6472159251002949  0.5370965625890508  0.4143881313138306
  0.6439905634896039  0.5340617526225849  0.5993228651082640
  0.7324332402496827  0.3524746680784763  0.5679756836888239
  0.6460435966959241  0.6575625688913745  0.4138864784499199
  0.6431730038317165  0.6616655333254373  0.5971086673373021
  0.7503278412700763  0.4801641203413554  0.5096676667347900
  0.7326354684743112  0.6000679395648042  0.5703229591120054
  0.7434943849736424  0.7200331253178883  0.4692020947353110
  0.2301325802519552  0.1634184541412813  0.4979091880387350
  0.2297161743339803  0.2842842617474787  0.4982703920104460
  0.2276180780250918  0.6579656392800542  0.4976900104091317
  0.2352265258397764  0.0371116762698896  0.4978294583462486
  0.3107834515274708  0.7845318763604948  0.4131709057968229
  0.3102205280252291  0.7845290651628730  0.5841068713022223
  0.3142897492423852  0.9100173066918374  0.4047955955868573
  0.3136309666845213  0.9099686177076682  0.5926116127274164
  0.3956815093410289  0.8469877078297537  0.4104368899251523
  0.3951055371101448  0.8469489501748212  0.5889055802376146
  0.4781948330567959  0.7843749048711552  0.4112312715214420
  0.4777620713351889  0.7844235786491115  0.5898381615301158
  0.3961605216402147  0.9728451368590575  0.4105442412253621
  0.3955300138275719  0.9727923767106411  0.5890408776267420
  0.4786171669611179  0.9096869387629056  0.4113618391021159
  0.4780822511168758  0.9095952635425149  0.5901220133705261
  0.5608427223053063  0.8467033316012316  0.4115457493109445
  0.5605978695042165  0.8468058314147169  0.5912212974767982
  0.5619137932156597  0.9716814810584196  0.4125883247461654
  0.5618566380692008  0.9716107852675555  0.5905867435386043
  0.6442888211614682  0.7835303606959105  0.4121135762502136
  0.6419695815375218  0.7825818667908306  0.5925962332424795
  0.6438405912437174  0.9087146906430307  0.4119692415526451
  0.6470689364460230  0.9080573561664005  0.5890360801023701
  0.7254803085168064  0.8455399939589185  0.4115077213417577
  0.7246614039305963  0.8420241305898422  0.5878131350918493
  0.7478541064612774  0.9705695203821381  0.5009628925375234
  0.2279002888121427  0.9112524946817721  0.4975873795848678
  0.2345418712235664  0.7846533666908539  0.4978059031862603
  0.2348745864013181  0.5318553350701597  0.4976366851243715
  0.2298926066059080  0.4052864327505807  0.4973536067610775
  0.7225567732417377  0.3262795008600980  0.4063234167145505
  0.7424007722593058  0.4035602384010646  0.3544397176055058
  0.7265543623657847  0.3784980920765334  0.4052460920502422
 
  0.00000000E+00  0.00000000E+00  0.00000000E+00
  0.00000000E+00  0.00000000E+00  0.00000000E+00
  0.00000000E+00  0.00000000E+00  0.00000000E+00
  0.00000000E+00  0.00000000E+00  0.00000000E+00
  0.00000000E+00  0.00000000E+00  0.00000000E+00
  0.00000000E+00  0.00000000E+00  0.00000000E+00
  0.00000000E+00  0.00000000E+00  0.00000000E+00
  0.00000000E+00  0.00000000E+00  0.00000000E+00
  0.00000000E+00  0.00000000E+00  0.00000000E+00
  0.00000000E+00  0.00000000E+00  0.00000000E+00
  0.00000000E+00  0.00000000E+00  0.00000000E+00
  0.00000000E+00  0.00000000E+00  0.00000000E+00
  0.00000000E+00  0.00000000E+00  0.00000000E+00
  0.00000000E+00  0.00000000E+00  0.00000000E+00
  0.00000000E+00  0.00000000E+00  0.00000000E+00
  0.00000000E+00  0.00000000E+00  0.00000000E+00
  0.00000000E+00  0.00000000E+00  0.00000000E+00
  0.00000000E+00  0.00000000E+00  0.00000000E+00
  0.00000000E+00  0.00000000E+00  0.00000000E+00
  0.00000000E+00  0.00000000E+00  0.00000000E+00
  0.00000000E+00  0.00000000E+00  0.00000000E+00
  0.00000000E+00  0.00000000E+00  0.00000000E+00
  0.00000000E+00  0.00000000E+00  0.00000000E+00
  0.00000000E+00  0.00000000E+00  0.00000000E+00
  0.00000000E+00  0.00000000E+00  0.00000000E+00
  0.00000000E+00  0.00000000E+00  0.00000000E+00
  0.00000000E+00  0.00000000E+00  0.00000000E+00
  0.00000000E+00  0.00000000E+00  0.00000000E+00
  0.00000000E+00  0.00000000E+00  0.00000000E+00
  0.00000000E+00  0.00000000E+00  0.00000000E+00
  0.00000000E+00  0.00000000E+00  0.00000000E+00
  0.00000000E+00  0.00000000E+00  0.00000000E+00
  0.00000000E+00  0.00000000E+00  0.00000000E+00
  0.00000000E+00  0.00000000E+00  0.00000000E+00
  0.00000000E+00  0.00000000E+00  0.00000000E+00
  0.00000000E+00  0.00000000E+00  0.00000000E+00
  0.00000000E+00  0.00000000E+00  0.00000000E+00
  0.00000000E+00  0.00000000E+00  0.00000000E+00
  0.00000000E+00  0.00000000E+00  0.00000000E+00
  0.00000000E+00  0.00000000E+00  0.00000000E+00
  0.00000000E+00  0.00000000E+00  0.00000000E+00
  0.00000000E+00  0.00000000E+00  0.00000000E+00
  0.00000000E+00  0.00000000E+00  0.00000000E+00
  0.00000000E+00  0.00000000E+00  0.00000000E+00
  0.00000000E+00  0.00000000E+00  0.00000000E+00
  0.00000000E+00  0.00000000E+00  0.00000000E+00
  0.00000000E+00  0.00000000E+00  0.00000000E+00
  0.00000000E+00  0.00000000E+00  0.00000000E+00
  0.00000000E+00  0.00000000E+00  0.00000000E+00
  0.00000000E+00  0.00000000E+00  0.00000000E+00
  0.00000000E+00  0.00000000E+00  0.00000000E+00
  0.00000000E+00  0.00000000E+00  0.00000000E+00
  0.00000000E+00  0.00000000E+00  0.00000000E+00
  0.00000000E+00  0.00000000E+00  0.00000000E+00
  0.00000000E+00  0.00000000E+00  0.00000000E+00
  0.00000000E+00  0.00000000E+00  0.00000000E+00
  0.00000000E+00  0.00000000E+00  0.00000000E+00
  0.00000000E+00  0.00000000E+00  0.00000000E+00
  0.00000000E+00  0.00000000E+00  0.00000000E+00
  0.00000000E+00  0.00000000E+00  0.00000000E+00
  0.00000000E+00  0.00000000E+00  0.00000000E+00
  0.00000000E+00  0.00000000E+00  0.00000000E+00
  0.00000000E+00  0.00000000E+00  0.00000000E+00
  0.00000000E+00  0.00000000E+00  0.00000000E+00
  0.00000000E+00  0.00000000E+00  0.00000000E+00
  0.00000000E+00  0.00000000E+00  0.00000000E+00
  0.00000000E+00  0.00000000E+00  0.00000000E+00
  0.00000000E+00  0.00000000E+00  0.00000000E+00
  0.00000000E+00  0.00000000E+00  0.00000000E+00
  0.00000000E+00  0.00000000E+00  0.00000000E+00
  0.00000000E+00  0.00000000E+00  0.00000000E+00
  0.00000000E+00  0.00000000E+00  0.00000000E+00
  0.00000000E+00  0.00000000E+00  0.00000000E+00
  0.00000000E+00  0.00000000E+00  0.00000000E+00
  0.00000000E+00  0.00000000E+00  0.00000000E+00
  0.00000000E+00  0.00000000E+00  0.00000000E+00
  0.00000000E+00  0.00000000E+00  0.00000000E+00
  0.00000000E+00  0.00000000E+00  0.00000000E+00
  0.00000000E+00  0.00000000E+00  0.00000000E+00
  0.00000000E+00  0.00000000E+00  0.00000000E+00
  0.00000000E+00  0.00000000E+00  0.00000000E+00
  0.00000000E+00  0.00000000E+00  0.00000000E+00
  0.00000000E+00  0.00000000E+00  0.00000000E+00
  0.00000000E+00  0.00000000E+00  0.00000000E+00
  0.00000000E+00  0.00000000E+00  0.00000000E+00
  0.00000000E+00  0.00000000E+00  0.00000000E+00
  0.00000000E+00  0.00000000E+00  0.00000000E+00
  0.00000000E+00  0.00000000E+00  0.00000000E+00
  0.00000000E+00  0.00000000E+00  0.00000000E+00
  0.00000000E+00  0.00000000E+00  0.00000000E+00
  0.00000000E+00  0.00000000E+00  0.00000000E+00
  0.00000000E+00  0.00000000E+00  0.00000000E+00
  0.00000000E+00  0.00000000E+00  0.00000000E+00
  0.00000000E+00  0.00000000E+00  0.00000000E+00
  0.00000000E+00  0.00000000E+00  0.00000000E+00
  0.00000000E+00  0.00000000E+00  0.00000000E+00
  0.00000000E+00  0.00000000E+00  0.00000000E+00
  0.00000000E+00  0.00000000E+00  0.00000000E+00
  0.00000000E+00  0.00000000E+00  0.00000000E+00
  0.00000000E+00  0.00000000E+00  0.00000000E+00
  0.00000000E+00  0.00000000E+00  0.00000000E+00
  0.00000000E+00  0.00000000E+00  0.00000000E+00
  0.00000000E+00  0.00000000E+00  0.00000000E+00
  0.00000000E+00  0.00000000E+00  0.00000000E+00
  0.00000000E+00  0.00000000E+00  0.00000000E+00
  0.00000000E+00  0.00000000E+00  0.00000000E+00
  0.00000000E+00  0.00000000E+00  0.00000000E+00
  0.00000000E+00  0.00000000E+00  0.00000000E+00
  0.00000000E+00  0.00000000E+00  0.00000000E+00
  0.00000000E+00  0.00000000E+00  0.00000000E+00
  0.00000000E+00  0.00000000E+00  0.00000000E+00
  0.00000000E+00  0.00000000E+00  0.00000000E+00
  0.00000000E+00  0.00000000E+00  0.00000000E+00
  0.00000000E+00  0.00000000E+00  0.00000000E+00
  0.00000000E+00  0.00000000E+00  0.00000000E+00
  0.00000000E+00  0.00000000E+00  0.00000000E+00
  0.00000000E+00  0.00000000E+00  0.00000000E+00
  0.00000000E+00  0.00000000E+00  0.00000000E+00
  0.00000000E+00  0.00000000E+00  0.00000000E+00
  0.00000000E+00  0.00000000E+00  0.00000000E+00
  0.00000000E+00  0.00000000E+00  0.00000000E+00
  0.00000000E+00  0.00000000E+00  0.00000000E+00
  0.00000000E+00  0.00000000E+00  0.00000000E+00
  0.00000000E+00  0.00000000E+00  0.00000000E+00
  0.00000000E+00  0.00000000E+00  0.00000000E+00
  0.00000000E+00  0.00000000E+00  0.00000000E+00
  0.00000000E+00  0.00000000E+00  0.00000000E+00
  0.00000000E+00  0.00000000E+00  0.00000000E+00
  0.00000000E+00  0.00000000E+00  0.00000000E+00
  0.00000000E+00  0.00000000E+00  0.00000000E+00
  0.00000000E+00  0.00000000E+00  0.00000000E+00
  0.00000000E+00  0.00000000E+00  0.00000000E+00
  0.00000000E+00  0.00000000E+00  0.00000000E+00
  0.00000000E+00  0.00000000E+00  0.00000000E+00
  0.00000000E+00  0.00000000E+00  0.00000000E+00
  0.00000000E+00  0.00000000E+00  0.00000000E+00
  0.00000000E+00  0.00000000E+00  0.00000000E+00
  0.00000000E+00  0.00000000E+00  0.00000000E+00
  0.00000000E+00  0.00000000E+00  0.00000000E+00
  0.00000000E+00  0.00000000E+00  0.00000000E+00
  0.00000000E+00  0.00000000E+00  0.00000000E+00
  0.00000000E+00  0.00000000E+00  0.00000000E+00
  0.00000000E+00  0.00000000E+00  0.00000000E+00
  0.00000000E+00  0.00000000E+00  0.00000000E+00
  0.00000000E+00  0.00000000E+00  0.00000000E+00
  0.00000000E+00  0.00000000E+00  0.00000000E+00
  0.00000000E+00  0.00000000E+00  0.00000000E+00
  0.00000000E+00  0.00000000E+00  0.00000000E+00
  0.00000000E+00  0.00000000E+00  0.00000000E+00
