Mo  S                                   
1.0
  33.0000000000         0.0000000000         0.0000000000
   0.0000000000        25.5200004578         0.0000000000
   0.0000000000         0.0000000000        17.4729003906
Mo S O C
48 98 2 1
Cartesian
     9.399109212         2.680029918         8.692793610
    12.197046814         0.900276860         8.715811448
     9.427478840         5.770246503         8.691114127
    12.208616546         4.090989671         8.712462951
    14.922626650         2.488485123         8.739809138
    17.669620458         0.891040957         8.773859284
     9.423435992         8.744910972         8.688365515
    12.212148868         7.259150525         8.708843003
    14.944992532         5.672754108         8.734399926
    17.665124482         4.073591482         8.763353367
    20.377646257         2.496556163         8.797433447
     9.388602612        11.837308828         8.685763379
    12.199791620        10.427103798         8.706646287
    14.940384007         8.849347165         8.733628906
    17.671098912         7.267844278         8.768093490
     9.417911711        15.415132554         8.687128887
    12.183847195        13.618392300         8.705880941
    14.910285524        12.030200663         8.731984938
    17.663026572        10.448979975         8.772345735
     9.416156627        18.238457174         8.689315506
    12.186809157        16.817708066         8.707177866
    14.907871065        15.220912793         8.731465824
    17.649654975        13.630933697         8.770592669
    14.908942629        18.418749599         8.730399796
    17.637249116        16.816370592         8.762630879
    20.392121074         5.692587494         8.786969622
    23.155406849         0.976211171         8.681687862
    20.399406010         8.867260700         8.855016980
    23.043658499         4.120631615         8.842493674
    20.384423892        12.044161971         8.807202239
    23.003983443         7.234587631         8.907640153
    20.377013903        15.221938713         8.849841246
    22.975709121        10.507469222         8.903233867
    20.363255990        18.394782987         8.777636032
    22.963413726        13.594199716         8.901248761
    22.975038910        16.857548509         8.896510383
     9.421255388        21.805007636         8.692689079
    12.188859237        20.021326191         8.709793248
     9.427980657        24.626880674         8.694485370
    12.197025952        23.223055528         8.714894600
    14.917108877        21.620152317         8.736708726
    17.641288384        20.017158538         8.757190111
    14.925632542        24.816978399         8.742442744
    17.658980977        23.210341339         8.771198511
    20.357879950        21.593872399         8.790754548
    20.429248737        24.805787195         8.797043971
    23.017077232        19.961821907         8.829883703
    23.143739065        23.103897946         8.677072110
    10.309489023         0.905652800         7.204814451
    10.286063631         0.906832442        10.196536540
    10.377044221         4.138610113         7.104694684
    10.353250324         4.141070600        10.293310231
    13.107301413         2.485593568         7.156577922
    13.078634964         2.488801427        10.287961200
    15.855334374         0.889646122         7.193883027
    15.820577192         0.891592903        10.310823748
    10.378701581         7.256925632         7.085521870
    10.356663513         7.259806277        10.307026091
    13.138653014         5.670991333         7.156085857
    13.111145434         5.674177062        10.279657313
    15.856382250         4.072331672         7.182135311
    15.825917072         4.076000393        10.308474358
    18.581874332         2.481432038         7.209095905
    18.555727945         2.481116713        10.348714610
    10.367713877        10.376530457         7.099112826
    10.344512493        10.378313520        10.287595385
    13.135110446         8.846440594         7.153548761
    13.105466294         8.848096645        10.277667767
    15.871175214         7.263151326         7.179324500
    15.831865282         7.262552442        10.309482786
    18.588358721         5.677198405         7.205641359
    18.552093189         5.667985198        10.333332833
    21.301130106         0.886085898         7.229713991
    21.407645029         0.896515111        10.316434682
    21.336295208         4.093978388         7.233664453
    21.246467878         4.126212041        10.384716262
    10.295803886        13.613240301         7.196663792
    10.274283162        13.612567783        10.187957771
    13.095801815        12.030837614         7.148039232
    13.065629708        12.031535220        10.279932321
    15.858330154        10.446909072         7.182803608
    15.813642013        10.448092407        10.307025570
    18.616344555         8.862789500         7.233779958
    18.539661739         8.858573845        10.362611250
    10.398682763        16.822245230         7.053239481
    10.375681493        16.820053277        10.336423935
    13.095356062        15.214328633         7.154119396
    13.066647764        15.213423373        10.274424429
    15.840725521        13.627018052         7.184762476
    15.797139030        13.627747545        10.302566144
    18.587342261        12.042497534         7.214598265
    18.534131507        12.043850940        10.346835852
    13.095099618        18.426757644         7.155878056
    13.069299367        18.424557039        10.274316181
    15.828375925        16.818415451         7.178699323
    15.791769314        16.820572419        10.301882806
    18.588913013        15.222332950         7.230462356
    18.514473520        15.229663275        10.357058129
    18.554354504        18.408186217         7.199606699
    18.521924742        18.417858906        10.324617295
    21.399399764         7.321945952         7.256331518
    21.292133980         7.225474610        10.450603479
    23.994531151         2.499753582         7.226709358
    23.972358887         2.575061026        10.295519245
    21.374182518        10.425297532         7.257085726
    21.284123317        10.504957633        10.465219642
    24.555662085         5.736735894         8.153573698
    21.361511571        13.666657121         7.254815484
    21.271519939        13.591761480        10.462692428
    24.246145814         8.881897113         9.937356815
    21.368514617        16.766171758         7.246080708
    21.265556848        16.866219546        10.442735854
    24.481142101        12.055223431         8.117272059
    24.226653517        15.221638848         9.935343598
    24.532424916        18.349011402         8.142650335
     7.611008152         4.163926510         8.679628606
     7.592665085         7.256006094         8.680878869
     7.546181451        16.798465178         8.678372314
     7.786406667         0.936809849         8.682231165
    10.297338624        20.022848339         7.202577203
    10.277015923        20.020089396        10.190909780
    10.408959089        23.221617271         7.059896010
    10.384060816        23.219245650        10.342508942
    13.103193255        21.617673871         7.160987021
    13.075855617        21.612950574        10.279057609
    15.829430751        20.020371457         7.180783366
    15.802390483        20.016055812        10.300601775
    13.111341829        24.825475325         7.164870299
    13.081720960        24.824688011        10.283465476
    15.845703426        23.220080309         7.189810169
    15.812018366        23.215027557        10.310810055
    18.559496737        21.612947470         7.205112768
    18.535933664        21.609616602        10.341701958
    18.595390291        24.809333637         7.228769987
    18.580409565        24.806695273        10.335851502
    21.306505565        19.994305767         7.223969790
    21.221014663        19.960386773        10.374536941
    21.289098124        23.203121667         7.226475930
    21.396391889        23.186499172        10.312505918
    23.973394283        21.581010783         7.216752266
    23.953535131        21.500042673        10.287069773
    24.717621108        24.796060738         8.644268544
     7.553734909        23.246546067         8.683244477
     7.776415638        20.023426642         8.680994333
     7.776910898        13.582081034         8.675761972
     7.603692731        10.349567807         8.674872953
    23.100000000         8.398000000         7.252500000
    23.100000000        10.718000000         7.252500000
    23.100000000         9.558000000         7.252500000 
     
     
     
