H4 W48 Se97 C1 O1                       
    1.000000000000000     
    33.0000000000000000    0.0000000000000000    0.0000000000000000
     0.0000000000000000   26.2560005200000006    0.0000000000000000
     0.0000000000000000    0.0000000000000000   18.1299999999999990
   W    Se   O    C    H 
    48    97     1     1     4
Direct
  0.2799757943040807  0.0461475991306526  0.4996035459178726
  0.2853609094215915  0.2785410681557844  0.5000476882597628
  0.2803664396512608  0.5446998848202010  0.5007355821433020
  0.2856322091435420  0.7776984298062180  0.5002376431692374
  0.4531438805859776  0.0357348639862276  0.4985173891901468
  0.4541015860769353  0.2862978268945353  0.4988088478517156
  0.4538271506107642  0.5351241080170760  0.4991637846418885
  0.4539467217650927  0.7856557235539140  0.4988543729475998
  0.6258435557180839  0.0360640516097947  0.4974246100073560
  0.6271376481192995  0.2875585702836637  0.4977707685937168
  0.6277111943041739  0.5325083622077086  0.4980988952796103
  0.6260787480799065  0.7851635891792650  0.4974499968359604
  0.2853989871125990  0.1679522814123174  0.4997137027181260
  0.2801487532949170  0.4010432037518971  0.5005125492099647
  0.2855895378139153  0.6671162899411951  0.5005040052791067
  0.2799915894373446  0.8994531963060194  0.4999796172320485
  0.4539567006295643  0.1605172915925660  0.4985907298469280
  0.4536191426161887  0.4103069351188027  0.4990884233279745
  0.4543225058036179  0.6596583857423471  0.4990787601609398
  0.4534421357322128  0.9102501794770834  0.4986695047746219
  0.6262632060243086  0.1615625567209663  0.4975853955433931
  0.6275466289788481  0.4098267333840485  0.4978592739783884
  0.6267592106670515  0.6596144154666684  0.4977018096594094
  0.6269134012722687  0.9106751099669820  0.4973982588757843
  0.3677339386315095  0.2231956100954553  0.4992764612829682
  0.3660603760898202  0.4728343660388707  0.4998996815121579
  0.3679180979307610  0.7226234200617361  0.4997383923299187
  0.3656513005100961  0.9729318423228818  0.4991524546109375
  0.5400524237167663  0.2239112289561395  0.4981269128188165
  0.5410672719699908  0.4724866596603614  0.4985072237517345
  0.5400719499006456  0.7224602462971340  0.4982336834618384
  0.5400281268268813  0.9730259323792328  0.4980131837590289
  0.7072500876829424  0.2154808941998904  0.4973781436682096
  0.7026099160440180  0.4597423368426727  0.4991735069949259
  0.7129122995505571  0.7144746693468513  0.4968289703623774
  0.7140982751521013  0.9661013431285644  0.4967572118440091
  0.3674409410792335  0.0986250307117949  0.4990482939902897
  0.3678434991069103  0.3476904397042432  0.4996383505692123
  0.3680762505221021  0.5980945438291785  0.4999071014527063
  0.3675516836755482  0.8473208503145779  0.4994506802976610
  0.5395763115613968  0.0983771380549027  0.4980033334216393
  0.5408914073921373  0.3486288311776280  0.4983137320751758
  0.5401066577722911  0.5969231711450291  0.4984780491489199
  0.5402885582596897  0.8481557504771492  0.4980838146813220
  0.7124985325664807  0.1072120986840616  0.4970312822566294
  0.6977841068431521  0.3637884325730527  0.4986198713043606
  0.7083634837103573  0.6058549120723062  0.4970928658116409
  0.7141881508685998  0.8556508092646664  0.4967004731899925
  0.2516891287885424  0.1054962309499919  0.5910118077979017
  0.2520027438806139  0.3410387155329348  0.5915065825651665
  0.2522772617001730  0.6045436082810237  0.5920013616013714
  0.2518812679741572  0.8400506996012480  0.5915038329778048
  0.4249263552030197  0.0980963729394668  0.5921872125569575
  0.4252459558658157  0.3482463820221402  0.5929473196495206
  0.4255703405303348  0.5974561942466113  0.5929880517504266
  0.4251006819689033  0.8481051195339807  0.5924999513581604
  0.5972612223233812  0.0982543036788992  0.5905695583918336
  0.5994993347665242  0.3492696724796693  0.5929776328476876
  0.5982781207337086  0.5957064446969697  0.5900727054580001
  0.5982374323925760  0.8479221828680088  0.5906967495717113
  0.4258085190933896  0.2232684793002331  0.5919012452211341
  0.4244134591531062  0.4727132223726890  0.5920667609662759
  0.4260509369332386  0.7226876021166412  0.5922456726471901
  0.4240313527487442  0.9729456654021542  0.5912310632807452
  0.5978759112039834  0.2250619008612689  0.5904050017584982
  0.5998535998584043  0.4713522857312913  0.5930779242568063
  0.5977771536906884  0.7227976837004337  0.5907318902117479
  0.5980208529403988  0.9733370423045277  0.5906572283595283
  0.3365673093112856  0.0356367667859190  0.5921312121658964
  0.3395409055454594  0.2849487416261227  0.5951295602727583
  0.3371124320988999  0.5354057769974322  0.5930978424231145
  0.3396751414505377  0.7845533278929392  0.5953976185482108
  0.5110131072168257  0.0354442691862964  0.5911604537975566
  0.5118287349939967  0.2864368616061156  0.5916986651099071
  0.5117589044645107  0.5344463127267396  0.5919750298493779
  0.5117399827644786  0.7855587902459041  0.5913780987334725
  0.6864706433887962  0.0362726703020052  0.5856098963901590
  0.6889515135620652  0.2868893566873627  0.5888394952287365
  0.6886582065806670  0.5353590764640148  0.5897633014355864
  0.6867414259111629  0.7852457719002103  0.5855366198234063
  0.3394068623686711  0.1612922422942469  0.5949208233902238
  0.3368404816127209  0.4103252618329169  0.5929328672150637
  0.3397974517024190  0.6607590934959535  0.5955278988781814
  0.3365766047463978  0.9103437874586940  0.5924167397447130
  0.5115737522175117  0.1609661775512776  0.5916057736547126
  0.5116618091630715  0.4106013176069145  0.5915613158107277
  0.5120072622744191  0.6598957536862914  0.5920015533666112
  0.5114245683028257  0.9106121157726185  0.5914509674747156
  0.6812214892316112  0.1598836937824107  0.5979232213921177
  0.7340247619348691  0.4083999935729271  0.5996079170989209
  0.6819160415144618  0.6614431308366402  0.5974695578781382
  0.6839109714873048  0.9107897333482883  0.5948939133686957
  0.2513383219448881  0.1055520215028999  0.4086636235009865
  0.2515490233951854  0.3413399405095351  0.4095330962160265
  0.2517542451338797  0.6044220331874960  0.4098301916078860
  0.2514621597509960  0.8399227097342947  0.4091114360141319
  0.4245746962581807  0.0981362912563827  0.4052025888118043
  0.4247905500836437  0.3484185972519332  0.4054154239830120
  0.4250448164298513  0.5973831873188743  0.4057821401108980
  0.4246357696357574  0.8479487450111970  0.4054539717586941
  0.5969440322767532  0.0983551085148876  0.4047608767200633
  0.5992060347335744  0.3493461550213224  0.4029053575235035
  0.5979378058048794  0.5954816280118769  0.4061499174400981
  0.5978021417378563  0.8478782167367169  0.4045963254645614
  0.2259282637458642  0.2233853928759433  0.5001292977198267
  0.2330421580570046  0.4729308621530977  0.5012451262375303
  0.2261541592459199  0.7222475201533025  0.5006010014486458
  0.2342397005338573  0.9727944087747581  0.5000845573670472
  0.4254577038676298  0.2234169294088556  0.4058859224031849
  0.4239284010533561  0.4727459878120237  0.4067570980583047
  0.4255613890072428  0.7225427537328739  0.4062572988676544
  0.4236585550778010  0.9728228699673854  0.4063261383404831
  0.5976319786627393  0.2251890716627371  0.4052414963243085
  0.5995242730300672  0.4714087349806236  0.4032243916294005
  0.5973421011328239  0.7226315756862631  0.4048656128853100
  0.5976334991380785  0.9733409725817617  0.4045944539899897
  0.3361793124435412  0.0355812256879804  0.4063082882445529
  0.3390980145054345  0.2851977656380627  0.4042222385649792
  0.3365792696046715  0.5354044444349243  0.4073201422181889
  0.3392043790813359  0.7843661231291885  0.4042555986753605
  0.5106613622261458  0.0354441600758906  0.4051764116428709
  0.5114488258230018  0.2865823534098995  0.4050575569168979
  0.5113231032744241  0.5344307827491553  0.4054191956897640
  0.5112958997956968  0.7854378930355942  0.4053364355358207
  0.6861720163868289  0.0363973826397708  0.4084476843559836
  0.6890940740482027  0.2875908905872404  0.4068813727603329
  0.6883762524699754  0.5343644351259561  0.4064457367212173
  0.6863394927264790  0.7851545358099130  0.4083583883671453
  0.3390168811779334  0.1614433687814799  0.4037680988946002
  0.3363321347004720  0.4104587845596134  0.4071526706519015
  0.3393115001657347  0.6606307707046876  0.4046330839817062
  0.3361671833045290  0.9101654839070986  0.4066723171324080
  0.5112421376937339  0.1610883260138272  0.4049067909200523
  0.5112642864904988  0.4107130997280330  0.4057654708914198
  0.5115381456694860  0.6596965354358373  0.4051878430459104
  0.5110065041402876  0.9105506865138056  0.4051117771264599
  0.6809391118644609  0.1601579643147995  0.3967429332841326
  0.7364842776440016  0.4095324111524934  0.4004819700003716
  0.6814240490490334  0.6611648908541770  0.3968924956722898
  0.6834689165652905  0.9108134434607394  0.3990182208699994
  0.7750392670462752  0.9109593199214591  0.4961490192073533
  0.7675651453064498  0.7815916137952201  0.4963252374122460
  0.7722107405054993  0.6490189244750101  0.4967224069519721
  0.7715484464688286  0.1738285659546371  0.4971127310833328
  0.7673882657879445  0.0404895314544382  0.4965747449240629
  0.7693990245849893  0.5080003204440228  0.4966215481521520
  0.7980444208526296  0.5102970598672604  0.5572647485724963
  0.8241300218925753  0.5337999820739506  0.5412040147349803
  0.8077734536204291  0.4719323045803110  0.5737227679144834
  0.7822545524128225  0.4908485841021060  0.4548158056420278
  0.7821114462648799  0.5285146884491555  0.6032320674659878
 
  0.00000000E+00  0.00000000E+00  0.00000000E+00
  0.00000000E+00  0.00000000E+00  0.00000000E+00
  0.00000000E+00  0.00000000E+00  0.00000000E+00
  0.00000000E+00  0.00000000E+00  0.00000000E+00
  0.00000000E+00  0.00000000E+00  0.00000000E+00
  0.00000000E+00  0.00000000E+00  0.00000000E+00
  0.00000000E+00  0.00000000E+00  0.00000000E+00
  0.00000000E+00  0.00000000E+00  0.00000000E+00
  0.00000000E+00  0.00000000E+00  0.00000000E+00
  0.00000000E+00  0.00000000E+00  0.00000000E+00
  0.00000000E+00  0.00000000E+00  0.00000000E+00
  0.00000000E+00  0.00000000E+00  0.00000000E+00
  0.00000000E+00  0.00000000E+00  0.00000000E+00
  0.00000000E+00  0.00000000E+00  0.00000000E+00
  0.00000000E+00  0.00000000E+00  0.00000000E+00
  0.00000000E+00  0.00000000E+00  0.00000000E+00
  0.00000000E+00  0.00000000E+00  0.00000000E+00
  0.00000000E+00  0.00000000E+00  0.00000000E+00
  0.00000000E+00  0.00000000E+00  0.00000000E+00
  0.00000000E+00  0.00000000E+00  0.00000000E+00
  0.00000000E+00  0.00000000E+00  0.00000000E+00
  0.00000000E+00  0.00000000E+00  0.00000000E+00
  0.00000000E+00  0.00000000E+00  0.00000000E+00
  0.00000000E+00  0.00000000E+00  0.00000000E+00
  0.00000000E+00  0.00000000E+00  0.00000000E+00
  0.00000000E+00  0.00000000E+00  0.00000000E+00
  0.00000000E+00  0.00000000E+00  0.00000000E+00
  0.00000000E+00  0.00000000E+00  0.00000000E+00
  0.00000000E+00  0.00000000E+00  0.00000000E+00
  0.00000000E+00  0.00000000E+00  0.00000000E+00
  0.00000000E+00  0.00000000E+00  0.00000000E+00
  0.00000000E+00  0.00000000E+00  0.00000000E+00
  0.00000000E+00  0.00000000E+00  0.00000000E+00
  0.00000000E+00  0.00000000E+00  0.00000000E+00
  0.00000000E+00  0.00000000E+00  0.00000000E+00
  0.00000000E+00  0.00000000E+00  0.00000000E+00
  0.00000000E+00  0.00000000E+00  0.00000000E+00
  0.00000000E+00  0.00000000E+00  0.00000000E+00
  0.00000000E+00  0.00000000E+00  0.00000000E+00
  0.00000000E+00  0.00000000E+00  0.00000000E+00
  0.00000000E+00  0.00000000E+00  0.00000000E+00
  0.00000000E+00  0.00000000E+00  0.00000000E+00
  0.00000000E+00  0.00000000E+00  0.00000000E+00
  0.00000000E+00  0.00000000E+00  0.00000000E+00
  0.00000000E+00  0.00000000E+00  0.00000000E+00
  0.00000000E+00  0.00000000E+00  0.00000000E+00
  0.00000000E+00  0.00000000E+00  0.00000000E+00
  0.00000000E+00  0.00000000E+00  0.00000000E+00
  0.00000000E+00  0.00000000E+00  0.00000000E+00
  0.00000000E+00  0.00000000E+00  0.00000000E+00
  0.00000000E+00  0.00000000E+00  0.00000000E+00
  0.00000000E+00  0.00000000E+00  0.00000000E+00
  0.00000000E+00  0.00000000E+00  0.00000000E+00
  0.00000000E+00  0.00000000E+00  0.00000000E+00
  0.00000000E+00  0.00000000E+00  0.00000000E+00
  0.00000000E+00  0.00000000E+00  0.00000000E+00
  0.00000000E+00  0.00000000E+00  0.00000000E+00
  0.00000000E+00  0.00000000E+00  0.00000000E+00
  0.00000000E+00  0.00000000E+00  0.00000000E+00
  0.00000000E+00  0.00000000E+00  0.00000000E+00
  0.00000000E+00  0.00000000E+00  0.00000000E+00
  0.00000000E+00  0.00000000E+00  0.00000000E+00
  0.00000000E+00  0.00000000E+00  0.00000000E+00
  0.00000000E+00  0.00000000E+00  0.00000000E+00
  0.00000000E+00  0.00000000E+00  0.00000000E+00
  0.00000000E+00  0.00000000E+00  0.00000000E+00
  0.00000000E+00  0.00000000E+00  0.00000000E+00
  0.00000000E+00  0.00000000E+00  0.00000000E+00
  0.00000000E+00  0.00000000E+00  0.00000000E+00
  0.00000000E+00  0.00000000E+00  0.00000000E+00
  0.00000000E+00  0.00000000E+00  0.00000000E+00
  0.00000000E+00  0.00000000E+00  0.00000000E+00
  0.00000000E+00  0.00000000E+00  0.00000000E+00
  0.00000000E+00  0.00000000E+00  0.00000000E+00
  0.00000000E+00  0.00000000E+00  0.00000000E+00
  0.00000000E+00  0.00000000E+00  0.00000000E+00
  0.00000000E+00  0.00000000E+00  0.00000000E+00
  0.00000000E+00  0.00000000E+00  0.00000000E+00
  0.00000000E+00  0.00000000E+00  0.00000000E+00
  0.00000000E+00  0.00000000E+00  0.00000000E+00
  0.00000000E+00  0.00000000E+00  0.00000000E+00
  0.00000000E+00  0.00000000E+00  0.00000000E+00
  0.00000000E+00  0.00000000E+00  0.00000000E+00
  0.00000000E+00  0.00000000E+00  0.00000000E+00
  0.00000000E+00  0.00000000E+00  0.00000000E+00
  0.00000000E+00  0.00000000E+00  0.00000000E+00
  0.00000000E+00  0.00000000E+00  0.00000000E+00
  0.00000000E+00  0.00000000E+00  0.00000000E+00
  0.00000000E+00  0.00000000E+00  0.00000000E+00
  0.00000000E+00  0.00000000E+00  0.00000000E+00
  0.00000000E+00  0.00000000E+00  0.00000000E+00
  0.00000000E+00  0.00000000E+00  0.00000000E+00
  0.00000000E+00  0.00000000E+00  0.00000000E+00
  0.00000000E+00  0.00000000E+00  0.00000000E+00
  0.00000000E+00  0.00000000E+00  0.00000000E+00
  0.00000000E+00  0.00000000E+00  0.00000000E+00
  0.00000000E+00  0.00000000E+00  0.00000000E+00
  0.00000000E+00  0.00000000E+00  0.00000000E+00
  0.00000000E+00  0.00000000E+00  0.00000000E+00
  0.00000000E+00  0.00000000E+00  0.00000000E+00
  0.00000000E+00  0.00000000E+00  0.00000000E+00
  0.00000000E+00  0.00000000E+00  0.00000000E+00
  0.00000000E+00  0.00000000E+00  0.00000000E+00
  0.00000000E+00  0.00000000E+00  0.00000000E+00
  0.00000000E+00  0.00000000E+00  0.00000000E+00
  0.00000000E+00  0.00000000E+00  0.00000000E+00
  0.00000000E+00  0.00000000E+00  0.00000000E+00
  0.00000000E+00  0.00000000E+00  0.00000000E+00
  0.00000000E+00  0.00000000E+00  0.00000000E+00
  0.00000000E+00  0.00000000E+00  0.00000000E+00
  0.00000000E+00  0.00000000E+00  0.00000000E+00
  0.00000000E+00  0.00000000E+00  0.00000000E+00
  0.00000000E+00  0.00000000E+00  0.00000000E+00
  0.00000000E+00  0.00000000E+00  0.00000000E+00
  0.00000000E+00  0.00000000E+00  0.00000000E+00
  0.00000000E+00  0.00000000E+00  0.00000000E+00
  0.00000000E+00  0.00000000E+00  0.00000000E+00
  0.00000000E+00  0.00000000E+00  0.00000000E+00
  0.00000000E+00  0.00000000E+00  0.00000000E+00
  0.00000000E+00  0.00000000E+00  0.00000000E+00
  0.00000000E+00  0.00000000E+00  0.00000000E+00
  0.00000000E+00  0.00000000E+00  0.00000000E+00
  0.00000000E+00  0.00000000E+00  0.00000000E+00
  0.00000000E+00  0.00000000E+00  0.00000000E+00
  0.00000000E+00  0.00000000E+00  0.00000000E+00
  0.00000000E+00  0.00000000E+00  0.00000000E+00
  0.00000000E+00  0.00000000E+00  0.00000000E+00
  0.00000000E+00  0.00000000E+00  0.00000000E+00
  0.00000000E+00  0.00000000E+00  0.00000000E+00
  0.00000000E+00  0.00000000E+00  0.00000000E+00
  0.00000000E+00  0.00000000E+00  0.00000000E+00
  0.00000000E+00  0.00000000E+00  0.00000000E+00
  0.00000000E+00  0.00000000E+00  0.00000000E+00
  0.00000000E+00  0.00000000E+00  0.00000000E+00
  0.00000000E+00  0.00000000E+00  0.00000000E+00
  0.00000000E+00  0.00000000E+00  0.00000000E+00
  0.00000000E+00  0.00000000E+00  0.00000000E+00
  0.00000000E+00  0.00000000E+00  0.00000000E+00
  0.00000000E+00  0.00000000E+00  0.00000000E+00
  0.00000000E+00  0.00000000E+00  0.00000000E+00
  0.00000000E+00  0.00000000E+00  0.00000000E+00
  0.00000000E+00  0.00000000E+00  0.00000000E+00
  0.00000000E+00  0.00000000E+00  0.00000000E+00
  0.00000000E+00  0.00000000E+00  0.00000000E+00
  0.00000000E+00  0.00000000E+00  0.00000000E+00
  0.00000000E+00  0.00000000E+00  0.00000000E+00
  0.00000000E+00  0.00000000E+00  0.00000000E+00
  0.00000000E+00  0.00000000E+00  0.00000000E+00
  0.00000000E+00  0.00000000E+00  0.00000000E+00
  0.00000000E+00  0.00000000E+00  0.00000000E+00
  0.00000000E+00  0.00000000E+00  0.00000000E+00
