H4 W48 Se97 C1 O1
1.0
  33.0000000000000000    0.0000000000000000    0.0000000000000000
   0.0000000000000000   26.2560005200000006    0.0000000000000000
   0.0000000000000000    0.0000000000000000   18.1299999999999990
W Se O C H
48 97 1 1 4
direct
   0.2804422900000000    0.0459469700000000    0.4999963200000000 W
   0.2856420100000000    0.2783563300000000    0.4999994900000000 W
   0.2804715500000000    0.5450312300000000    0.5000007100000000 W
   0.2856766900000000    0.7782492200000000    0.4999954100000000 W
   0.4536276400000000    0.0358220300000000    0.4999952400000000 W
   0.4544774200000000    0.2863189200000000    0.4999927300000000 W
   0.4537960700000000    0.5352075300000000    0.4999958300000000 W
   0.4540647100000000    0.7857596700000000    0.4999965000000000 W
   0.6263401100000000    0.0358336200000000    0.4999970200000000 W
   0.6277091800000000    0.2877239400000000    0.4999930800000000 W
   0.6275009300000000    0.5332108400000000    0.4999977500000000 W
   0.6262814200000000    0.7848851300000000    0.5000011000000000 W
   0.2857875500000000    0.1680058600000000    0.4999991700000000 W
   0.2803754400000000    0.4008973500000000    0.4999925500000000 W
   0.2855624700000000    0.6674938400000000    0.5000022900000000 W
   0.2803168200000000    0.9003479100000000    0.5000006400000000 W
   0.4544572600000000    0.1606367100000000    0.4999973200000000 W
   0.4538277200000000    0.4103025400000000    0.4999943800000000 W
   0.4542944000000000    0.6597575600000000    0.4999972100000000 W
   0.4538238500000000    0.9103455400000000    0.4999957300000000 W
   0.6268366500000000    0.1614804500000000    0.4999957700000000 W
   0.6276557400000000    0.4104989300000000    0.4999981300000000 W
   0.6266274600000000    0.6592268400000000    0.5000005199999999 W
   0.6272874700000000    0.9103766900000000    0.5000034500000000 W
   0.3681465900000000    0.2232943000000000    0.4999953200000000 W
   0.3661695500000000    0.4729312300000000    0.4999959000000000 W
   0.3679631700000000    0.7228626100000000    0.5000018300000000 W
   0.3661412900000000    0.9731188400000000    0.4999980100000000 W
   0.5405254800000000    0.2239922000000000    0.4999945000000000 W
   0.5409794300000000    0.4723414600000000    0.4999955900000000 W
   0.5400913700000000    0.7225048600000000    0.4999933100000000 W
   0.5404571900000000    0.9729748200000000    0.4999984900000000 W
   0.7078656100000000    0.2150419900000000    0.4999907300000000 W
   0.6992734900000001    0.4583438400000000    0.4999956700000000 W
   0.7128771300000000    0.7137197500000000    0.5000264200000000 W
   0.7145098900000000    0.9654836800000000    0.5000097999999999 W
   0.3680268100000000    0.0988523700000000    0.4999949100000000 W
   0.3680573900000000    0.3477427800000000    0.4999946900000000 W
   0.3680750500000000    0.5982620500000000    0.5000019900000000 W
   0.3678411700000000    0.8475762900000000    0.5000023200000000 W
   0.5400851500000000    0.0983292100000000    0.4999985600000000 W
   0.5412011600000000    0.3487197100000000    0.4999936800000000 W
   0.5402107000000000    0.5968611100000000    0.4999944500000000 W
   0.5405103300000000    0.8480589800000000    0.4999941100000000 W
   0.7129942300000000    0.1067234000000000    0.4999987600000000 W
   0.6994256500000000    0.3625269600000000    0.4999917400000000 W
   0.7075491300000000    0.6054454600000000    0.5000099099999999 W
   0.7145082100000000    0.8549577200000000    0.5000283700000000 W
   0.2520312200000000    0.1054097300000000    0.5911418800000000 Se
   0.2520380000000000    0.3410487800000000    0.5909626300000000 Se
   0.2520841100000000    0.6048050699999999    0.5910641000000000 Se
   0.2519308000000000    0.8407608600000001    0.5910776400000000 Se
   0.4253107800000000    0.0982460100000000    0.5935112500000000 Se
   0.4252537900000000    0.3483092700000000    0.5937166600000000 Se
   0.4252900000000000    0.5975422900000000    0.5936129500000000 Se
   0.4251314800000000    0.8482078900000000    0.5935446000000000 Se
   0.5976335800000000    0.0981693300000000    0.5928683800000000 Se
   0.5997819200000000    0.3493516600000000    0.5949894600000000 Se
   0.5979732000000000    0.5956988100000000    0.5925040800000000 Se
   0.5982514900000000    0.8476749400000000    0.5930025900000000 Se
   0.4260154800000000    0.2234163700000000    0.5930336700000000 Se
   0.4242667800000000    0.4727331000000000    0.5926381200000000 Se
   0.4258193000000000    0.7227705900000000    0.5930042200000000 Se
   0.4243070700000000    0.9729953900000000    0.5924925800000000 Se
   0.5982718700000000    0.2251301500000000    0.5924770300000000 Se
   0.5995663000000000    0.4716352100000000    0.5949028800000000 Se
   0.5975724500000000    0.7225851200000000    0.5929067500000000 Se
   0.5982564700000000    0.9731555500000000    0.5930170600000000 Se
   0.3369523500000000    0.0358763300000000    0.5928193400000000 Se
   0.3395877400000000    0.2850931200000000    0.5954413300000000 Se
   0.3369054200000000    0.5355318800000000    0.5929137900000000 Se
   0.3395505600000000    0.7847766500000000    0.5955274900000000 Se
   0.5112858300000001    0.0354296600000000    0.5930188900000000 Se
   0.5120356700000001    0.2865308200000000    0.5933467500000000 Se
   0.5114747600000000    0.5343900900000000    0.5932373700000000 Se
   0.5115920100000000    0.7855243600000000    0.5930923900000000 Se
   0.6868021100000000    0.0358384200000000    0.5885693200000000 Se
   0.6896935800000000    0.2868873400000000    0.5911937400000000 Se
   0.6894000300000001    0.5337656600000000    0.5913711900000000 Se
   0.6867482499999999    0.7846407600000000    0.5885531100000000 Se
   0.3396329600000000    0.1614940900000000    0.5955798400000000 Se
   0.3367772100000000    0.4104592200000000    0.5928929200000000 Se
   0.3395503000000000    0.6609529800000000    0.5954004800000000 Se
   0.3367524700000000    0.9105287700000000    0.5928860700000000 Se
   0.5119372800000001    0.1610546300000000    0.5933072800000000 Se
   0.5116068600000000    0.4105393500000000    0.5930145200000000 Se
   0.5117642700000000    0.6598272300000000    0.5933032499999999 Se
   0.5115918800000000    0.9105752499999999    0.5931763500000000 Se
   0.6816429600000000    0.1596845400000000    0.6005866200000000 Se
   0.7360512100000000    0.4104016800000000    0.5974235600000000 Se
   0.6814165000000000    0.6608763000000000    0.6005883100000000 Se
   0.6840815700000000    0.9102462500000000    0.5979625400000000 Se
   0.2520331200000000    0.1054125200000000    0.4088608500000000 Se
   0.2520421200000000    0.3410414300000000    0.4090306700000000 Se
   0.2520856700000000    0.6047964500000000    0.4089304000000000 Se
   0.2519351000000000    0.8407770500000000    0.4089125300000000 Se
   0.4253119600000000    0.0982449700000000    0.4064885300000000 Se
   0.4252541200000000    0.3483093000000000    0.4062787800000000 Se
   0.4252914300000000    0.5975461700000000    0.4063859100000000 Se
   0.4251339400000000    0.8482076700000000    0.4064612900000000 Se
   0.5976321400000000    0.0981646300000000    0.4071305500000000 Se
   0.5997802400000000    0.3493516500000000    0.4050066800000000 Se
   0.5979742800000000    0.5957005500000000    0.4074989400000000 Se
   0.5982522200000000    0.8476762000000000    0.4070025600000000 Se
   0.2261979600000000    0.2231759800000000    0.4999991100000000 Se
   0.2334474300000000    0.4729878300000000    0.4999957800000000 Se
   0.2262137900000000    0.7228559300000000    0.4999145800000000 Se
   0.2340948000000000    0.9732098400000000    0.4999809800000000 Se
   0.4260162200000000    0.2234132100000000    0.4069639400000000 Se
   0.4242688000000000    0.4727370000000000    0.4073564700000000 Se
   0.4258197700000000    0.7227722100000000    0.4070012900000000 Se
   0.4243109900000000    0.9729952600000000    0.4075108400000000 Se
   0.5982701100000000    0.2251292400000000    0.4075157100000000 Se
   0.5995660400000000    0.4716342100000000    0.4050981800000000 Se
   0.5975746900000000    0.7225868600000001    0.4070973800000000 Se
   0.5982548600000001    0.9731491799999999    0.4069903000000000 Se
   0.3369552100000000    0.0358747300000000    0.4071743800000000 Se
   0.3395876600000000    0.2850911000000000    0.4045539500000000 Se
   0.3369038800000000    0.5355365900000000    0.4070917600000000 Se
   0.3395508300000000    0.7847828600000000    0.4044794200000000 Se
   0.5112914000000000    0.0354257200000000    0.4069872800000000 Se
   0.5120365300000000    0.2865293900000000    0.4066426000000000 Se
   0.5114759000000000    0.5343905000000000    0.4067576000000000 Se
   0.5115929000000000    0.7855293600000000    0.4069060800000000 Se
   0.6868003400000000    0.0358330100000000    0.4114352500000000 Se
   0.6896902900000000    0.2868866700000000    0.4087860800000000 Se
   0.6893990900000000    0.5337720000000000    0.4086327600000000 Se
   0.6867677400000000    0.7846418200000000    0.4114825800000000 Se
   0.3396355000000000    0.1614924400000000    0.4044159900000000 Se
   0.3367802500000000    0.4104626200000000    0.4070918900000000 Se
   0.3395486300000000    0.6609531800000000    0.4046099200000000 Se
   0.3367556200000000    0.9105281200000001    0.4071220900000000 Se
   0.5119371300000000    0.1610516400000000    0.4066944200000000 Se
   0.5116054400000000    0.4105410500000000    0.4069763200000000 Se
   0.5117637000000000    0.6598304100000000    0.4066963900000000 Se
   0.5115920700000000    0.9105748800000000    0.4068257200000000 Se
   0.6816420000000000    0.1596778900000000    0.3994069300000000 Se
   0.7360395900000000    0.4104027000000000    0.4025480600000000 Se
   0.6814230700000000    0.6608812500000000    0.3994381900000000 Se
   0.6840864100000000    0.9102394100000000    0.4020683100000000 Se
   0.7754131300000000    0.9102132200000000    0.4999999800000000 Se
   0.7677613100000000    0.7803203399999999    0.5001732500000000 Se
   0.7718955300000000    0.6466809000000000    0.5000046000000000 Se
   0.7721013799999999    0.1733652800000000    0.4999778800000000 Se
   0.7677774700000000    0.0399034900000000    0.4999983200000000 Se
   0.7559016306060606    0.5009661360246183    0.4990773572586873 O
   0.7971046927272728    0.5189872474135968    0.5072713589134032 C
   0.8175237227272728    0.4863042114216399    0.5002052656977386 H
   0.8010452554545456    0.5356106215511595    0.5623964763982350 H
   0.7527300209090909    0.4601230822936001    0.5004812359128517 H
   0.8030719630303031    0.5476794341549155    0.4646495607887480 H
