W48 Se98                                
   1.00000000000000     
    33.0000000000000000    0.0000000000000000    0.0000000000000000
     0.0000000000000000   26.2560005188000005    0.0000000000000000
     0.0000000000000000    0.0000000000000000   18.1299991608000006
   W    Se   O    C 
    48    98     1     1
Direct
  0.2805403765210913  0.0447627409030894  0.4999271785619072
  0.2859477830788834  0.2782262277772719  0.4999679767647596
  0.2808519404807399  0.5444803929713317  0.4999497133818077
  0.2859153017384261  0.7777200408068075  0.4999986764081406
  0.4539013235984031  0.0356348011714630  0.5000093733988121
  0.4548128707227804  0.2858568481101034  0.5000151308431409
  0.4544884504177131  0.5353687593339248  0.5000005634993373
  0.4545098879506368  0.7859777589238564  0.4999944288785767
  0.6274674798710529  0.0351610232929942  0.5000361909125565
  0.6272705950859331  0.2849198757874299  0.5000345373819528
  0.6292519226005026  0.5355002907303096  0.5000033710069116
  0.6267317608742704  0.7859597064119420  0.4999830789071281
  0.2857869041466296  0.1679901813524448  0.4999248545943258
  0.2807412653219165  0.4014081886565947  0.4999693263176131
  0.2861204979983318  0.6676276275253317  0.4999876670685740
  0.2804510181444711  0.9009902386050209  0.4999837390692810
  0.4544474728221193  0.1600126486476347  0.5000189894004072
  0.4544269845581651  0.4104271100890889  0.5000091694303725
  0.4549047319207049  0.6600458186370293  0.5000010510032029
  0.4539644292700079  0.9102605609525246  0.4999903213531876
  0.6267190072022156  0.1600002381640830  0.5000564691999888
  0.6293439986381137  0.4101872699011325  0.5000146660747458
  0.6272351796129512  0.6609236185576026  0.4999959202487729
  0.6274878113641820  0.9109036179307726  0.5000073601079175
  0.3684541086084776  0.2230430358554947  0.4999910613421175
  0.3668387292170269  0.4729024707995922  0.4999885648207285
  0.3685966461226222  0.7228608831046505  0.5000003222779191
  0.3663119761297642  0.9729428441381757  0.4999747896928454
  0.5406250878224825  0.2229125620411088  0.5000359222338890
  0.5421094203266897  0.4728516592256635  0.5000084119879674
  0.5406492211949491  0.7231390972306985  0.4999951956409615
  0.5402358537037011  0.9730379684772613  0.5000086219014211
  0.7141855762888030  0.2306065990995383  0.5000482365412199
  0.7106956476937032  0.4725943575251244  0.5000538140681370
  0.7140560545041003  0.7152436969862885  0.4999960021587820
  0.7146127274229501  0.9729493903931675  0.5000220149847617
  0.3682268251090204  0.0984514974156294  0.4999689475487318
  0.3685375516795198  0.3475394145422459  0.5000023313550837
  0.3686885514539051  0.5983199852346738  0.4999902705045955
  0.3682038408209119  0.8474815279504602  0.4999892915132784
  0.5410408894825696  0.0974803985796929  0.5000397506159544
  0.5408276030425347  0.3479388499415578  0.5000168407631823
  0.5408867435083907  0.5978594434386820  0.5000005987746299
  0.5411107541719286  0.8485334309503141  0.4999881391155013
  0.7156841650693272  0.0892425233947976  0.5000487920253192
  0.7089198692283148  0.3396242579482977  0.5000292488167807
  0.7088856194099443  0.6063394471654220  0.5000101892026592
  0.7156372779004396  0.8566483109354965  0.5000034038617198
  0.2523452185938444  0.1048397856183412  0.5907235174583436
  0.2525162982068948  0.3413483346705303  0.5907280111754660
  0.2527152435490520  0.6044901336059679  0.5908608421570171
  0.2523470539328215  0.8408127704528685  0.5907254900383295
  0.4253456595115855  0.0978360256286358  0.5936741312409798
  0.4257549129651703  0.3482007134034123  0.5935667494483616
  0.4258919905881741  0.5976784278327354  0.5935446348875407
  0.4253592414932516  0.8481394848765119  0.5936553174635582
  0.5986988850450176  0.0976660182400338  0.5934523623422590
  0.5985943206532617  0.3486377154749251  0.5924851525242294
  0.5986016999240625  0.5971555669060787  0.5924709538849047
  0.5987695146426657  0.8483769423569216  0.5933698632076461
  0.4262042621861329  0.2230178018045551  0.5930893046880975
  0.4249256925250643  0.4728922071883054  0.5926434470505423
  0.4263406882023407  0.7229162398403336  0.5930751533469346
  0.4243995127503587  0.9728661644233687  0.5925107206899597
  0.5980455034013956  0.2222772062116469  0.5931288362583100
  0.6003300334997101  0.4727871473584645  0.5929241673444484
  0.5980527292231291  0.7236646933902364  0.5930620662845613
  0.5979118141280589  0.9730336018275078  0.5927882588330037
  0.3370025220404890  0.0356164563907307  0.5927513063361443
  0.3399040155589843  0.2848712185219017  0.5953946542979754
  0.3374185010973426  0.5355046291950699  0.5926923463231109
  0.3398210016323003  0.7846202280544928  0.5954195176862472
  0.5115215674380897  0.0354360671620700  0.5933049060749198
  0.5121700971977436  0.2855189448710094  0.5935574931090040
  0.5123503855753451  0.5349427998955382  0.5929280064797562
  0.5120497838898030  0.7860132569534304  0.5930610477987304
  0.6852896744895410  0.0339388327905888  0.5963695297030146
  0.6824219428048208  0.2828598227497952  0.5997604988341947
  0.6893148573978496  0.5384143313147092  0.5942312387071239
  0.6874129330947911  0.7861709897345397  0.5882026608978702
  0.3397068160182505  0.1612240830778619  0.5953240863129504
  0.3372732572673758  0.4103692164293828  0.5927152996618262
  0.3400897018851939  0.6609766127784803  0.5953946642981838
  0.3368879357716446  0.9103273857709705  0.5927736784745158
  0.5120046089419198  0.1600896081624724  0.5930478512933188
  0.5122755221017232  0.4108175526700741  0.5929431733795294
  0.5122780883627263  0.6604087368312413  0.5934025242420441
  0.5116170160853819  0.9105548893215505  0.5932344366665681
  0.6874415388359550  0.1597409229736537  0.5882310854317703
  0.6892946995335492  0.4072092092847434  0.5946214676739483
  0.6823114899555445  0.6629468921431095  0.5997894815918182
  0.6852900212964008  0.9119776749102888  0.5963834372636314
  0.2523927142623743  0.1048475287873279  0.4090668758803886
  0.2525518060278197  0.3413478856573761  0.4091665730603094
  0.2527263352233801  0.6045221567582235  0.4090685614857510
  0.2523496554705172  0.8407954095527731  0.4092629325878522
  0.4253781899241046  0.0978431412799869  0.4063346560342623
  0.4257629642860903  0.3481970284938288  0.4064538674570226
  0.4258979245747385  0.5976779473902757  0.4064500526687230
  0.4253608665898511  0.8481372300064483  0.4063260627959808
  0.5986989872664037  0.0976736218379005  0.4066420957306625
  0.5985991305762477  0.3486280071504465  0.4075538562212382
  0.5986070240998030  0.5971501867680997  0.4075258208181503
  0.5987753420920719  0.8483945034169550  0.4066065015873381
  0.2263420073873979  0.2232367330260777  0.4999328129350029
  0.2332453685247804  0.4729566933549219  0.4999665979575961
  0.2264496465152413  0.7225089826083085  0.5000179918399676
  0.2332413061079724  0.9728946277447071  0.4999761513286037
  0.4262197404271357  0.2230169901509899  0.4069368151264716
  0.4249338057456337  0.4728868728019550  0.4073577631863695
  0.4263401627769654  0.7229142680962358  0.4069203604595257
  0.4244142855050908  0.9728811270345624  0.4074754413745583
  0.5980535251271110  0.2222668046596838  0.4069626170235189
  0.6003345790547625  0.4727818773289703  0.4070891549908405
  0.5980526803998294  0.7236597272940831  0.4069208309310695
  0.5979232054442927  0.9730520299966005  0.4072439662441721
  0.3370250734431222  0.0356123942058452  0.4071574626320298
  0.3399258758366314  0.2848771691777158  0.4045901542315125
  0.3374481338645953  0.5355030522357481  0.4072547941271779
  0.3398217334009513  0.7846178309037241  0.4045731651947623
  0.5115317756736882  0.0354525702095423  0.4067380589854636
  0.5121776933093558  0.2855094500057723  0.4064914753808705
  0.5123530809353650  0.5349409500141690  0.4070777650018718
  0.5120513296956105  0.7860070777780306  0.4069130212385259
  0.6852911607939205  0.0339540390087756  0.4036989474651713
  0.6824247231873464  0.2828483030016855  0.4003094084026120
  0.6893422318052658  0.5384003229013573  0.4058059994840859
  0.6874278919490582  0.7861762598601197  0.4117757008906793
  0.3397512608346291  0.1612327783113923  0.4045941902706452
  0.3372924559762996  0.4103588902183481  0.4072612658294887
  0.3400986091825829  0.6609827005450674  0.4045923390264899
  0.3368916565349733  0.9103207188262502  0.4071900726336778
  0.5120175740296975  0.1600903211633355  0.4070256380395297
  0.5122781290979570  0.4108121215768403  0.4070773701026930
  0.5122791278856029  0.6604059766344305  0.4065946687534128
  0.5116215407615474  0.9105706030303206  0.4067524020845026
  0.6874387350347219  0.1597347231603068  0.4118906441286704
  0.6893121517897968  0.4072170113355921  0.4054330216613499
  0.6823142824895769  0.6629368552914896  0.4002102804035080
  0.6852900067449396  0.9119929645934413  0.4036440596593842
  0.7750578615507340  0.9117023598600655  0.5000166691846948
  0.7686187109612029  0.7831163283871657  0.5000033748557652
  0.7730040430405611  0.6496525314749922  0.5000026302092037
  0.7730785075542453  0.2964209318147521  0.5000197737313137
  0.7687392540389353  0.1627215067975381  0.5000621275346934
  0.7750807548503545  0.0340638621057996  0.5000075234683692
  0.8068309092385743  0.4704227984299796  0.4999471694227140
  0.7713466248605629  0.4713192752680923  0.4999319678763586
 
  0.00000000E+00  0.00000000E+00  0.00000000E+00
  0.00000000E+00  0.00000000E+00  0.00000000E+00
  0.00000000E+00  0.00000000E+00  0.00000000E+00
  0.00000000E+00  0.00000000E+00  0.00000000E+00
  0.00000000E+00  0.00000000E+00  0.00000000E+00
  0.00000000E+00  0.00000000E+00  0.00000000E+00
  0.00000000E+00  0.00000000E+00  0.00000000E+00
  0.00000000E+00  0.00000000E+00  0.00000000E+00
  0.00000000E+00  0.00000000E+00  0.00000000E+00
  0.00000000E+00  0.00000000E+00  0.00000000E+00
  0.00000000E+00  0.00000000E+00  0.00000000E+00
  0.00000000E+00  0.00000000E+00  0.00000000E+00
  0.00000000E+00  0.00000000E+00  0.00000000E+00
  0.00000000E+00  0.00000000E+00  0.00000000E+00
  0.00000000E+00  0.00000000E+00  0.00000000E+00
  0.00000000E+00  0.00000000E+00  0.00000000E+00
  0.00000000E+00  0.00000000E+00  0.00000000E+00
  0.00000000E+00  0.00000000E+00  0.00000000E+00
  0.00000000E+00  0.00000000E+00  0.00000000E+00
  0.00000000E+00  0.00000000E+00  0.00000000E+00
  0.00000000E+00  0.00000000E+00  0.00000000E+00
  0.00000000E+00  0.00000000E+00  0.00000000E+00
  0.00000000E+00  0.00000000E+00  0.00000000E+00
  0.00000000E+00  0.00000000E+00  0.00000000E+00
  0.00000000E+00  0.00000000E+00  0.00000000E+00
  0.00000000E+00  0.00000000E+00  0.00000000E+00
  0.00000000E+00  0.00000000E+00  0.00000000E+00
  0.00000000E+00  0.00000000E+00  0.00000000E+00
  0.00000000E+00  0.00000000E+00  0.00000000E+00
  0.00000000E+00  0.00000000E+00  0.00000000E+00
  0.00000000E+00  0.00000000E+00  0.00000000E+00
  0.00000000E+00  0.00000000E+00  0.00000000E+00
  0.00000000E+00  0.00000000E+00  0.00000000E+00
  0.00000000E+00  0.00000000E+00  0.00000000E+00
  0.00000000E+00  0.00000000E+00  0.00000000E+00
  0.00000000E+00  0.00000000E+00  0.00000000E+00
  0.00000000E+00  0.00000000E+00  0.00000000E+00
  0.00000000E+00  0.00000000E+00  0.00000000E+00
  0.00000000E+00  0.00000000E+00  0.00000000E+00
  0.00000000E+00  0.00000000E+00  0.00000000E+00
  0.00000000E+00  0.00000000E+00  0.00000000E+00
  0.00000000E+00  0.00000000E+00  0.00000000E+00
  0.00000000E+00  0.00000000E+00  0.00000000E+00
  0.00000000E+00  0.00000000E+00  0.00000000E+00
  0.00000000E+00  0.00000000E+00  0.00000000E+00
  0.00000000E+00  0.00000000E+00  0.00000000E+00
  0.00000000E+00  0.00000000E+00  0.00000000E+00
  0.00000000E+00  0.00000000E+00  0.00000000E+00
  0.00000000E+00  0.00000000E+00  0.00000000E+00
  0.00000000E+00  0.00000000E+00  0.00000000E+00
  0.00000000E+00  0.00000000E+00  0.00000000E+00
  0.00000000E+00  0.00000000E+00  0.00000000E+00
  0.00000000E+00  0.00000000E+00  0.00000000E+00
  0.00000000E+00  0.00000000E+00  0.00000000E+00
  0.00000000E+00  0.00000000E+00  0.00000000E+00
  0.00000000E+00  0.00000000E+00  0.00000000E+00
  0.00000000E+00  0.00000000E+00  0.00000000E+00
  0.00000000E+00  0.00000000E+00  0.00000000E+00
  0.00000000E+00  0.00000000E+00  0.00000000E+00
  0.00000000E+00  0.00000000E+00  0.00000000E+00
  0.00000000E+00  0.00000000E+00  0.00000000E+00
  0.00000000E+00  0.00000000E+00  0.00000000E+00
  0.00000000E+00  0.00000000E+00  0.00000000E+00
  0.00000000E+00  0.00000000E+00  0.00000000E+00
  0.00000000E+00  0.00000000E+00  0.00000000E+00
  0.00000000E+00  0.00000000E+00  0.00000000E+00
  0.00000000E+00  0.00000000E+00  0.00000000E+00
  0.00000000E+00  0.00000000E+00  0.00000000E+00
  0.00000000E+00  0.00000000E+00  0.00000000E+00
  0.00000000E+00  0.00000000E+00  0.00000000E+00
  0.00000000E+00  0.00000000E+00  0.00000000E+00
  0.00000000E+00  0.00000000E+00  0.00000000E+00
  0.00000000E+00  0.00000000E+00  0.00000000E+00
  0.00000000E+00  0.00000000E+00  0.00000000E+00
  0.00000000E+00  0.00000000E+00  0.00000000E+00
  0.00000000E+00  0.00000000E+00  0.00000000E+00
  0.00000000E+00  0.00000000E+00  0.00000000E+00
  0.00000000E+00  0.00000000E+00  0.00000000E+00
  0.00000000E+00  0.00000000E+00  0.00000000E+00
  0.00000000E+00  0.00000000E+00  0.00000000E+00
  0.00000000E+00  0.00000000E+00  0.00000000E+00
  0.00000000E+00  0.00000000E+00  0.00000000E+00
  0.00000000E+00  0.00000000E+00  0.00000000E+00
  0.00000000E+00  0.00000000E+00  0.00000000E+00
  0.00000000E+00  0.00000000E+00  0.00000000E+00
  0.00000000E+00  0.00000000E+00  0.00000000E+00
  0.00000000E+00  0.00000000E+00  0.00000000E+00
  0.00000000E+00  0.00000000E+00  0.00000000E+00
  0.00000000E+00  0.00000000E+00  0.00000000E+00
  0.00000000E+00  0.00000000E+00  0.00000000E+00
  0.00000000E+00  0.00000000E+00  0.00000000E+00
  0.00000000E+00  0.00000000E+00  0.00000000E+00
  0.00000000E+00  0.00000000E+00  0.00000000E+00
  0.00000000E+00  0.00000000E+00  0.00000000E+00
  0.00000000E+00  0.00000000E+00  0.00000000E+00
  0.00000000E+00  0.00000000E+00  0.00000000E+00
  0.00000000E+00  0.00000000E+00  0.00000000E+00
  0.00000000E+00  0.00000000E+00  0.00000000E+00
  0.00000000E+00  0.00000000E+00  0.00000000E+00
  0.00000000E+00  0.00000000E+00  0.00000000E+00
  0.00000000E+00  0.00000000E+00  0.00000000E+00
  0.00000000E+00  0.00000000E+00  0.00000000E+00
  0.00000000E+00  0.00000000E+00  0.00000000E+00
  0.00000000E+00  0.00000000E+00  0.00000000E+00
  0.00000000E+00  0.00000000E+00  0.00000000E+00
  0.00000000E+00  0.00000000E+00  0.00000000E+00
  0.00000000E+00  0.00000000E+00  0.00000000E+00
  0.00000000E+00  0.00000000E+00  0.00000000E+00
  0.00000000E+00  0.00000000E+00  0.00000000E+00
  0.00000000E+00  0.00000000E+00  0.00000000E+00
  0.00000000E+00  0.00000000E+00  0.00000000E+00
  0.00000000E+00  0.00000000E+00  0.00000000E+00
  0.00000000E+00  0.00000000E+00  0.00000000E+00
  0.00000000E+00  0.00000000E+00  0.00000000E+00
  0.00000000E+00  0.00000000E+00  0.00000000E+00
  0.00000000E+00  0.00000000E+00  0.00000000E+00
  0.00000000E+00  0.00000000E+00  0.00000000E+00
  0.00000000E+00  0.00000000E+00  0.00000000E+00
  0.00000000E+00  0.00000000E+00  0.00000000E+00
  0.00000000E+00  0.00000000E+00  0.00000000E+00
  0.00000000E+00  0.00000000E+00  0.00000000E+00
  0.00000000E+00  0.00000000E+00  0.00000000E+00
  0.00000000E+00  0.00000000E+00  0.00000000E+00
  0.00000000E+00  0.00000000E+00  0.00000000E+00
  0.00000000E+00  0.00000000E+00  0.00000000E+00
  0.00000000E+00  0.00000000E+00  0.00000000E+00
  0.00000000E+00  0.00000000E+00  0.00000000E+00
  0.00000000E+00  0.00000000E+00  0.00000000E+00
  0.00000000E+00  0.00000000E+00  0.00000000E+00
  0.00000000E+00  0.00000000E+00  0.00000000E+00
  0.00000000E+00  0.00000000E+00  0.00000000E+00
  0.00000000E+00  0.00000000E+00  0.00000000E+00
  0.00000000E+00  0.00000000E+00  0.00000000E+00
  0.00000000E+00  0.00000000E+00  0.00000000E+00
  0.00000000E+00  0.00000000E+00  0.00000000E+00
  0.00000000E+00  0.00000000E+00  0.00000000E+00
  0.00000000E+00  0.00000000E+00  0.00000000E+00
  0.00000000E+00  0.00000000E+00  0.00000000E+00
  0.00000000E+00  0.00000000E+00  0.00000000E+00
  0.00000000E+00  0.00000000E+00  0.00000000E+00
  0.00000000E+00  0.00000000E+00  0.00000000E+00
  0.00000000E+00  0.00000000E+00  0.00000000E+00
  0.00000000E+00  0.00000000E+00  0.00000000E+00
  0.00000000E+00  0.00000000E+00  0.00000000E+00
  0.00000000E+00  0.00000000E+00  0.00000000E+00
  0.00000000E+00  0.00000000E+00  0.00000000E+00
  0.00000000E+00  0.00000000E+00  0.00000000E+00
  0.00000000E+00  0.00000000E+00  0.00000000E+00
