Mo48 Se100                              
   1.00000000000000     
    33.0000000000000000    0.0000000000000000    0.0000000000000000
     0.0000000000000000   26.3120002747000008    0.0000000000000000
     0.0000000000000000    0.0000000000000000   18.0970001220999990
   Mo   Se   O    C 
    48    98     1     1
Direct
  0.2849664014853062  0.0265899382447401  0.4996634248182374
  0.2787418643296320  0.2937534413849860  0.4997558533827728
  0.2853078811346208  0.5286777777047362  0.4998637564040820
  0.2797047784056019  0.7909672564896368  0.4996624426837002
  0.4541151891658330  0.0359979212864658  0.5000350858719003
  0.4528313362285772  0.2860029646417317  0.5003680280708096
  0.4548935474041045  0.5358004070131557  0.5003851915184470
  0.4544440660971034  0.7856810238978085  0.5001218292105563
  0.6284940195349691  0.0366153028045062  0.5006202148851386
  0.6260798285576001  0.2851174523312920  0.5014523987557808
  0.6301602899164749  0.5351972730270660  0.5017995232763894
  0.6287847726384541  0.7854752031274330  0.5008807239284039
  0.2795837097316891  0.1591526826857859  0.4997048665120545
  0.2850966812335045  0.4194838758747395  0.4997883930357006
  0.2799911555136987  0.6574170967396995  0.4998186465216392
  0.2858579055616559  0.9172856377782637  0.4996130368981753
  0.4527320760534934  0.1606470659518706  0.5001601665080315
  0.4544712085665594  0.4107241247880822  0.5003900941065282
  0.4544609194461842  0.6603644231386809  0.5002789650154327
  0.4550873558167297  0.9104190187762384  0.5000246115547711
  0.6277176473394235  0.1616355796850684  0.5009883675949851
  0.6292015115765750  0.4096667730209660  0.5016643337765814
  0.6290490734226424  0.6602432632694786  0.5012493025537097
  0.6293162654509175  0.9110597076852329  0.5005930987597367
  0.3642721978832242  0.2230495214053789  0.4999971732740960
  0.3677590767217467  0.4736082409473568  0.5000369944457503
  0.3661409489374776  0.7229643104004850  0.4999453233162541
  0.3676764499461456  0.9730754680363916  0.4997784698522523
  0.5395633643780400  0.2230563665211278  0.5006213772774402
  0.5424350549079691  0.4728248462000479  0.5010178272173889
  0.5416355880609345  0.7228631245013375  0.5005876411007151
  0.5419171028704994  0.9733751740540271  0.5003085147848978
  0.7147196499037918  0.2217898585856872  0.5020025812055238
  0.7128191933040142  0.4674678469703153  0.5025770791422559
  0.7163956813625987  0.7146393661801156  0.5013618107650757
  0.7170766382589306  0.9659348195009585  0.5006877775982730
  0.3663175487277428  0.0974824874055287  0.4998528429026976
  0.3675048136621939  0.3493442475635860  0.5000375212062522
  0.3679551443358022  0.5975830104362529  0.5000440408066211
  0.3685779981501014  0.8487991064843783  0.4998367615652342
  0.5410365405617341  0.0987498469429156  0.5003587073662459
  0.5405481888707158  0.3481000917761108  0.5009017209676330
  0.5419810960130107  0.5978764648457116  0.5008672210747633
  0.5421450939019152  0.8482488320064405  0.5003839204975122
  0.7169902129794963  0.1085751713579057  0.5012355041881165
  0.7126394304023549  0.3417127646216827  0.5028927783230159
  0.7122950262371290  0.6056023173582687  0.5018583541686112
  0.7171003655909232  0.8566570495148653  0.5007605681847522
  0.2493039967891946  0.0931927055589341  0.5810585490045241
  0.2519140688497288  0.3556169307826309  0.5888855059060631
  0.2516615785057184  0.5939641723037568  0.5860999236194644
  0.2526438447805717  0.8530667683874213  0.5885267614024841
  0.4241906791652141  0.0981013387506806  0.5927913335649819
  0.4247868112156112  0.3486117191952971  0.5933496771087974
  0.4255837206814945  0.5981822518227347  0.5931785103967542
  0.4259897036402478  0.8480809189558229  0.5930934643601447
  0.5991548291513453  0.0984133185574407  0.5931917461325114
  0.5981679097533927  0.3482658262134279  0.5938701790720913
  0.5999345370299309  0.5970889814245766  0.5933805444200360
  0.6002557588045505  0.8482541514662643  0.5930331454077731
  0.4227376462709245  0.2232381909092922  0.5920997337138871
  0.4257848441671399  0.4734247792544011  0.5929232988689037
  0.4245836177156050  0.7230391523654305  0.5920986699977036
  0.4258690203018318  0.9730501413885477  0.5924771145265524
  0.5970130693912878  0.2227860124421923  0.5936225716617045
  0.6006511394087184  0.4729099318629721  0.5938671707669059
  0.5995124128519578  0.7233839789940859  0.5932072466221356
  0.6000829688811677  0.9738112116879947  0.5928880998881567
  0.3378475180406255  0.0341957720519801  0.5951620224438159
  0.3354787994864452  0.2868079680568840  0.5916641058255863
  0.3386453090830415  0.5351419271752107  0.5952523495257722
  0.3367903439452888  0.7862245699871551  0.5913582943753113
  0.5122545229661881  0.0358449772218492  0.5924685485037244
  0.5106619104692314  0.2856356446651418  0.5931663057564691
  0.5128687607348397  0.5353772621147783  0.5931823025502680
  0.5125780680334060  0.7857050677564601  0.5926103614870044
  0.6897098092275300  0.0370966587571004  0.5882419615844228
  0.6839328804738400  0.2821812519688223  0.5962302099528785
  0.6915215676675999  0.5362937045171421  0.5939888478953748
  0.6897601527866826  0.7857232586263763  0.5887498348946210
  0.3350489153511944  0.1600264154492166  0.5925761249643315
  0.3386452193729355  0.4120480337765002  0.5949280741926373
  0.3365227449422719  0.6602310402129632  0.5920118052685410
  0.3393468414405376  0.9110467040778474  0.5948330140072571
  0.5107209974966835  0.1604457436334528  0.5929632322832177
  0.5122582833171450  0.4108812347841706  0.5933863772150971
  0.5124741914847135  0.6605287613560762  0.5931417161383123
  0.5130728855441120  0.9107328861575894  0.5928293359853356
  0.6853165288013088  0.1621272152469615  0.5975577822774270
  0.6878122996760894  0.4053639250062417  0.5971835780851436
  0.6844672422942608  0.6617643552487777  0.6002493270864235
  0.6862119061500422  0.9113340663714951  0.5982419215245756
  0.2493724642777977  0.0932795462251832  0.4182977402184207
  0.2520708421230893  0.3556338689307239  0.4104678494192768
  0.2516752916752907  0.5939498235449960  0.4136477858672691
  0.2526255834294915  0.8530204127848506  0.4107993699403991
  0.4243605732234244  0.0981785786622353  0.4072175046217907
  0.4250251210423315  0.3486239363344694  0.4071832147486276
  0.4257674028450182  0.5981159034809878  0.4072797101834169
  0.4261341486290604  0.8480260122566108  0.4068800625849249
  0.5994380813600202  0.0986590694798295  0.4080543967447525
  0.5985562487791682  0.3483090805130331  0.4087384532340792
  0.6003331793064177  0.5967709872877194  0.4092589244513931
  0.6004433585664444  0.8480312730970496  0.4082212838864621
  0.2283639416597012  0.2258277078075679  0.5004614097594526
  0.2257420073226584  0.4738983943554160  0.4999477331382494
  0.2285539360943005  0.7240883307293728  0.5003106351324860
  0.2260094665967642  0.9705544011871012  0.4995768378062593
  0.4229319928471327  0.2233575332097857  0.4082589128039231
  0.4260054423286022  0.4734104981487377  0.4075776768895594
  0.4247521551077398  0.7229424879303039  0.4081079522171862
  0.4260276873935425  0.9730639557088736  0.4073907477203846
  0.5974226509279106  0.2231105721898103  0.4083808585391253
  0.6012037312743246  0.4729542017595634  0.4091538969444315
  0.5998252478907773  0.7231989321010488  0.4086003862960510
  0.6002548710725861  0.9738593040593599  0.4081569198556778
  0.3379574783075725  0.0342553255820945  0.4043282822662206
  0.3356578871421121  0.2868446134094427  0.4081994419592263
  0.3387900253704430  0.5351325179154287  0.4046797576736907
  0.3369524633920804  0.7861700568210068  0.4082628612943893
  0.5124588838279678  0.0358942686625667  0.4079638296117594
  0.5109363317816431  0.2858285086838919  0.4081005468856844
  0.5132024344696973  0.5352997537110085  0.4083253422012021
  0.5127972504755931  0.7855687102042879  0.4080725510208651
  0.6898758435954875  0.0373295752730129  0.4133616243497400
  0.6845682291654285  0.2828911811100809  0.4078962963307049
  0.6916521492666163  0.5360164621177574  0.4104462801587374
  0.6898615368848482  0.7854229582684837  0.4132283604312903
  0.3352418337747665  0.1601132485899868  0.4071395068655193
  0.3388407671865252  0.4120448151187333  0.4049620365917619
  0.3366681932641882  0.6601582799497479  0.4078756774286489
  0.3394851517453787  0.9110248179071903  0.4046133595628447
  0.5109425374850005  0.1606257461745102  0.4077206508370210
  0.5126215234665352  0.4109207623577049  0.4080894955921863
  0.5127698802014251  0.6603609916786013  0.4079827166902348
  0.5132690319886208  0.9106845105565426  0.4075995364751606
  0.6857113664460783  0.1626716249465545  0.4052388974371013
  0.7778674766406013  0.9110101325171911  0.5004395870860492
  0.7699260243545964  0.7825114431140392  0.5007313802276272
  0.7753454289195361  0.6494829284479806  0.5017916882578746
  0.7746021094212665  0.2976658645183150  0.5035538603999541
  0.7761375296994046  0.1679233907845230  0.5024700569609521
  0.7700931076801254  0.0387285244776052  0.5007667163529490
  0.6879548826241972  0.4055322033472137  0.4072322993450470
  0.6847437981188449  0.6613948286071150  0.4027545801200745
  0.6862692783534641  0.9112685601346513  0.4031058131518535
  0.8026444716438377  0.4457363247036099  0.4493785520798781
  0.7693758471746577  0.4522364454318648  0.4692047586891448
 
  0.00000000E+00  0.00000000E+00  0.00000000E+00
  0.00000000E+00  0.00000000E+00  0.00000000E+00
  0.00000000E+00  0.00000000E+00  0.00000000E+00
  0.00000000E+00  0.00000000E+00  0.00000000E+00
  0.00000000E+00  0.00000000E+00  0.00000000E+00
  0.00000000E+00  0.00000000E+00  0.00000000E+00
  0.00000000E+00  0.00000000E+00  0.00000000E+00
  0.00000000E+00  0.00000000E+00  0.00000000E+00
  0.00000000E+00  0.00000000E+00  0.00000000E+00
  0.00000000E+00  0.00000000E+00  0.00000000E+00
  0.00000000E+00  0.00000000E+00  0.00000000E+00
  0.00000000E+00  0.00000000E+00  0.00000000E+00
  0.00000000E+00  0.00000000E+00  0.00000000E+00
  0.00000000E+00  0.00000000E+00  0.00000000E+00
  0.00000000E+00  0.00000000E+00  0.00000000E+00
  0.00000000E+00  0.00000000E+00  0.00000000E+00
  0.00000000E+00  0.00000000E+00  0.00000000E+00
  0.00000000E+00  0.00000000E+00  0.00000000E+00
  0.00000000E+00  0.00000000E+00  0.00000000E+00
  0.00000000E+00  0.00000000E+00  0.00000000E+00
  0.00000000E+00  0.00000000E+00  0.00000000E+00
  0.00000000E+00  0.00000000E+00  0.00000000E+00
  0.00000000E+00  0.00000000E+00  0.00000000E+00
  0.00000000E+00  0.00000000E+00  0.00000000E+00
  0.00000000E+00  0.00000000E+00  0.00000000E+00
  0.00000000E+00  0.00000000E+00  0.00000000E+00
  0.00000000E+00  0.00000000E+00  0.00000000E+00
  0.00000000E+00  0.00000000E+00  0.00000000E+00
  0.00000000E+00  0.00000000E+00  0.00000000E+00
  0.00000000E+00  0.00000000E+00  0.00000000E+00
  0.00000000E+00  0.00000000E+00  0.00000000E+00
  0.00000000E+00  0.00000000E+00  0.00000000E+00
  0.00000000E+00  0.00000000E+00  0.00000000E+00
  0.00000000E+00  0.00000000E+00  0.00000000E+00
  0.00000000E+00  0.00000000E+00  0.00000000E+00
  0.00000000E+00  0.00000000E+00  0.00000000E+00
  0.00000000E+00  0.00000000E+00  0.00000000E+00
  0.00000000E+00  0.00000000E+00  0.00000000E+00
  0.00000000E+00  0.00000000E+00  0.00000000E+00
  0.00000000E+00  0.00000000E+00  0.00000000E+00
  0.00000000E+00  0.00000000E+00  0.00000000E+00
  0.00000000E+00  0.00000000E+00  0.00000000E+00
  0.00000000E+00  0.00000000E+00  0.00000000E+00
  0.00000000E+00  0.00000000E+00  0.00000000E+00
  0.00000000E+00  0.00000000E+00  0.00000000E+00
  0.00000000E+00  0.00000000E+00  0.00000000E+00
  0.00000000E+00  0.00000000E+00  0.00000000E+00
  0.00000000E+00  0.00000000E+00  0.00000000E+00
  0.00000000E+00  0.00000000E+00  0.00000000E+00
  0.00000000E+00  0.00000000E+00  0.00000000E+00
  0.00000000E+00  0.00000000E+00  0.00000000E+00
  0.00000000E+00  0.00000000E+00  0.00000000E+00
  0.00000000E+00  0.00000000E+00  0.00000000E+00
  0.00000000E+00  0.00000000E+00  0.00000000E+00
  0.00000000E+00  0.00000000E+00  0.00000000E+00
  0.00000000E+00  0.00000000E+00  0.00000000E+00
  0.00000000E+00  0.00000000E+00  0.00000000E+00
  0.00000000E+00  0.00000000E+00  0.00000000E+00
  0.00000000E+00  0.00000000E+00  0.00000000E+00
  0.00000000E+00  0.00000000E+00  0.00000000E+00
  0.00000000E+00  0.00000000E+00  0.00000000E+00
  0.00000000E+00  0.00000000E+00  0.00000000E+00
  0.00000000E+00  0.00000000E+00  0.00000000E+00
  0.00000000E+00  0.00000000E+00  0.00000000E+00
  0.00000000E+00  0.00000000E+00  0.00000000E+00
  0.00000000E+00  0.00000000E+00  0.00000000E+00
  0.00000000E+00  0.00000000E+00  0.00000000E+00
  0.00000000E+00  0.00000000E+00  0.00000000E+00
  0.00000000E+00  0.00000000E+00  0.00000000E+00
  0.00000000E+00  0.00000000E+00  0.00000000E+00
  0.00000000E+00  0.00000000E+00  0.00000000E+00
  0.00000000E+00  0.00000000E+00  0.00000000E+00
  0.00000000E+00  0.00000000E+00  0.00000000E+00
  0.00000000E+00  0.00000000E+00  0.00000000E+00
  0.00000000E+00  0.00000000E+00  0.00000000E+00
  0.00000000E+00  0.00000000E+00  0.00000000E+00
  0.00000000E+00  0.00000000E+00  0.00000000E+00
  0.00000000E+00  0.00000000E+00  0.00000000E+00
  0.00000000E+00  0.00000000E+00  0.00000000E+00
  0.00000000E+00  0.00000000E+00  0.00000000E+00
  0.00000000E+00  0.00000000E+00  0.00000000E+00
  0.00000000E+00  0.00000000E+00  0.00000000E+00
  0.00000000E+00  0.00000000E+00  0.00000000E+00
  0.00000000E+00  0.00000000E+00  0.00000000E+00
  0.00000000E+00  0.00000000E+00  0.00000000E+00
  0.00000000E+00  0.00000000E+00  0.00000000E+00
  0.00000000E+00  0.00000000E+00  0.00000000E+00
  0.00000000E+00  0.00000000E+00  0.00000000E+00
  0.00000000E+00  0.00000000E+00  0.00000000E+00
  0.00000000E+00  0.00000000E+00  0.00000000E+00
  0.00000000E+00  0.00000000E+00  0.00000000E+00
  0.00000000E+00  0.00000000E+00  0.00000000E+00
  0.00000000E+00  0.00000000E+00  0.00000000E+00
  0.00000000E+00  0.00000000E+00  0.00000000E+00
  0.00000000E+00  0.00000000E+00  0.00000000E+00
  0.00000000E+00  0.00000000E+00  0.00000000E+00
  0.00000000E+00  0.00000000E+00  0.00000000E+00
  0.00000000E+00  0.00000000E+00  0.00000000E+00
  0.00000000E+00  0.00000000E+00  0.00000000E+00
  0.00000000E+00  0.00000000E+00  0.00000000E+00
  0.00000000E+00  0.00000000E+00  0.00000000E+00
  0.00000000E+00  0.00000000E+00  0.00000000E+00
  0.00000000E+00  0.00000000E+00  0.00000000E+00
  0.00000000E+00  0.00000000E+00  0.00000000E+00
  0.00000000E+00  0.00000000E+00  0.00000000E+00
  0.00000000E+00  0.00000000E+00  0.00000000E+00
  0.00000000E+00  0.00000000E+00  0.00000000E+00
  0.00000000E+00  0.00000000E+00  0.00000000E+00
  0.00000000E+00  0.00000000E+00  0.00000000E+00
  0.00000000E+00  0.00000000E+00  0.00000000E+00
  0.00000000E+00  0.00000000E+00  0.00000000E+00
  0.00000000E+00  0.00000000E+00  0.00000000E+00
  0.00000000E+00  0.00000000E+00  0.00000000E+00
  0.00000000E+00  0.00000000E+00  0.00000000E+00
  0.00000000E+00  0.00000000E+00  0.00000000E+00
  0.00000000E+00  0.00000000E+00  0.00000000E+00
  0.00000000E+00  0.00000000E+00  0.00000000E+00
  0.00000000E+00  0.00000000E+00  0.00000000E+00
  0.00000000E+00  0.00000000E+00  0.00000000E+00
  0.00000000E+00  0.00000000E+00  0.00000000E+00
  0.00000000E+00  0.00000000E+00  0.00000000E+00
  0.00000000E+00  0.00000000E+00  0.00000000E+00
  0.00000000E+00  0.00000000E+00  0.00000000E+00
  0.00000000E+00  0.00000000E+00  0.00000000E+00
  0.00000000E+00  0.00000000E+00  0.00000000E+00
  0.00000000E+00  0.00000000E+00  0.00000000E+00
  0.00000000E+00  0.00000000E+00  0.00000000E+00
  0.00000000E+00  0.00000000E+00  0.00000000E+00
  0.00000000E+00  0.00000000E+00  0.00000000E+00
  0.00000000E+00  0.00000000E+00  0.00000000E+00
  0.00000000E+00  0.00000000E+00  0.00000000E+00
  0.00000000E+00  0.00000000E+00  0.00000000E+00
  0.00000000E+00  0.00000000E+00  0.00000000E+00
  0.00000000E+00  0.00000000E+00  0.00000000E+00
  0.00000000E+00  0.00000000E+00  0.00000000E+00
  0.00000000E+00  0.00000000E+00  0.00000000E+00
  0.00000000E+00  0.00000000E+00  0.00000000E+00
  0.00000000E+00  0.00000000E+00  0.00000000E+00
  0.00000000E+00  0.00000000E+00  0.00000000E+00
  0.00000000E+00  0.00000000E+00  0.00000000E+00
  0.00000000E+00  0.00000000E+00  0.00000000E+00
  0.00000000E+00  0.00000000E+00  0.00000000E+00
  0.00000000E+00  0.00000000E+00  0.00000000E+00
  0.00000000E+00  0.00000000E+00  0.00000000E+00
  0.00000000E+00  0.00000000E+00  0.00000000E+00
  0.00000000E+00  0.00000000E+00  0.00000000E+00
  0.00000000E+00  0.00000000E+00  0.00000000E+00
  0.00000000E+00  0.00000000E+00  0.00000000E+00
