Mo48 Se100                              
   1.00000000000000     
    33.0000000000000000    0.0000000000000000    0.0000000000000000
     0.0000000000000000   26.3120002747000008    0.0000000000000000
     0.0000000000000000    0.0000000000000000   18.0970001220999990
   Mo   Se   O    C 
    48    98     1     1
Direct
  0.2849664014853040  0.0265899382447415  0.4996634248182398
  0.2787418643296322  0.2937534413849865  0.4997558533827736
  0.2853078811346195  0.5286777777047386  0.4998637564040848
  0.2797047784056014  0.7909672564896387  0.4996624426837036
  0.4541151891658331  0.0359979212864624  0.5000350858718975
  0.4528313362285770  0.2860029646417285  0.5003680280708099
  0.4548935474041028  0.5358004070131586  0.5003851915184502
  0.4544440660971052  0.7856810238978075  0.5001218292105559
  0.6284940195349691  0.0366153028045055  0.5006202148851391
  0.6260798285576022  0.2851174523312895  0.5014523987557780
  0.6301602899164743  0.5351972730270672  0.5017995232763918
  0.6287847726384510  0.7854752031274306  0.5008807239284006
  0.2795837097316890  0.1591526826857845  0.4997048665120578
  0.2850966812335073  0.4194838758747362  0.4997883930356981
  0.2799911555136989  0.6574170967397019  0.4998186465216398
  0.2858579055616562  0.9172856377782672  0.4996130368981778
  0.4527320760534917  0.1606470659518684  0.5001601665080324
  0.4544712085665606  0.4107241247880816  0.5003900941065277
  0.4544609194461809  0.6603644231386782  0.5002789650154295
  0.4550873558167309  0.9104190187762375  0.5000246115547733
  0.6277176473394230  0.1616355796850679  0.5009883675949822
  0.6292015115765742  0.4096667730209655  0.5016643337765833
  0.6290490734226416  0.6602432632694808  0.5012493025537063
  0.6293162654509199  0.9110597076852345  0.5005930987597369
  0.3642721978832226  0.2230495214053755  0.4999971732740932
  0.3677590767217485  0.4736082409473562  0.5000369944457514
  0.3661409489374778  0.7229643104004884  0.4999453233162506
  0.3676764499461483  0.9730754680363932  0.4997784698522557
  0.5395633643780399  0.2230563665211277  0.5006213772774371
  0.5424350549079680  0.4728248462000472  0.5010178272173921
  0.5416355880609368  0.7228631245013404  0.5005876411007157
  0.5419171028704983  0.9733751740540276  0.5003085147848949
  0.7147196499037903  0.2217898585856868  0.5020025812055217
  0.7128191933040164  0.4674678469703186  0.5025770791422574
  0.7163956813625981  0.7146393661801157  0.5013618107650730
  0.7170766382589281  0.9659348195009557  0.5006877775982708
  0.3663175487277452  0.0974824874055281  0.4998528429026943
  0.3675048136621951  0.3493442475635880  0.5000375212062540
  0.3679551443357995  0.5975830104362554  0.5000440408066186
  0.3685779981501042  0.8487991064843762  0.4998367615652370
  0.5410365405617362  0.0987498469429150  0.5003587073662439
  0.5405481888707140  0.3481000917761130  0.5009017209676301
  0.5419810960130138  0.5978764648457110  0.5008672210747634
  0.5421450939019187  0.8482488320064401  0.5003839204975148
  0.7169902129794973  0.1085751713579059  0.5012355041881146
  0.7126394304023519  0.3417127646216792  0.5028927783230175
  0.7122950262371280  0.6056023173582717  0.5018583541686087
  0.7171003655909262  0.8566570495148685  0.5007605681847509
  0.2493039967891939  0.0931927055589314  0.5810585490045274
  0.2519140688497253  0.3556169307826303  0.5888855059060649
  0.2516615785057160  0.5939641723037554  0.5860999236194655
  0.2526438447805738  0.8530667683874217  0.5885267614024849
  0.4241906791652119  0.0981013387506809  0.5927913335649844
  0.4247868112156108  0.3486117191952966  0.5933496771087946
  0.4255837206814930  0.5981822518227340  0.5931785103967518
  0.4259897036402482  0.8480809189558206  0.5930934643601468
  0.5991548291513469  0.0984133185574381  0.5931917461325118
  0.5981679097533961  0.3482658262134255  0.5938701790720883
  0.5999345370299317  0.5970889814245762  0.5933805444200340
  0.6002557588045522  0.8482541514662620  0.5930331454077741
  0.4227376462709243  0.2232381909092945  0.5920997337138887
  0.4257848441671405  0.4734247792543995  0.5929232988689020
  0.4245836177156039  0.7230391523654306  0.5920986699977059
  0.4258690203018340  0.9730501413885502  0.5924771145265518
  0.5970130693912863  0.2227860124421927  0.5936225716617022
  0.6006511394087163  0.4729099318629730  0.5938671707669083
  0.5995124128519552  0.7233839789940867  0.5932072466221389
  0.6000829688811673  0.9738112116879941  0.5928880998881564
  0.3378475180406285  0.0341957720519781  0.5951620224438153
  0.3354787994864478  0.2868079680568814  0.5916641058255863
  0.3386453090830389  0.5351419271752121  0.5952523495257732
  0.3367903439452903  0.7862245699871571  0.5913582943753110
  0.5122545229661908  0.0358449772218468  0.5924685485037229
  0.5106619104692312  0.2856356446651437  0.5931663057564674
  0.5128687607348421  0.5353772621147775  0.5931823025502658
  0.5125780680334079  0.7857050677564633  0.5926103614870072
  0.6897098092275271  0.0370966587571008  0.5882419615844255
  0.6839328804738392  0.2821812519688233  0.5962302099528771
  0.6915215676675972  0.5362937045171443  0.5939888478953744
  0.6897601527866846  0.7857232586263762  0.5887498348946232
  0.3350489153511926  0.1600264154492151  0.5925761249643320
  0.3386452193729343  0.4120480337764986  0.5949280741926386
  0.3365227449422695  0.6602310402129649  0.5920118052685409
  0.3393468414405408  0.9110467040778462  0.5948330140072555
  0.5107209974966807  0.1604457436334517  0.5929632322832149
  0.5122582833171453  0.4108812347841698  0.5933863772150999
  0.5124741914847118  0.6605287613560733  0.5931417161383157
  0.5130728855441122  0.9107328861575905  0.5928293359853373
  0.6853165288013074  0.1621272152469625  0.5975577822774243
  0.6878122996760921  0.4053639250062404  0.5971835780851439
  0.6844672422942635  0.6617643552487749  0.6002493270864259
  0.6862119061500446  0.9113340663714984  0.5982419215245761
  0.2493724642777961  0.0932795462251842  0.4182977402184233
  0.2520708421230903  0.3556338689307245  0.4104678494192771
  0.2516752916752922  0.5939498235449974  0.4136477858672700
  0.2526255834294888  0.8530204127848512  0.4107993699403973
  0.4243605732234226  0.0981785786622344  0.4072175046217936
  0.4250251210423310  0.3486239363344703  0.4071832147486253
  0.4257674028450190  0.5981159034809874  0.4072797101834172
  0.4261341486290617  0.8480260122566105  0.4068800625849229
  0.5994380813600172  0.0986590694798272  0.4080543967447532
  0.5985562487791698  0.3483090805130320  0.4087384532340805
  0.6003331793064177  0.5967709872877204  0.4092589244513912
  0.6004433585664454  0.8480312730970531  0.4082212838864629
  0.2283639416596977  0.2258277078075648  0.5004614097594519
  0.2257420073226591  0.4738983943554125  0.4999477331382488
  0.2285539360942981  0.7240883307293745  0.5003106351324847
  0.2260094665967634  0.9705544011871038  0.4995768378062619
  0.4229319928471298  0.2233575332097844  0.4082589128039245
  0.4260054423285988  0.4734104981487389  0.4075776768895585
  0.4247521551077402  0.7229424879303065  0.4081079522171865
  0.4260276873935438  0.9730639557088758  0.4073907477203846
  0.5974226509279080  0.2231105721898094  0.4083808585391262
  0.6012037312743210  0.4729542017595656  0.4091538969444347
  0.5998252478907802  0.7231989321010476  0.4086003862960545
  0.6002548710725853  0.9738593040593582  0.4081569198556768
  0.3379574783075702  0.0342553255820927  0.4043282822662220
  0.3356578871421111  0.2868446134094433  0.4081994419592296
  0.3387900253704443  0.5351325179154313  0.4046797576736875
  0.3369524633920782  0.7861700568210079  0.4082628612943893
  0.5124588838279704  0.0358942686625661  0.4079638296117561
  0.5109363317816464  0.2858285086838885  0.4081005468856832
  0.5132024344696938  0.5352997537110066  0.4083253422011995
  0.5127972504755942  0.7855687102042901  0.4080725510208658
  0.6898758435954865  0.0373295752730139  0.4133616243497383
  0.6845682291654266  0.2828911811100827  0.4078962963307069
  0.6916521492666146  0.5360164621177592  0.4104462801587350
  0.6898615368848509  0.7854229582684831  0.4132283604312914
  0.3352418337747677  0.1601132485899837  0.4071395068655208
  0.3388407671865225  0.4120448151187342  0.4049620365917617
  0.3366681932641893  0.6601582799497464  0.4078756774286495
  0.3394851517453800  0.9110248179071936  0.4046133595628415
  0.5109425374850036  0.1606257461745079  0.4077206508370201
  0.5126215234665332  0.4109207623577042  0.4080894955921854
  0.5127698802014278  0.6603609916785999  0.4079827166902343
  0.5132690319886219  0.9106845105565446  0.4075995364751581
  0.6857113664460806  0.1626716249465528  0.4052388974371028
  0.7778674766406003  0.9110101325171888  0.5004395870860504
  0.7699260243545973  0.7825114431140388  0.5007313802276282
  0.7753454289195386  0.6494829284479829  0.5017916882578779
  0.7746021094212633  0.2976658645183160  0.5035538603999575
  0.7761375296994076  0.1679233907845204  0.5024700569609539
  0.7700931076801228  0.0387285244776043  0.5007667163529483
  0.6879548826241948  0.4055322033472124  0.4072322993450468
  0.6847437981188420  0.6613948286071163  0.4027545801200718
  0.6862692783534666  0.9112685601346516  0.4031058131518499
  0.8026444716438355  0.4457363247036087  0.4493785520798771
  0.7693758471746560  0.4522364454318675  0.4692047586891477
 
  0.00000000E+00  0.00000000E+00  0.00000000E+00
  0.00000000E+00  0.00000000E+00  0.00000000E+00
  0.00000000E+00  0.00000000E+00  0.00000000E+00
  0.00000000E+00  0.00000000E+00  0.00000000E+00
  0.00000000E+00  0.00000000E+00  0.00000000E+00
  0.00000000E+00  0.00000000E+00  0.00000000E+00
  0.00000000E+00  0.00000000E+00  0.00000000E+00
  0.00000000E+00  0.00000000E+00  0.00000000E+00
  0.00000000E+00  0.00000000E+00  0.00000000E+00
  0.00000000E+00  0.00000000E+00  0.00000000E+00
  0.00000000E+00  0.00000000E+00  0.00000000E+00
  0.00000000E+00  0.00000000E+00  0.00000000E+00
  0.00000000E+00  0.00000000E+00  0.00000000E+00
  0.00000000E+00  0.00000000E+00  0.00000000E+00
  0.00000000E+00  0.00000000E+00  0.00000000E+00
  0.00000000E+00  0.00000000E+00  0.00000000E+00
  0.00000000E+00  0.00000000E+00  0.00000000E+00
  0.00000000E+00  0.00000000E+00  0.00000000E+00
  0.00000000E+00  0.00000000E+00  0.00000000E+00
  0.00000000E+00  0.00000000E+00  0.00000000E+00
  0.00000000E+00  0.00000000E+00  0.00000000E+00
  0.00000000E+00  0.00000000E+00  0.00000000E+00
  0.00000000E+00  0.00000000E+00  0.00000000E+00
  0.00000000E+00  0.00000000E+00  0.00000000E+00
  0.00000000E+00  0.00000000E+00  0.00000000E+00
  0.00000000E+00  0.00000000E+00  0.00000000E+00
  0.00000000E+00  0.00000000E+00  0.00000000E+00
  0.00000000E+00  0.00000000E+00  0.00000000E+00
  0.00000000E+00  0.00000000E+00  0.00000000E+00
  0.00000000E+00  0.00000000E+00  0.00000000E+00
  0.00000000E+00  0.00000000E+00  0.00000000E+00
  0.00000000E+00  0.00000000E+00  0.00000000E+00
  0.00000000E+00  0.00000000E+00  0.00000000E+00
  0.00000000E+00  0.00000000E+00  0.00000000E+00
  0.00000000E+00  0.00000000E+00  0.00000000E+00
  0.00000000E+00  0.00000000E+00  0.00000000E+00
  0.00000000E+00  0.00000000E+00  0.00000000E+00
  0.00000000E+00  0.00000000E+00  0.00000000E+00
  0.00000000E+00  0.00000000E+00  0.00000000E+00
  0.00000000E+00  0.00000000E+00  0.00000000E+00
  0.00000000E+00  0.00000000E+00  0.00000000E+00
  0.00000000E+00  0.00000000E+00  0.00000000E+00
  0.00000000E+00  0.00000000E+00  0.00000000E+00
  0.00000000E+00  0.00000000E+00  0.00000000E+00
  0.00000000E+00  0.00000000E+00  0.00000000E+00
  0.00000000E+00  0.00000000E+00  0.00000000E+00
  0.00000000E+00  0.00000000E+00  0.00000000E+00
  0.00000000E+00  0.00000000E+00  0.00000000E+00
  0.00000000E+00  0.00000000E+00  0.00000000E+00
  0.00000000E+00  0.00000000E+00  0.00000000E+00
  0.00000000E+00  0.00000000E+00  0.00000000E+00
  0.00000000E+00  0.00000000E+00  0.00000000E+00
  0.00000000E+00  0.00000000E+00  0.00000000E+00
  0.00000000E+00  0.00000000E+00  0.00000000E+00
  0.00000000E+00  0.00000000E+00  0.00000000E+00
  0.00000000E+00  0.00000000E+00  0.00000000E+00
  0.00000000E+00  0.00000000E+00  0.00000000E+00
  0.00000000E+00  0.00000000E+00  0.00000000E+00
  0.00000000E+00  0.00000000E+00  0.00000000E+00
  0.00000000E+00  0.00000000E+00  0.00000000E+00
  0.00000000E+00  0.00000000E+00  0.00000000E+00
  0.00000000E+00  0.00000000E+00  0.00000000E+00
  0.00000000E+00  0.00000000E+00  0.00000000E+00
  0.00000000E+00  0.00000000E+00  0.00000000E+00
  0.00000000E+00  0.00000000E+00  0.00000000E+00
  0.00000000E+00  0.00000000E+00  0.00000000E+00
  0.00000000E+00  0.00000000E+00  0.00000000E+00
  0.00000000E+00  0.00000000E+00  0.00000000E+00
  0.00000000E+00  0.00000000E+00  0.00000000E+00
  0.00000000E+00  0.00000000E+00  0.00000000E+00
  0.00000000E+00  0.00000000E+00  0.00000000E+00
  0.00000000E+00  0.00000000E+00  0.00000000E+00
  0.00000000E+00  0.00000000E+00  0.00000000E+00
  0.00000000E+00  0.00000000E+00  0.00000000E+00
  0.00000000E+00  0.00000000E+00  0.00000000E+00
  0.00000000E+00  0.00000000E+00  0.00000000E+00
  0.00000000E+00  0.00000000E+00  0.00000000E+00
  0.00000000E+00  0.00000000E+00  0.00000000E+00
  0.00000000E+00  0.00000000E+00  0.00000000E+00
  0.00000000E+00  0.00000000E+00  0.00000000E+00
  0.00000000E+00  0.00000000E+00  0.00000000E+00
  0.00000000E+00  0.00000000E+00  0.00000000E+00
  0.00000000E+00  0.00000000E+00  0.00000000E+00
  0.00000000E+00  0.00000000E+00  0.00000000E+00
  0.00000000E+00  0.00000000E+00  0.00000000E+00
  0.00000000E+00  0.00000000E+00  0.00000000E+00
  0.00000000E+00  0.00000000E+00  0.00000000E+00
  0.00000000E+00  0.00000000E+00  0.00000000E+00
  0.00000000E+00  0.00000000E+00  0.00000000E+00
  0.00000000E+00  0.00000000E+00  0.00000000E+00
  0.00000000E+00  0.00000000E+00  0.00000000E+00
  0.00000000E+00  0.00000000E+00  0.00000000E+00
  0.00000000E+00  0.00000000E+00  0.00000000E+00
  0.00000000E+00  0.00000000E+00  0.00000000E+00
  0.00000000E+00  0.00000000E+00  0.00000000E+00
  0.00000000E+00  0.00000000E+00  0.00000000E+00
  0.00000000E+00  0.00000000E+00  0.00000000E+00
  0.00000000E+00  0.00000000E+00  0.00000000E+00
  0.00000000E+00  0.00000000E+00  0.00000000E+00
  0.00000000E+00  0.00000000E+00  0.00000000E+00
  0.00000000E+00  0.00000000E+00  0.00000000E+00
  0.00000000E+00  0.00000000E+00  0.00000000E+00
  0.00000000E+00  0.00000000E+00  0.00000000E+00
  0.00000000E+00  0.00000000E+00  0.00000000E+00
  0.00000000E+00  0.00000000E+00  0.00000000E+00
  0.00000000E+00  0.00000000E+00  0.00000000E+00
  0.00000000E+00  0.00000000E+00  0.00000000E+00
  0.00000000E+00  0.00000000E+00  0.00000000E+00
  0.00000000E+00  0.00000000E+00  0.00000000E+00
  0.00000000E+00  0.00000000E+00  0.00000000E+00
  0.00000000E+00  0.00000000E+00  0.00000000E+00
  0.00000000E+00  0.00000000E+00  0.00000000E+00
  0.00000000E+00  0.00000000E+00  0.00000000E+00
  0.00000000E+00  0.00000000E+00  0.00000000E+00
  0.00000000E+00  0.00000000E+00  0.00000000E+00
  0.00000000E+00  0.00000000E+00  0.00000000E+00
  0.00000000E+00  0.00000000E+00  0.00000000E+00
  0.00000000E+00  0.00000000E+00  0.00000000E+00
  0.00000000E+00  0.00000000E+00  0.00000000E+00
  0.00000000E+00  0.00000000E+00  0.00000000E+00
  0.00000000E+00  0.00000000E+00  0.00000000E+00
  0.00000000E+00  0.00000000E+00  0.00000000E+00
  0.00000000E+00  0.00000000E+00  0.00000000E+00
  0.00000000E+00  0.00000000E+00  0.00000000E+00
  0.00000000E+00  0.00000000E+00  0.00000000E+00
  0.00000000E+00  0.00000000E+00  0.00000000E+00
  0.00000000E+00  0.00000000E+00  0.00000000E+00
  0.00000000E+00  0.00000000E+00  0.00000000E+00
  0.00000000E+00  0.00000000E+00  0.00000000E+00
  0.00000000E+00  0.00000000E+00  0.00000000E+00
  0.00000000E+00  0.00000000E+00  0.00000000E+00
  0.00000000E+00  0.00000000E+00  0.00000000E+00
  0.00000000E+00  0.00000000E+00  0.00000000E+00
  0.00000000E+00  0.00000000E+00  0.00000000E+00
  0.00000000E+00  0.00000000E+00  0.00000000E+00
  0.00000000E+00  0.00000000E+00  0.00000000E+00
  0.00000000E+00  0.00000000E+00  0.00000000E+00
  0.00000000E+00  0.00000000E+00  0.00000000E+00
  0.00000000E+00  0.00000000E+00  0.00000000E+00
  0.00000000E+00  0.00000000E+00  0.00000000E+00
  0.00000000E+00  0.00000000E+00  0.00000000E+00
  0.00000000E+00  0.00000000E+00  0.00000000E+00
  0.00000000E+00  0.00000000E+00  0.00000000E+00
  0.00000000E+00  0.00000000E+00  0.00000000E+00
  0.00000000E+00  0.00000000E+00  0.00000000E+00
  0.00000000E+00  0.00000000E+00  0.00000000E+00
  0.00000000E+00  0.00000000E+00  0.00000000E+00
  0.00000000E+00  0.00000000E+00  0.00000000E+00
