Mo48 H4 C1 S97 O1                       
   1.00000000000000     
    33.0000000000000000    0.0000000000000000    0.0000000000000000
     0.0000000000000000   25.5199999999999996    0.0000000000000000
     0.0000000000000000    0.0000000000000000   17.4728999999999992
   Mo   S    O    C    H 
    48    97     1     1     4
Direct
  0.2856678975064045  0.0994778272617473  0.4956157702220938
  0.3696493678238569  0.0319389102916403  0.4973658907974026
  0.2880849796861867  0.2086602372749861  0.4951497618353449
  0.3697074812573873  0.1564027064894491  0.4969336019841690
  0.4523804025297541  0.0946918450654546  0.4985234939962069
  0.5352034606066244  0.0325236311067665  0.5000195429339229
  0.2910923457408929  0.3482067558064951  0.4943151022234247
  0.3673310471239465  0.2815254250151453  0.4964476349268511
  0.4516912618777810  0.2201085885234364  0.4982204179083600
  0.5347673369518087  0.1574496023955123  0.4998018558446057
  0.6169164122418224  0.0951039474971480  0.5018821739758360
  0.2868461325559711  0.4700573467692677  0.4942936334870450
  0.3676106586815340  0.4082966340305892  0.4962800926091156
  0.4507748775564692  0.3449400665002904  0.4981530086395237
  0.5344153635332025  0.2827575304470591  0.4996734175384059
  0.2888893644814408  0.6035311350803944  0.4951253015461285
  0.3683361409125136  0.5328863231327513  0.4966488254575037
  0.4514933814388722  0.4698978100472080  0.4984028701206648
  0.5342137365567569  0.4070797529561140  0.4997345860186009
  0.2857019575863365  0.7141505377791091  0.4957620528559686
  0.3703975984261872  0.6580140406287480  0.4974149904909418
  0.4522434385950161  0.5946020283937820  0.4989452579689365
  0.5347981088634796  0.5322427327352195  0.5001061652487253
  0.4526988836564202  0.7199186492063210  0.4993510402999080
  0.5351010453938654  0.6569522426522298  0.5006261379208500
  0.6180927840466587  0.2201563901869705  0.5012840342265900
  0.7004907266166531  0.0341022112748997  0.5039049772349492
  0.6164209119429672  0.3449792204029546  0.5015839410484761
  0.7008379120749633  0.1552157979936666  0.5036233516413918
  0.6179282287930639  0.4697307220273294  0.5011051428383089
  0.7006449585912718  0.2853201075428818  0.5036875883526090
  0.6169431083686591  0.5946103929990201  0.5010006452798660
  0.6999909175868926  0.4062613041100356  0.5029403107679670
  0.6185774591001859  0.7195585544459500  0.5013659731030331
  0.7004090662804919  0.5336565602660291  0.5042556753387296
  0.7003045974039250  0.6556335743228999  0.4974216952789062
  0.2853166558701019  0.8519879199109274  0.4961550433541876
  0.3697797118034963  0.7822581529359071  0.4977703323352538
  0.2853339648044154  0.9617102357340330  0.4960764102704761
  0.3696613655477731  0.9070563858448794  0.4977023188133677
  0.4523972888115886  0.8447650640200319  0.4993046295381863
  0.5353958273247762  0.7824579270085124  0.5007471063033793
  0.4523258551984071  0.9696831207298708  0.4989297553014680
  0.5351869071231145  0.9071490858602320  0.5003907991321891
  0.6173135796941627  0.8447668390482175  0.5012808169040587
  0.6185544918181808  0.9698254241313254  0.5013831152641152
  0.7004181080838450  0.7833642698837978  0.4970297678570050
  0.7008387096944700  0.9054027263276572  0.5057184896347323
  0.3124633636158843  0.0310221630574843  0.4104799455420947
  0.3116226685327485  0.0312841362804408  0.5822362718783632
  0.3165627459944200  0.1537428790661990  0.4012747279682510
  0.3155664358667783  0.1541402092571598  0.5906022481191375
  0.3977050388962554  0.0938331435118077  0.4081869581101695
  0.3968526222167288  0.0941098592650831  0.5870564881484013
  0.4803369043985553  0.0320320299599146  0.4098148041608620
  0.4795204255125932  0.0322737706795666  0.5884717441180631
  0.3092482142265167  0.2781043906852158  0.4069184720740369
  0.3081219020175387  0.2783933223559632  0.5833239000920313
  0.3966915397610439  0.2202538609740643  0.4083712558773703
  0.3957483647235869  0.2205437543650317  0.5860626360585492
  0.4798740503477694  0.1574820724449475  0.4094411825968069
  0.4789868444921612  0.1576670969298974  0.5882112148227718
  0.5627570347873587  0.0950297723991121  0.4106547949637779
  0.5616411224243083  0.0951687033208905  0.5903939204277261
  0.3128674459843259  0.4106716533530188  0.4027918229609884
  0.3113425811740436  0.4100836548218588  0.5868773603063326
  0.3954742650833920  0.3444234538658377  0.4081250105322989
  0.3944177087653604  0.3445221023517016  0.5859712001187796
  0.4793982113847982  0.2826859900517367  0.4094009571474402
  0.4784736638800731  0.2827342254463222  0.5879185495146307
  0.5629126186022009  0.2201025274531476  0.4111596769141903
  0.5619403352141323  0.2201875412657115  0.5892306440769568
  0.6466628363434974  0.0324414022331327  0.4133800755536012
  0.6453647529852582  0.0322523509349647  0.5913099976382140
  0.6467872369485139  0.1575284582723694  0.4134328679209284
  0.6454127898856389  0.1579877288579501  0.5909737495347839
  0.3110042092210240  0.5358758881614735  0.4075118353481818
  0.3098001412300913  0.5355086005190586  0.5829738676550715
  0.3965486129598596  0.4705079577812653  0.4082081653603101
  0.3953673879691456  0.4702685308281992  0.5861574616751974
  0.4791244828043680  0.4073080943908637  0.4094365890216143
  0.4782064933104015  0.4071752071152417  0.5880781502774804
  0.5621722089634305  0.3449363856069551  0.4103379258416993
  0.5610934927814566  0.3449252176897854  0.5902564837760642
  0.3170221870873613  0.6600692875471065  0.4021849982298871
  0.3158097757378862  0.6596113133682029  0.5901285828057450
  0.3975639641697786  0.5945638229624823  0.4086087216287205
  0.3964250805793972  0.5941641210914205  0.5868336882209523
  0.4799504613277634  0.5322116702320802  0.4098156486865786
  0.4790787348678702  0.5319213519479408  0.5885464343710933
  0.5626694929588905  0.4696773733690083  0.4111812570409721
  0.5618718196912973  0.4694766737052921  0.5893982195768700
  0.3981298818203921  0.7206012528299862  0.4087043785402427
  0.3970796170637438  0.7203621910782672  0.5877240422222150
  0.4802729381474124  0.6573006095581354  0.4102591565481260
  0.4793935499846163  0.6570628243418198  0.5891253963583312
  0.5624271606112556  0.5946042970302962  0.4107401599369218
  0.5619783705848533  0.5945201994663127  0.5905480410376647
  0.5630567632945110  0.7196742107964791  0.4119819089976784
  0.5628432537164375  0.7196057780718286  0.5901299977107871
  0.6466524568449795  0.2827271168621746  0.4133005502960780
  0.6451529446384250  0.2824107513927383  0.5908530978016415
  0.7270995854408713  0.0944564786802967  0.4153390948972664
  0.7263686757817626  0.0949720434951886  0.5928077856630658
  0.6459577885866541  0.4074602581640302  0.4128160631567876
  0.6450641025697056  0.4076006875827873  0.5909875621723633
  0.7486444898956678  0.2203925638133868  0.4928538511884904
  0.6469995813906794  0.5321454004077707  0.4127448097221657
  0.6450127174219000  0.5318348616447299  0.5908387361882091
  0.7267432749746787  0.3460474933454029  0.4147103496355733
  0.7261942554358161  0.3455285846371156  0.5923419874890007
  0.6450891394896270  0.6574385535359835  0.4111779344510580
  0.6472096721115668  0.6569322615601271  0.5895857896697546
  0.7496104328549751  0.4697250914548549  0.5005737960111457
  0.7268878533437638  0.5948965675478268  0.4126958934241215
  0.7271249032313224  0.5942132843934416  0.5886709362324405
  0.7495353350544692  0.7195270676432891  0.5040851168631107
  0.2293302117969910  0.1647756717297067  0.4943747992885654
  0.2298253371441988  0.6483084880540726  0.4941699877381956
  0.2351489559333365  0.0337625902236912  0.4950452438060204
  0.3125710218397752  0.7827102717818730  0.4108192877717008
  0.3115614706786071  0.7825157291566734  0.5823244505859803
  0.3155091482167003  0.9068271710248568  0.4029429070919817
  0.3145395819892267  0.9069110111708933  0.5904466690586405
  0.3974596570926118  0.8444734582097976  0.4089290214557262
  0.3965280570566406  0.8445146993392174  0.5876357204212113
  0.4805601802420393  0.7824139397678148  0.4104791794476895
  0.4797165580329621  0.7824155123391348  0.5892285026029223
  0.3973475354792474  0.9696432017425918  0.4086801196453229
  0.3964974797686749  0.9698551649311190  0.5873379543529238
  0.4802020041761746  0.9071711805981407  0.4101295387678375
  0.4794351239536422  0.9073753256761017  0.5890026746044518
  0.5628040209790909  0.8449001711594466  0.4109770284197286
  0.5623247530211700  0.8448265175248446  0.5907567216371616
  0.5633609558538637  0.9697065343037972  0.4114874934326166
  0.5625316596818568  0.9699083623791984  0.5896283772180809
  0.6450575123321624  0.7817658413440148  0.4112740846325387
  0.6475188351496635  0.7821849613077848  0.5895702270154813
  0.6478306025227953  0.9072174556198217  0.4133570222698976
  0.6451947403727257  0.9076074608936539  0.5913207145359637
  0.7272812636509212  0.8439446253234174  0.4133413800680498
  0.7273196785222603  0.8448569388447130  0.5894205930735056
  0.7494867652810693  0.9698329637335298  0.4994492049071846
  0.2284601407669678  0.9068734627706204  0.4951324041182846
  0.2350286149487772  0.7798658101949869  0.4950102280395758
  0.2223761962186512  0.4661783355295379  0.5115174131162527
  0.1911008443811270  0.5064112426184170  0.5227467435607008
  0.1638401989312200  0.4948853964218924  0.4910462484592239
  0.1848452125760683  0.5107051919776248  0.5840634409139478
  0.2122971659750073  0.4317536610013653  0.5265660383212333
  0.2035758112774620  0.5429054751519639  0.4997280711058542
 
  0.00000000E+00  0.00000000E+00  0.00000000E+00
  0.00000000E+00  0.00000000E+00  0.00000000E+00
  0.00000000E+00  0.00000000E+00  0.00000000E+00
  0.00000000E+00  0.00000000E+00  0.00000000E+00
  0.00000000E+00  0.00000000E+00  0.00000000E+00
  0.00000000E+00  0.00000000E+00  0.00000000E+00
  0.00000000E+00  0.00000000E+00  0.00000000E+00
  0.00000000E+00  0.00000000E+00  0.00000000E+00
  0.00000000E+00  0.00000000E+00  0.00000000E+00
  0.00000000E+00  0.00000000E+00  0.00000000E+00
  0.00000000E+00  0.00000000E+00  0.00000000E+00
  0.00000000E+00  0.00000000E+00  0.00000000E+00
  0.00000000E+00  0.00000000E+00  0.00000000E+00
  0.00000000E+00  0.00000000E+00  0.00000000E+00
  0.00000000E+00  0.00000000E+00  0.00000000E+00
  0.00000000E+00  0.00000000E+00  0.00000000E+00
  0.00000000E+00  0.00000000E+00  0.00000000E+00
  0.00000000E+00  0.00000000E+00  0.00000000E+00
  0.00000000E+00  0.00000000E+00  0.00000000E+00
  0.00000000E+00  0.00000000E+00  0.00000000E+00
  0.00000000E+00  0.00000000E+00  0.00000000E+00
  0.00000000E+00  0.00000000E+00  0.00000000E+00
  0.00000000E+00  0.00000000E+00  0.00000000E+00
  0.00000000E+00  0.00000000E+00  0.00000000E+00
  0.00000000E+00  0.00000000E+00  0.00000000E+00
  0.00000000E+00  0.00000000E+00  0.00000000E+00
  0.00000000E+00  0.00000000E+00  0.00000000E+00
  0.00000000E+00  0.00000000E+00  0.00000000E+00
  0.00000000E+00  0.00000000E+00  0.00000000E+00
  0.00000000E+00  0.00000000E+00  0.00000000E+00
  0.00000000E+00  0.00000000E+00  0.00000000E+00
  0.00000000E+00  0.00000000E+00  0.00000000E+00
  0.00000000E+00  0.00000000E+00  0.00000000E+00
  0.00000000E+00  0.00000000E+00  0.00000000E+00
  0.00000000E+00  0.00000000E+00  0.00000000E+00
  0.00000000E+00  0.00000000E+00  0.00000000E+00
  0.00000000E+00  0.00000000E+00  0.00000000E+00
  0.00000000E+00  0.00000000E+00  0.00000000E+00
  0.00000000E+00  0.00000000E+00  0.00000000E+00
  0.00000000E+00  0.00000000E+00  0.00000000E+00
  0.00000000E+00  0.00000000E+00  0.00000000E+00
  0.00000000E+00  0.00000000E+00  0.00000000E+00
  0.00000000E+00  0.00000000E+00  0.00000000E+00
  0.00000000E+00  0.00000000E+00  0.00000000E+00
  0.00000000E+00  0.00000000E+00  0.00000000E+00
  0.00000000E+00  0.00000000E+00  0.00000000E+00
  0.00000000E+00  0.00000000E+00  0.00000000E+00
  0.00000000E+00  0.00000000E+00  0.00000000E+00
  0.00000000E+00  0.00000000E+00  0.00000000E+00
  0.00000000E+00  0.00000000E+00  0.00000000E+00
  0.00000000E+00  0.00000000E+00  0.00000000E+00
  0.00000000E+00  0.00000000E+00  0.00000000E+00
  0.00000000E+00  0.00000000E+00  0.00000000E+00
  0.00000000E+00  0.00000000E+00  0.00000000E+00
  0.00000000E+00  0.00000000E+00  0.00000000E+00
  0.00000000E+00  0.00000000E+00  0.00000000E+00
  0.00000000E+00  0.00000000E+00  0.00000000E+00
  0.00000000E+00  0.00000000E+00  0.00000000E+00
  0.00000000E+00  0.00000000E+00  0.00000000E+00
  0.00000000E+00  0.00000000E+00  0.00000000E+00
  0.00000000E+00  0.00000000E+00  0.00000000E+00
  0.00000000E+00  0.00000000E+00  0.00000000E+00
  0.00000000E+00  0.00000000E+00  0.00000000E+00
  0.00000000E+00  0.00000000E+00  0.00000000E+00
  0.00000000E+00  0.00000000E+00  0.00000000E+00
  0.00000000E+00  0.00000000E+00  0.00000000E+00
  0.00000000E+00  0.00000000E+00  0.00000000E+00
  0.00000000E+00  0.00000000E+00  0.00000000E+00
  0.00000000E+00  0.00000000E+00  0.00000000E+00
  0.00000000E+00  0.00000000E+00  0.00000000E+00
  0.00000000E+00  0.00000000E+00  0.00000000E+00
  0.00000000E+00  0.00000000E+00  0.00000000E+00
  0.00000000E+00  0.00000000E+00  0.00000000E+00
  0.00000000E+00  0.00000000E+00  0.00000000E+00
  0.00000000E+00  0.00000000E+00  0.00000000E+00
  0.00000000E+00  0.00000000E+00  0.00000000E+00
  0.00000000E+00  0.00000000E+00  0.00000000E+00
  0.00000000E+00  0.00000000E+00  0.00000000E+00
  0.00000000E+00  0.00000000E+00  0.00000000E+00
  0.00000000E+00  0.00000000E+00  0.00000000E+00
  0.00000000E+00  0.00000000E+00  0.00000000E+00
  0.00000000E+00  0.00000000E+00  0.00000000E+00
  0.00000000E+00  0.00000000E+00  0.00000000E+00
  0.00000000E+00  0.00000000E+00  0.00000000E+00
  0.00000000E+00  0.00000000E+00  0.00000000E+00
  0.00000000E+00  0.00000000E+00  0.00000000E+00
  0.00000000E+00  0.00000000E+00  0.00000000E+00
  0.00000000E+00  0.00000000E+00  0.00000000E+00
  0.00000000E+00  0.00000000E+00  0.00000000E+00
  0.00000000E+00  0.00000000E+00  0.00000000E+00
  0.00000000E+00  0.00000000E+00  0.00000000E+00
  0.00000000E+00  0.00000000E+00  0.00000000E+00
  0.00000000E+00  0.00000000E+00  0.00000000E+00
  0.00000000E+00  0.00000000E+00  0.00000000E+00
  0.00000000E+00  0.00000000E+00  0.00000000E+00
  0.00000000E+00  0.00000000E+00  0.00000000E+00
  0.00000000E+00  0.00000000E+00  0.00000000E+00
  0.00000000E+00  0.00000000E+00  0.00000000E+00
  0.00000000E+00  0.00000000E+00  0.00000000E+00
  0.00000000E+00  0.00000000E+00  0.00000000E+00
  0.00000000E+00  0.00000000E+00  0.00000000E+00
  0.00000000E+00  0.00000000E+00  0.00000000E+00
  0.00000000E+00  0.00000000E+00  0.00000000E+00
  0.00000000E+00  0.00000000E+00  0.00000000E+00
  0.00000000E+00  0.00000000E+00  0.00000000E+00
  0.00000000E+00  0.00000000E+00  0.00000000E+00
  0.00000000E+00  0.00000000E+00  0.00000000E+00
  0.00000000E+00  0.00000000E+00  0.00000000E+00
  0.00000000E+00  0.00000000E+00  0.00000000E+00
  0.00000000E+00  0.00000000E+00  0.00000000E+00
  0.00000000E+00  0.00000000E+00  0.00000000E+00
  0.00000000E+00  0.00000000E+00  0.00000000E+00
  0.00000000E+00  0.00000000E+00  0.00000000E+00
  0.00000000E+00  0.00000000E+00  0.00000000E+00
  0.00000000E+00  0.00000000E+00  0.00000000E+00
  0.00000000E+00  0.00000000E+00  0.00000000E+00
  0.00000000E+00  0.00000000E+00  0.00000000E+00
  0.00000000E+00  0.00000000E+00  0.00000000E+00
  0.00000000E+00  0.00000000E+00  0.00000000E+00
  0.00000000E+00  0.00000000E+00  0.00000000E+00
  0.00000000E+00  0.00000000E+00  0.00000000E+00
  0.00000000E+00  0.00000000E+00  0.00000000E+00
  0.00000000E+00  0.00000000E+00  0.00000000E+00
  0.00000000E+00  0.00000000E+00  0.00000000E+00
  0.00000000E+00  0.00000000E+00  0.00000000E+00
  0.00000000E+00  0.00000000E+00  0.00000000E+00
  0.00000000E+00  0.00000000E+00  0.00000000E+00
  0.00000000E+00  0.00000000E+00  0.00000000E+00
  0.00000000E+00  0.00000000E+00  0.00000000E+00
  0.00000000E+00  0.00000000E+00  0.00000000E+00
  0.00000000E+00  0.00000000E+00  0.00000000E+00
  0.00000000E+00  0.00000000E+00  0.00000000E+00
  0.00000000E+00  0.00000000E+00  0.00000000E+00
  0.00000000E+00  0.00000000E+00  0.00000000E+00
  0.00000000E+00  0.00000000E+00  0.00000000E+00
  0.00000000E+00  0.00000000E+00  0.00000000E+00
  0.00000000E+00  0.00000000E+00  0.00000000E+00
  0.00000000E+00  0.00000000E+00  0.00000000E+00
  0.00000000E+00  0.00000000E+00  0.00000000E+00
  0.00000000E+00  0.00000000E+00  0.00000000E+00
  0.00000000E+00  0.00000000E+00  0.00000000E+00
  0.00000000E+00  0.00000000E+00  0.00000000E+00
  0.00000000E+00  0.00000000E+00  0.00000000E+00
  0.00000000E+00  0.00000000E+00  0.00000000E+00
  0.00000000E+00  0.00000000E+00  0.00000000E+00
  0.00000000E+00  0.00000000E+00  0.00000000E+00
  0.00000000E+00  0.00000000E+00  0.00000000E+00
  0.00000000E+00  0.00000000E+00  0.00000000E+00
  0.00000000E+00  0.00000000E+00  0.00000000E+00
  0.00000000E+00  0.00000000E+00  0.00000000E+00
  0.00000000E+00  0.00000000E+00  0.00000000E+00
