Mo48 H4 C1 S97 O1
1.0
  33.0000000000000000    0.0000000000000000    0.0000000000000000
   0.0000000000000000   25.5199999999999996    0.0000000000000000
   0.0000000000000000    0.0000000000000000   17.4728999999999992
Mo S O C H
48 97 1 1 4
direct
   0.2855957454537545    0.1024684804208817    0.4984176391903574 Mo
   0.3695980697911097    0.0346069647322338    0.4988349346036998 Mo
   0.2880107012561268    0.2122441784633011    0.4982710408215070 Mo
   0.3699081490791656    0.1590274650347894    0.4984620771409709 Mo
   0.4524522884081463    0.0970710948691504    0.4989267022865960 Mo
   0.5351769131085433    0.0347180452187672    0.4997232685109694 Mo
   0.2903399735068106    0.3504429658918653    0.4984427200609360 Mo
   0.3680678953454546    0.2839423919311557    0.4984714997801447 Mo
   0.4521057205680066    0.2223505370957284    0.4987325316436326 Mo
   0.5350229780030986    0.1596239269995721    0.4995960473414058 Mo
   0.6170363839816773    0.0971115508187808    0.5013850559419453 Mo
   0.2868969628579023    0.4649840423935245    0.4987924448634047 Mo
   0.3688503643533210    0.4093419767465036    0.4988880492367755 Mo
   0.4516010900081682    0.3470221302330572    0.4989666809065483 Mo
   0.5349231208032919    0.2849082669881611    0.4995877680000120 Mo
   0.2872189621554782    0.6077154968118492    0.4992162320646543 Mo
   0.3680195333367493    0.5350845225623573    0.4994225360465876 Mo
   0.4515250018355204    0.4720118701780081    0.4995051269412158 Mo
   0.5345104583118001    0.4093958187143087    0.4997587284122815 Mo
   0.2854742127968919    0.7170637503877799    0.4993502358210620 Mo
   0.3694472266371136    0.6600039109890119    0.4998200551684917 Mo
   0.4516313429493906    0.5966887175377593    0.5000675530500374 Mo
   0.5346492036481010    0.5345357718462083    0.5000756720779123 Mo
   0.4521371389553011    0.7219758923410993    0.5002878081890927 Mo
   0.5346345130320103    0.6590721879436217    0.5003422757868563 Mo
   0.6184293079351306    0.2222160309136925    0.5012040625283092 Mo
   0.7003670725775919    0.0358414474080035    0.5005203231798987 Mo
   0.6167720761285551    0.3472261711578852    0.5014291653944625 Mo
   0.7007378636723303    0.1573086006515467    0.5070487249133535 Mo
   0.6180429396337175    0.4720645814391631    0.5003961040073364 Mo
   0.7006663274821889    0.2871075848473055    0.5063096124626512 Mo
   0.6166777921204627    0.5969420958976386    0.4996030853545577 Mo
   0.7002670479310567    0.4083726008103596    0.5014476835455284 Mo
   0.6181477918042475    0.7217913964179843    0.4995865884060677 Mo
   0.7003291794139415    0.5362215212448618    0.5022130201485382 Mo
   0.6999700582740260    0.6580107923800611    0.4942666870921784 Mo
   0.2852710848520417    0.8549117319709580    0.4991631586441585 Mo
   0.3694367643109402    0.7846964139575903    0.4998101170317995 Mo
   0.2852788959495882    0.9646359473747026    0.4988243957809573 Mo
   0.3695055621403043    0.9096719256250694    0.4994064041084343 Mo
   0.4520736772930576    0.8470604625132196    0.5000402709103113 Mo
   0.5349201227651363    0.7845651987567734    0.5003282366839699 Mo
   0.4521979520667401    0.9720915204956384    0.4994663601124216 Mo
   0.5349108915614380    0.9093267983623079    0.5000507363533018 Mo
   0.6168979242655652    0.8468589957384438    0.4994893880224680 Mo
   0.6184094154338453    0.9718450140992729    0.5003334922012783 Mo
   0.7000286890853644    0.7855420907840482    0.4938872121286479 Mo
   0.7004671312542285    0.9074967377878309    0.5021475650173315 Mo
   0.3120446170720612    0.0339790193369467    0.4127911402734270 S
   0.3119109948652081    0.0342279549270614    0.5845572878432819 S
   0.3160779629643358    0.1570140975303502    0.4040165335986288 S
   0.3159810023068204    0.1571464622375132    0.5927232151626427 S
   0.3974092861950069    0.0964095931218623    0.4092540294034421 S
   0.3972151127797190    0.0966381879754579    0.5881527759352636 S
   0.4800709259417104    0.0343444700139486    0.4099849386839480 S
   0.4797230238762040    0.0346246608991052    0.5886633666196630 S
   0.3094102451455001    0.2814670388209279    0.4104590553781904 S
   0.3093193654184745    0.2813675419390975    0.5862649901514487 S
   0.3967603788572802    0.2226803569292883    0.4095589136880733 S
   0.3965703583033147    0.2226636451924051    0.5874617925089112 S
   0.4799256103332254    0.1597569006562196    0.4095974705151235 S
   0.4794552364841422    0.1598581770912091    0.5884274409104577 S
   0.5627836943678517    0.0972688723927959    0.4102850497556219 S
   0.5618323199078006    0.0971311332874265    0.5900382026967605 S
   0.3136757131359005    0.4094557796024318    0.4048232711175075 S
   0.3134896156076650    0.4091993650967680    0.5925873842002716 S
   0.3961363016134953    0.3464438007536828    0.4096059571939179 S
   0.3959451603934099    0.3461840036968837    0.5878922344031707 S
   0.4797974869580628    0.2848323892295639    0.4096804948501003 S
   0.4793431627949190    0.2846997717895761    0.5883670309928846 S
   0.5633430451096899    0.2222538915675045    0.4109359133195980 S
   0.5622607629582319    0.2222610230022113    0.5890645817144957 S
   0.6458801034736439    0.0344330830898798    0.4119395993363497 S
   0.6461681670308010    0.0341000314620032    0.5900964450930815 S
   0.6479238821699909    0.1595229426945721    0.4139466026592800 S
   0.6446315453453337    0.1599102256435714    0.5916368091227184 S
   0.3079986685272900    0.5364166232746967    0.4133425224098701 S
   0.3077546785446117    0.5361745232296826    0.5848715794892669 S
   0.3959879829074922    0.4728872663417576    0.4102879016601548 S
   0.3957729913766102    0.4725575959259558    0.5882467644279004 S
   0.4792235490208299    0.4097091274727163    0.4099588245339874 S
   0.4788843047651241    0.4094260120644790    0.5887745304400767 S
   0.5625053371016620    0.3471984540603046    0.4102399540595698 S
   0.5615459586214868    0.3472519748921741    0.5901202017014100 S
   0.3157835102310074    0.6620836342321255    0.4048982690394851 S
   0.3154611094781643    0.6619703074180876    0.5940899115294940 S
   0.3962974417854710    0.5964685343326153    0.4107219560124520 S
   0.3960437907218051    0.5962246217646623    0.5888500758708801 S
   0.4793687469285643    0.5344557243750288    0.4105647135936721 S
   0.4792141920896356    0.5341649400226203    0.5892393998318823 S
   0.5625477251546798    0.4720282637516604    0.4109448837903429 S
   0.5622197085363396    0.4718901872983707    0.5891476715288277 S
   0.3970792190629453    0.7225554628307904    0.4106378777035360 S
   0.3968287134224511    0.7225628142865048    0.5893679362708255 S
   0.4793135966349311    0.6592884364606419    0.4108768918466126 S
   0.4792374492915457    0.6591790080776789    0.5896833007769189 S
   0.5617722385397670    0.5967820537674342    0.4101154657894597 S
   0.5620705423166967    0.5968901731963143    0.5900099879089495 S
   0.5621702889937197    0.7217578123795292    0.4111816720471140 S
   0.5627939048866892    0.7217715944637177    0.5892812276166666 S
   0.6475679695517655    0.2848408883179090    0.4137984810125843 S
   0.6447195859672306    0.2845351590709484    0.5915035709467702 S
   0.7275049151226440    0.0963489819474717    0.4159873177686677 S
   0.7263267708187229    0.0967520774811277    0.5928064694689397 S
   0.6459426149908012    0.4096357723677144    0.4121639648638435 S
   0.6457106359815157    0.4100829037468614    0.5903477611550016 S
   0.7488667744282509    0.2221959022061171    0.4983217485985421 S
   0.6466389883476182    0.5343607521911196    0.4113429155991000 S
   0.6452188114540292    0.5344770453122294    0.5894122893821034 S
   0.7273778850754624    0.3478206377962394    0.4160081758894236 S
   0.7262029736837192    0.3477197696641028    0.5929416608672895 S
   0.6442844282143696    0.6596734413281382    0.4090610801075982 S
   0.6473398111863204    0.6593735440834152    0.5874494970387403 S
   0.7495143652476841    0.4722816055879022    0.4990773034491625 S
   0.7263054297698659    0.5972687822586806    0.4096178771678964 S
   0.7272740670510700    0.5968889846474994    0.5857801358406576 S
   0.7492477833481175    0.7217660612921222    0.5001552659092283 S
   0.2294622598856364    0.1677758875885047    0.4982743590974863 S
   0.2289743110393303    0.6527469051042658    0.4989147657776627 S
   0.2350995682783079    0.0367673888921942    0.4984311535268589 S
   0.3120480922453481    0.7853351140868270    0.4135181185712824 S
   0.3117606863313966    0.7854341227263646    0.5854032034574388 S
   0.3150472468362651    0.9096367297158849    0.4053405873556883 S
   0.3147848194621474    0.9098975435747931    0.5929548085444551 S
   0.3968332747891665    0.8468197534298056    0.4104236695712871 S
   0.3965979997075806    0.8470639451396806    0.5891089887129013 S
   0.4796669609655737    0.7844582027374472    0.4109331579555828 S
   0.4795946253166221    0.7845866534695816    0.5895913498169776 S
   0.3969104429156758    0.9721607393639502    0.4098959316844599 S
   0.3967006108016591    0.9725042527573393    0.5885543907782136 S
   0.4796277099791695    0.9094155963057702    0.4104389962642614 S
   0.4794763188508426    0.9097183222727239    0.5893052810942052 S
   0.5619682066312919    0.8470032202021613    0.4101323857642143 S
   0.5623075910502848    0.8469025648960979    0.5899151681779244 S
   0.5629325049359508    0.9718512296961492    0.4109380877577280 S
   0.5626384594623985    0.9720028447782667    0.5890814204303680 S
   0.6442584973952563    0.7839490743092057    0.4089961944358862 S
   0.6474972376432646    0.7843542505430392    0.5872751509351986 S
   0.6468921356058885    0.9094708878831099    0.4111737562444659 S
   0.6454686396126448    0.9093589192988887    0.5893518720909228 S
   0.7264003087742310    0.8462355419865659    0.4094734322257239 S
   0.7274157021404477    0.8467838728510486    0.5854449401952380 S
   0.7494637820188643    0.9717175823868160    0.5002288802165680 S
   0.2284162893577815    0.9098004533719859    0.4986569780233125 S
   0.2351003555750140    0.7829631501827521    0.4990265733422135 S
   0.2302688222518417    0.4312254679421139    0.4997452924159003 O
   0.1890657601306295    0.4497663108104524    0.5082474443197056 C
   0.1686467301306296    0.4161406912963458    0.5009156178913508 H
   0.1851251974033568    0.4668691054812988    0.5654456415279537 H
   0.2334404319488114    0.3892044945878819    0.5012019664654284 H
   0.1830984898275992    0.4792859843997941    0.4640227764053926 H
