Mo36 Se72
1.0
  19.7340000000000018    0.0000000000000000    0.0000000000000012
  -9.8669999999999938   17.0901453182821115    0.0000000000000012
   0.0000000000000000    0.0000000000000000   25.8539999999999992
Mo Se
36 72
direct
   0.1203703703703706    0.0462962962962962    0.5000000000000001 Mo
   0.1203703703703706    0.2129629629629629    0.5000000000000001 Mo
   0.1203703703703706    0.3796296296296295    0.5000000000000001 Mo
   0.1203703703703707    0.5462962962962963    0.5000000000000000 Mo
   0.1203703703703706    0.7129629629629629    0.5000000000000000 Mo
   0.1203703703703706    0.8796296296296295    0.5000000000000000 Mo
   0.2870370370370373    0.0462962962962962    0.5000000000000001 Mo
   0.2870370370370373    0.2129629629629629    0.5000000000000001 Mo
   0.2870370370370373    0.3796296296296295    0.5000000000000000 Mo
   0.2870370370370373    0.5462962962962963    0.5000000000000000 Mo
   0.2870370370370373    0.7129629629629629    0.5000000000000000 Mo
   0.2870370370370373    0.8796296296296295    0.5000000000000000 Mo
   0.4537037037037039    0.0462962962962962    0.5000000000000001 Mo
   0.4537037037037040    0.2129629629629629    0.5000000000000000 Mo
   0.4537037037037040    0.3796296296296295    0.5000000000000000 Mo
   0.4537037037037040    0.5462962962962963    0.5000000000000000 Mo
   0.4537037037037040    0.7129629629629629    0.5000000000000000 Mo
   0.4537037037037040    0.8796296296296295    0.5000000000000000 Mo
   0.6203703703703707    0.0462962962962962    0.5000000000000000 Mo
   0.6203703703703707    0.2129629629629629    0.5000000000000000 Mo
   0.6203703703703707    0.3796296296296295    0.5000000000000000 Mo
   0.6203703703703707    0.5462962962962963    0.5000000000000000 Mo
   0.6203703703703707    0.7129629629629629    0.5000000000000000 Mo
   0.6203703703703707    0.8796296296296295    0.5000000000000000 Mo
   0.7870370370370373    0.0462962962962962    0.5000000000000000 Mo
   0.7870370370370373    0.2129629629629629    0.5000000000000000 Mo
   0.7870370370370373    0.3796296296296295    0.5000000000000000 Mo
   0.7870370370370373    0.5462962962962963    0.5000000000000000 Mo
   0.7870370370370373    0.7129629629629629    0.5000000000000000 Mo
   0.7870370370370373    0.8796296296296295    0.5000000000000001 Mo
   0.9537037037037039    0.0462962962962962    0.5000000000000000 Mo
   0.9537037037037038    0.2129629629629629    0.5000000000000000 Mo
   0.9537037037037039    0.3796296296296295    0.5000000000000000 Mo
   0.9537037037037039    0.5462962962962963    0.5000000000000000 Mo
   0.9537037037037041    0.7129629629629629    0.5000000000000001 Mo
   0.9537037037037041    0.8796296296296295    0.5000000000000001 Mo
   0.0648148148148151    0.1018518518518517    0.5645000000000000 Se
   0.0648148148148151    0.2685185185185184    0.5645000000000000 Se
   0.0648148148148151    0.4351851851851851    0.5644999999999999 Se
   0.0648148148148151    0.6018518518518517    0.5644999999999999 Se
   0.0648148148148151    0.7685185185185184    0.5644999999999999 Se
   0.0648148148148150    0.9351851851851851    0.5644999999999999 Se
   0.2314814814814817    0.1018518518518517    0.5645000000000000 Se
   0.2314814814814817    0.2685185185185184    0.5644999999999999 Se
   0.2314814814814817    0.4351851851851851    0.5644999999999999 Se
   0.2314814814814817    0.6018518518518517    0.5644999999999999 Se
   0.2314814814814817    0.7685185185185184    0.5644999999999999 Se
   0.2314814814814817    0.9351851851851851    0.5644999999999999 Se
   0.3981481481481484    0.1018518518518517    0.5644999999999999 Se
   0.3981481481481484    0.2685185185185184    0.5644999999999999 Se
   0.3981481481481484    0.4351851851851851    0.5644999999999999 Se
   0.3981481481481484    0.6018518518518517    0.5644999999999999 Se
   0.3981481481481484    0.7685185185185184    0.5644999999999999 Se
   0.3981481481481484    0.9351851851851851    0.5644999999999999 Se
   0.5648148148148151    0.1018518518518517    0.5644999999999999 Se
   0.5648148148148151    0.2685185185185184    0.5644999999999999 Se
   0.5648148148148151    0.4351851851851851    0.5644999999999999 Se
   0.5648148148148151    0.6018518518518517    0.5644999999999999 Se
   0.5648148148148151    0.7685185185185184    0.5644999999999999 Se
   0.5648148148148151    0.9351851851851851    0.5644999999999999 Se
   0.7314814814814817    0.1018518518518517    0.5644999999999999 Se
   0.7314814814814817    0.2685185185185184    0.5644999999999999 Se
   0.7314814814814817    0.4351851851851851    0.5644999999999999 Se
   0.7314814814814817    0.6018518518518517    0.5644999999999999 Se
   0.7314814814814817    0.7685185185185184    0.5644999999999999 Se
   0.7314814814814818    0.9351851851851851    0.5645000000000000 Se
   0.8981481481481484    0.1018518518518517    0.5644999999999999 Se
   0.8981481481481484    0.2685185185185184    0.5644999999999999 Se
   0.8981481481481484    0.4351851851851851    0.5644999999999999 Se
   0.8981481481481484    0.6018518518518517    0.5644999999999999 Se
   0.8981481481481484    0.7685185185185184    0.5645000000000000 Se
   0.8981481481481484    0.9351851851851851    0.5645000000000000 Se
   0.0648148148148151    0.1018518518518517    0.4355000000000000 Se
   0.0648148148148151    0.2685185185185184    0.4355000000000000 Se
   0.0648148148148151    0.4351851851851851    0.4355000000000000 Se
   0.0648148148148151    0.6018518518518517    0.4355000000000000 Se
   0.0648148148148151    0.7685185185185184    0.4355000000000000 Se
   0.0648148148148150    0.9351851851851851    0.4355000000000000 Se
   0.2314814814814817    0.1018518518518517    0.4355000000000000 Se
   0.2314814814814817    0.2685185185185184    0.4355000000000000 Se
   0.2314814814814817    0.4351851851851851    0.4355000000000000 Se
   0.2314814814814817    0.6018518518518517    0.4355000000000000 Se
   0.2314814814814817    0.7685185185185184    0.4355000000000000 Se
   0.2314814814814817    0.9351851851851851    0.4355000000000000 Se
   0.3981481481481484    0.1018518518518517    0.4355000000000000 Se
   0.3981481481481484    0.2685185185185184    0.4355000000000000 Se
   0.3981481481481484    0.4351851851851851    0.4355000000000000 Se
   0.3981481481481484    0.6018518518518517    0.4355000000000000 Se
   0.3981481481481484    0.7685185185185184    0.4355000000000000 Se
   0.3981481481481484    0.9351851851851851    0.4355000000000000 Se
   0.5648148148148151    0.1018518518518517    0.4355000000000000 Se
   0.5648148148148151    0.2685185185185184    0.4355000000000000 Se
   0.5648148148148151    0.4351851851851851    0.4355000000000000 Se
   0.5648148148148151    0.6018518518518517    0.4355000000000000 Se
   0.5648148148148151    0.7685185185185184    0.4355000000000000 Se
   0.5648148148148151    0.9351851851851851    0.4355000000000000 Se
   0.7314814814814817    0.1018518518518517    0.4355000000000000 Se
   0.7314814814814817    0.2685185185185184    0.4355000000000000 Se
   0.7314814814814817    0.4351851851851851    0.4355000000000000 Se
   0.7314814814814817    0.6018518518518517    0.4355000000000000 Se
   0.7314814814814817    0.7685185185185184    0.4355000000000000 Se
   0.7314814814814818    0.9351851851851851    0.4355000000000000 Se
   0.8981481481481484    0.1018518518518517    0.4355000000000000 Se
   0.8981481481481484    0.2685185185185184    0.4355000000000000 Se
   0.8981481481481484    0.4351851851851851    0.4355000000000000 Se
   0.8981481481481484    0.6018518518518517    0.4355000000000000 Se
   0.8981481481481484    0.7685185185185184    0.4355000000000000 Se
   0.8981481481481484    0.9351851851851851    0.4355000000000000 Se
