W48 S99                                 
   1.00000000000000     
    33.0000000000000000    0.0000000000000000    0.0000000000000000
     0.0000000000000000   25.2255992888999998    0.0000000000000000
     0.0000000000000000    0.0000000000000000   17.4930000304999993
   W    S    O    C 
    48    99     1     1
Direct
  0.2889001401361402  0.0416038500977342  0.5032930056477537
  0.2927701872351369  0.2816828384290852  0.5061277036923376
  0.2921042792655811  0.5327521770669671  0.4996686570396235
  0.2895313626744569  0.7878339500702518  0.5030512052577939
  0.4561288786238278  0.0357452122358729  0.5013768517662526
  0.4562768125208489  0.2855131718870116  0.4996369131429073
  0.4562302104418371  0.5353669995539234  0.5011985470605551
  0.4560894674945927  0.7856085904945626  0.5022692398500801
  0.6226470136144201  0.0358290898954320  0.4996925831856708
  0.6228146074849447  0.2854180944895363  0.4992943158523200
  0.6225882898602978  0.5349824655300754  0.5001190727094438
  0.6227056903855871  0.7854549076065389  0.5003498306215829
  0.2927459769880581  0.1641526215067073  0.5025407977051451
  0.2920475970494385  0.4143759341417915  0.4953008167635499
  0.2890701666719677  0.6549383656792555  0.5015645835826693
  0.2894437286089540  0.9082620551098401  0.5038745884741264
  0.4564341590720000  0.1605560758818294  0.4999502757815491
  0.4561598541802122  0.4100211699817988  0.5004272978946570
  0.4561956341093618  0.6600702822068480  0.5020116670311859
  0.4559701854318473  0.9104078024859420  0.5021159363558558
  0.6227063153597348  0.1602816018613282  0.4993333542070989
  0.6226713309015289  0.4105341993571913  0.4996550689386239
  0.6227002136399072  0.6601564707613957  0.5003879980453044
  0.6227046204578607  0.9106853534981584  0.5001034917037767
  0.3734318044119998  0.2231967296640125  0.5001354184047867
  0.3724209614260639  0.4720322080014872  0.5004344785745125
  0.3720709599619599  0.7225656195940070  0.5028725920995091
  0.3719367219146764  0.9733541588835226  0.5032354461178307
  0.5398949430839139  0.2229158605711937  0.4994400188999769
  0.5392179883369610  0.4727030960541639  0.5003835445014101
  0.5395943051724625  0.7228862164162630  0.5012951010828681
  0.5396753909743599  0.9731433466807922  0.5007200680866545
  0.7078261906088444  0.2160925999202556  0.4989365304129574
  0.7071427795870792  0.4724855615727346  0.4993130833759877
  0.7073453232662353  0.7286582076955455  0.4995127464131985
  0.7079125607899349  0.9796130415581982  0.4992074546394655
  0.3735999822948231  0.0986153421681452  0.5024533422929552
  0.3723810696939120  0.3481086329386009  0.5013127054598959
  0.3736861752480733  0.5975019591924847  0.5021150018702080
  0.3734074632634116  0.8479900325341654  0.5030358425722087
  0.5393095928421844  0.0980227561219687  0.4999565825671439
  0.5398373499943769  0.3479760055154002  0.4997260268838389
  0.5397271654892984  0.5976802606504092  0.5010075254456536
  0.5395034094742525  0.8480149320397929  0.5011921755283026
  0.7071939780945132  0.0983402169667651  0.4990390225245005
  0.7078022077348937  0.3547181811355312  0.4990396258835060
  0.7078544366158517  0.5912142255000653  0.4995201985358837
  0.7073618848976082  0.8422081131069213  0.4994042551853044
  0.2645151129534005  0.1031127527607047  0.5931419765548572
  0.2568140888359020  0.3468131356734599  0.5691320859547605
  0.2626414244364628  0.5940581237516890  0.5891731714332615
  0.2628994134548944  0.8477707192735277  0.5938051983617904
  0.4290431603169188  0.0985437016886004  0.5918485557648235
  0.4282217340330698  0.3475850117412423  0.5905773162329154
  0.4287445997969795  0.5974735046429913  0.5925525456679553
  0.4286411715281587  0.8480195637268607  0.5932570321409544
  0.5948319028666095  0.0981627341702888  0.5897654093766806
  0.5955005481349307  0.3476853293493223  0.5898915051032193
  0.5955250288327106  0.5976894944292528  0.5908362126262975
  0.5953739919663493  0.8483123054085737  0.5906598947718942
  0.4289997412115125  0.2231444372666591  0.5901569221519177
  0.4282040497146190  0.4723127051092730  0.5907034542208480
  0.4282075783266415  0.7226571708640001  0.5921495959788091
  0.4282465796013961  0.9734036441778339  0.5920148181879217
  0.5955088302405972  0.2230537549973603  0.5896862132482961
  0.5947708704248903  0.4726017573760531  0.5901597641540145
  0.5954239576513877  0.7226694287255438  0.5908064100719410
  0.5955474717034502  0.9731824059704272  0.5904415418633907
  0.3440198399325380  0.0364987048996288  0.5928613933167043
  0.3454339442069213  0.2836901088264550  0.5943071309829984
  0.3452325293580111  0.5339161015980159  0.5923903025695120
  0.3442760608410939  0.7850182385883806  0.5928586171420265
  0.5119209299289833  0.0356737229335663  0.5909226942803434
  0.5119706407329019  0.2854069730997782  0.5895891747333394
  0.5118114946387975  0.5351093216246799  0.5911543124771816
  0.5119683827796532  0.7854320536384488  0.5917680051282445
  0.6788435336423332  0.0369185775096079  0.5917704142867843
  0.6805078454683559  0.2853617397377211  0.5858580262916716
  0.6788029445701591  0.5339017010174141  0.5921342078792875
  0.6782017962023336  0.7854790612503665  0.5934483609694583
  0.3465431436706145  0.1627791509880633  0.5933650479657204
  0.3432698506124544  0.4105454368923259  0.5925559907367364
  0.3437158544282409  0.6596002100013363  0.5920823138572983
  0.3443294233982792  0.9108065840565519  0.5932328175138724
  0.5119639125775494  0.1608126248983923  0.5900346685275256
  0.5117348454528081  0.4099333379320286  0.5904649660059018
  0.5120142101004412  0.6601837597232181  0.5915403612119882
  0.5119232978345287  0.9107799433833328  0.5913958675756977
  0.6787329924489043  0.1594163539556990  0.5918306748817596
  0.6787464191264728  0.4113424696446038  0.5920704388469790
  0.6804654176420291  0.6598127386969261  0.5869219739213232
  0.6804687088976903  0.9110928252307867  0.5866853790564072
  0.2622797527939244  0.0996419697031311  0.4151185988938314
  0.2634830415034508  0.5966112801619099  0.4110195598837073
  0.2628331963579279  0.8480388449410202  0.4131414937233203
  0.4281975965204492  0.0977232425507650  0.4105886503920934
  0.4278175909793340  0.3478298525643230  0.4102297540020430
  0.4285629175843254  0.5980486426776142  0.4110787674036571
  0.4281161890557784  0.8479465280540983  0.4117770775485143
  0.5945363932921326  0.0978908443502472  0.4095319619401920
  0.5953217372783266  0.3479199797793830  0.4092147898537062
  0.5950876799804391  0.5978902770352260  0.4102083882522281
  0.5948060255529242  0.8481487496756630  0.4104333782149631
  0.2425242816747221  0.2239675198627684  0.4698595440938722
  0.2391435902493699  0.4764576167538662  0.4779943139957700
  0.2409799786760889  0.7222200125134135  0.5028691250548402
  0.2410182689085307  0.9737669295123162  0.5050436637609640
  0.4285799472854687  0.2230683355157073  0.4090854326549090
  0.4284068845402182  0.4728635615054793  0.4107065317947601
  0.4278274057316308  0.7228684631573188  0.4127211485189506
  0.4274568010227982  0.9729571588168092  0.4125126083195518
  0.5953811283153913  0.2230129784457008  0.4089922312168938
  0.5944624416656378  0.4729175640736248  0.4099691783403395
  0.5948865839502965  0.7226680331905230  0.4105692473122078
  0.5950582543251413  0.9729003899080854  0.4098801852752293
  0.3435624912595681  0.0355113163805246  0.4135989070915532
  0.3419413332061116  0.2859956274799328  0.4109706093985535
  0.3456735967774642  0.5354458581575077  0.4097677254833395
  0.3442087679701957  0.7852068549984038  0.4132989812224548
  0.5113172643724986  0.0351705211407239  0.4104184548730405
  0.5118669459998870  0.2855482740968647  0.4095418199864473
  0.5115342751758257  0.5355459512911250  0.4106326920345215
  0.5113860175945927  0.7853885101602295  0.4114351586043523
  0.6784823525325221  0.0367555981107173  0.4068507211189971
  0.6803132728283459  0.2854421507398393  0.4122761835826072
  0.6783873854711093  0.5340622230606132  0.4072080685191509
  0.6776504882031321  0.7853988645276521  0.4060923643183732
  0.3450403066639376  0.1605362882707185  0.4104173332331015
  0.3452617187168620  0.4103177851312119  0.4070955970673366
  0.3442037327668494  0.6604893850332354  0.4125935790877476
  0.3439305117401065  0.9108438226328335  0.4136476368095837
  0.5117263665715935  0.1604697671284838  0.4094147436945403
  0.5114998365203541  0.4103308527549882  0.4098699296059745
  0.5115319078789485  0.6604058776350334  0.4113975341993484
  0.5112709391572451  0.9104876266835636  0.4113127838570221
  0.6785130533422743  0.1593179913209697  0.4063687429366616
  0.6784370386414507  0.4115467396509553  0.4066014580587545
  0.6799808187255365  0.6598442108079139  0.4126955868301692
  0.6800154550499092  0.9109627414258642  0.4124613022727933
  0.7585745578312147  0.9113500472189973  0.4989009346091630
  0.7638515562229182  0.7853957812563895  0.4987295151916638
  0.7585236761448585  0.6594468080407035  0.4990849258583058
  0.7630770053511126  0.5336035589499514  0.4990944623533966
  0.7632871738253955  0.4113203232018320  0.4987248825217437
  0.7583355526316466  0.2854308454829350  0.4987184683152669
  0.7633291391166916  0.1595251851835747  0.4988835162657572
  0.7631381992270493  0.0372250253501678  0.4986351022856606
  0.2386803010761897  0.3562388290323525  0.3676624877486570
  0.2576196322531117  0.3761704682678706  0.4157360214498242
 
  0.00000000E+00  0.00000000E+00  0.00000000E+00
  0.00000000E+00  0.00000000E+00  0.00000000E+00
  0.00000000E+00  0.00000000E+00  0.00000000E+00
  0.00000000E+00  0.00000000E+00  0.00000000E+00
  0.00000000E+00  0.00000000E+00  0.00000000E+00
  0.00000000E+00  0.00000000E+00  0.00000000E+00
  0.00000000E+00  0.00000000E+00  0.00000000E+00
  0.00000000E+00  0.00000000E+00  0.00000000E+00
  0.00000000E+00  0.00000000E+00  0.00000000E+00
  0.00000000E+00  0.00000000E+00  0.00000000E+00
  0.00000000E+00  0.00000000E+00  0.00000000E+00
  0.00000000E+00  0.00000000E+00  0.00000000E+00
  0.00000000E+00  0.00000000E+00  0.00000000E+00
  0.00000000E+00  0.00000000E+00  0.00000000E+00
  0.00000000E+00  0.00000000E+00  0.00000000E+00
  0.00000000E+00  0.00000000E+00  0.00000000E+00
  0.00000000E+00  0.00000000E+00  0.00000000E+00
  0.00000000E+00  0.00000000E+00  0.00000000E+00
  0.00000000E+00  0.00000000E+00  0.00000000E+00
  0.00000000E+00  0.00000000E+00  0.00000000E+00
  0.00000000E+00  0.00000000E+00  0.00000000E+00
  0.00000000E+00  0.00000000E+00  0.00000000E+00
  0.00000000E+00  0.00000000E+00  0.00000000E+00
  0.00000000E+00  0.00000000E+00  0.00000000E+00
  0.00000000E+00  0.00000000E+00  0.00000000E+00
  0.00000000E+00  0.00000000E+00  0.00000000E+00
  0.00000000E+00  0.00000000E+00  0.00000000E+00
  0.00000000E+00  0.00000000E+00  0.00000000E+00
  0.00000000E+00  0.00000000E+00  0.00000000E+00
  0.00000000E+00  0.00000000E+00  0.00000000E+00
  0.00000000E+00  0.00000000E+00  0.00000000E+00
  0.00000000E+00  0.00000000E+00  0.00000000E+00
  0.00000000E+00  0.00000000E+00  0.00000000E+00
  0.00000000E+00  0.00000000E+00  0.00000000E+00
  0.00000000E+00  0.00000000E+00  0.00000000E+00
  0.00000000E+00  0.00000000E+00  0.00000000E+00
  0.00000000E+00  0.00000000E+00  0.00000000E+00
  0.00000000E+00  0.00000000E+00  0.00000000E+00
  0.00000000E+00  0.00000000E+00  0.00000000E+00
  0.00000000E+00  0.00000000E+00  0.00000000E+00
  0.00000000E+00  0.00000000E+00  0.00000000E+00
  0.00000000E+00  0.00000000E+00  0.00000000E+00
  0.00000000E+00  0.00000000E+00  0.00000000E+00
  0.00000000E+00  0.00000000E+00  0.00000000E+00
  0.00000000E+00  0.00000000E+00  0.00000000E+00
  0.00000000E+00  0.00000000E+00  0.00000000E+00
  0.00000000E+00  0.00000000E+00  0.00000000E+00
  0.00000000E+00  0.00000000E+00  0.00000000E+00
  0.00000000E+00  0.00000000E+00  0.00000000E+00
  0.00000000E+00  0.00000000E+00  0.00000000E+00
  0.00000000E+00  0.00000000E+00  0.00000000E+00
  0.00000000E+00  0.00000000E+00  0.00000000E+00
  0.00000000E+00  0.00000000E+00  0.00000000E+00
  0.00000000E+00  0.00000000E+00  0.00000000E+00
  0.00000000E+00  0.00000000E+00  0.00000000E+00
  0.00000000E+00  0.00000000E+00  0.00000000E+00
  0.00000000E+00  0.00000000E+00  0.00000000E+00
  0.00000000E+00  0.00000000E+00  0.00000000E+00
  0.00000000E+00  0.00000000E+00  0.00000000E+00
  0.00000000E+00  0.00000000E+00  0.00000000E+00
  0.00000000E+00  0.00000000E+00  0.00000000E+00
  0.00000000E+00  0.00000000E+00  0.00000000E+00
  0.00000000E+00  0.00000000E+00  0.00000000E+00
  0.00000000E+00  0.00000000E+00  0.00000000E+00
  0.00000000E+00  0.00000000E+00  0.00000000E+00
  0.00000000E+00  0.00000000E+00  0.00000000E+00
  0.00000000E+00  0.00000000E+00  0.00000000E+00
  0.00000000E+00  0.00000000E+00  0.00000000E+00
  0.00000000E+00  0.00000000E+00  0.00000000E+00
  0.00000000E+00  0.00000000E+00  0.00000000E+00
  0.00000000E+00  0.00000000E+00  0.00000000E+00
  0.00000000E+00  0.00000000E+00  0.00000000E+00
  0.00000000E+00  0.00000000E+00  0.00000000E+00
  0.00000000E+00  0.00000000E+00  0.00000000E+00
  0.00000000E+00  0.00000000E+00  0.00000000E+00
  0.00000000E+00  0.00000000E+00  0.00000000E+00
  0.00000000E+00  0.00000000E+00  0.00000000E+00
  0.00000000E+00  0.00000000E+00  0.00000000E+00
  0.00000000E+00  0.00000000E+00  0.00000000E+00
  0.00000000E+00  0.00000000E+00  0.00000000E+00
  0.00000000E+00  0.00000000E+00  0.00000000E+00
  0.00000000E+00  0.00000000E+00  0.00000000E+00
  0.00000000E+00  0.00000000E+00  0.00000000E+00
  0.00000000E+00  0.00000000E+00  0.00000000E+00
  0.00000000E+00  0.00000000E+00  0.00000000E+00
  0.00000000E+00  0.00000000E+00  0.00000000E+00
  0.00000000E+00  0.00000000E+00  0.00000000E+00
  0.00000000E+00  0.00000000E+00  0.00000000E+00
  0.00000000E+00  0.00000000E+00  0.00000000E+00
  0.00000000E+00  0.00000000E+00  0.00000000E+00
  0.00000000E+00  0.00000000E+00  0.00000000E+00
  0.00000000E+00  0.00000000E+00  0.00000000E+00
  0.00000000E+00  0.00000000E+00  0.00000000E+00
  0.00000000E+00  0.00000000E+00  0.00000000E+00
  0.00000000E+00  0.00000000E+00  0.00000000E+00
  0.00000000E+00  0.00000000E+00  0.00000000E+00
  0.00000000E+00  0.00000000E+00  0.00000000E+00
  0.00000000E+00  0.00000000E+00  0.00000000E+00
  0.00000000E+00  0.00000000E+00  0.00000000E+00
  0.00000000E+00  0.00000000E+00  0.00000000E+00
  0.00000000E+00  0.00000000E+00  0.00000000E+00
  0.00000000E+00  0.00000000E+00  0.00000000E+00
  0.00000000E+00  0.00000000E+00  0.00000000E+00
  0.00000000E+00  0.00000000E+00  0.00000000E+00
  0.00000000E+00  0.00000000E+00  0.00000000E+00
  0.00000000E+00  0.00000000E+00  0.00000000E+00
  0.00000000E+00  0.00000000E+00  0.00000000E+00
  0.00000000E+00  0.00000000E+00  0.00000000E+00
  0.00000000E+00  0.00000000E+00  0.00000000E+00
  0.00000000E+00  0.00000000E+00  0.00000000E+00
  0.00000000E+00  0.00000000E+00  0.00000000E+00
  0.00000000E+00  0.00000000E+00  0.00000000E+00
  0.00000000E+00  0.00000000E+00  0.00000000E+00
  0.00000000E+00  0.00000000E+00  0.00000000E+00
  0.00000000E+00  0.00000000E+00  0.00000000E+00
  0.00000000E+00  0.00000000E+00  0.00000000E+00
  0.00000000E+00  0.00000000E+00  0.00000000E+00
  0.00000000E+00  0.00000000E+00  0.00000000E+00
  0.00000000E+00  0.00000000E+00  0.00000000E+00
  0.00000000E+00  0.00000000E+00  0.00000000E+00
  0.00000000E+00  0.00000000E+00  0.00000000E+00
  0.00000000E+00  0.00000000E+00  0.00000000E+00
  0.00000000E+00  0.00000000E+00  0.00000000E+00
  0.00000000E+00  0.00000000E+00  0.00000000E+00
  0.00000000E+00  0.00000000E+00  0.00000000E+00
  0.00000000E+00  0.00000000E+00  0.00000000E+00
  0.00000000E+00  0.00000000E+00  0.00000000E+00
  0.00000000E+00  0.00000000E+00  0.00000000E+00
  0.00000000E+00  0.00000000E+00  0.00000000E+00
  0.00000000E+00  0.00000000E+00  0.00000000E+00
  0.00000000E+00  0.00000000E+00  0.00000000E+00
  0.00000000E+00  0.00000000E+00  0.00000000E+00
  0.00000000E+00  0.00000000E+00  0.00000000E+00
  0.00000000E+00  0.00000000E+00  0.00000000E+00
  0.00000000E+00  0.00000000E+00  0.00000000E+00
  0.00000000E+00  0.00000000E+00  0.00000000E+00
  0.00000000E+00  0.00000000E+00  0.00000000E+00
  0.00000000E+00  0.00000000E+00  0.00000000E+00
  0.00000000E+00  0.00000000E+00  0.00000000E+00
  0.00000000E+00  0.00000000E+00  0.00000000E+00
  0.00000000E+00  0.00000000E+00  0.00000000E+00
  0.00000000E+00  0.00000000E+00  0.00000000E+00
  0.00000000E+00  0.00000000E+00  0.00000000E+00
  0.00000000E+00  0.00000000E+00  0.00000000E+00
  0.00000000E+00  0.00000000E+00  0.00000000E+00
  0.00000000E+00  0.00000000E+00  0.00000000E+00
  0.00000000E+00  0.00000000E+00  0.00000000E+00
  0.00000000E+00  0.00000000E+00  0.00000000E+00
  0.00000000E+00  0.00000000E+00  0.00000000E+00
