H4 W48 C1 S97 O1                        
   1.00000000000000     
    33.0000000000000000    0.0000000000000000    0.0000000000000000
     0.0000000000000000   25.2255992900000017    0.0000000000000000
     0.0000000000000000    0.0000000000000000   17.4929999999999986
   W    S    O    C    H 
    48    97     1     1     4
Direct
  0.2885748258454251  0.0376222793387048  0.5005800040461195
  0.2906924966312969  0.2831108668373461  0.5004006907353082
  0.2886161973212903  0.5373981198708242  0.5004075835266483
  0.2904688398845859  0.7830320805779999  0.5004849259673461
  0.4557841845127760  0.0339809136614991  0.4997509954978472
  0.4561871233925563  0.2842948379228299  0.4991667136545688
  0.4558433159838688  0.5340182907615626  0.4991864087633436
  0.4559359557481542  0.7842603101038041  0.4996638805962372
  0.6226678009295651  0.0341591082483151  0.4989168077300272
  0.6234414502349194  0.2829888030606305  0.4973942763031234
  0.6234710281820849  0.5345505869503350  0.4975794455905788
  0.6226443281950920  0.7836354287633251  0.4987056594927999
  0.2906232381696229  0.1599849943900441  0.5004863921304917
  0.2887113901790577  0.4054015242702388  0.5003840554610921
  0.2905007001172727  0.6597341220887115  0.5003983589013055
  0.2885185769796299  0.9053785038666468  0.5005957525319963
  0.4559534214729389  0.1588279930429243  0.4994723807021658
  0.4561373766844580  0.4088776834070663  0.4990469285213353
  0.4558621045783834  0.6586443616319628  0.4994133755520246
  0.4558029019209042  0.9088109815544209  0.4998143207165259
  0.6216518927313980  0.1590882403572188  0.4984285953178801
  0.6241837496321239  0.4094511253598593  0.4970603695511460
  0.6215679095736018  0.6588042710329055  0.4982207803712151
  0.6230791977115339  0.9089007048735364  0.4990056610193742
  0.3723984372156792  0.2215629191358059  0.4999054379505947
  0.3717127108607922  0.4714110294108945  0.4997874663162706
  0.3722173036600790  0.7214308914048815  0.5000114774780663
  0.3715618353909767  0.9714482889735557  0.5002328832746269
  0.5394735539586135  0.2215802582689813  0.4986765110271252
  0.5397021899436226  0.4714581641105042  0.4983312209489982
  0.5388787108194567  0.7215637513677432  0.4990296859006418
  0.5395249073559910  0.9714308716674519  0.4993991220391605
  0.7054925599377447  0.2173252856236829  0.4976041365094059
  0.7045455029733341  0.4706048862752896  0.4961875697531579
  0.7062017443694032  0.7237453671732132  0.4979468529187213
  0.7084410625722853  0.9786776393868905  0.4986289002604571
  0.3733052240543948  0.0966077393144024  0.5000946330205581
  0.3734726857811775  0.3463869307864545  0.4997727261363004
  0.3732732126104684  0.5965145370822730  0.4998743459937707
  0.3732322214552925  0.8463234758038215  0.5001635674277940
  0.5389477159830867  0.0962636632925434  0.4991613646852038
  0.5398218007589651  0.3466564073226874  0.4982459706519058
  0.5393405605763510  0.5962866337620889  0.4986766744863446
  0.5395417365532521  0.8464466720625479  0.4993214045358767
  0.7062646547820476  0.0936246023047779  0.4982966536385693
  0.7028589486950289  0.3472060185836699  0.4960786785845122
  0.7049866846339161  0.6010532703013943  0.4971756077328467
  0.7084678728388841  0.8392547872742296  0.4984404903467867
  0.2623479885253527  0.0982911457968814  0.5894586426011856
  0.2624489162391095  0.3448353983749596  0.5893615004919602
  0.2623045006895624  0.5979481976958180  0.5893348095112949
  0.2622250582606225  0.8447449775581919  0.5894603419670924
  0.4284013909990794  0.0964941539312767  0.5904969226882396
  0.4286923859572527  0.3466508473240608  0.5900328650228837
  0.4283967658735818  0.5962215410205345  0.5902664100964184
  0.4283189730543439  0.8465086255426686  0.5906455996881729
  0.5944305178899024  0.0966135030671468  0.5889585324035327
  0.5960680181161907  0.3465613899253060  0.5871751891778949
  0.5949308979630898  0.5957246727031477  0.5887328613700908
  0.5954357149095408  0.8465075985236374  0.5890982515213126
  0.4283442677521120  0.2217046403338370  0.5895046141064484
  0.4278594141667065  0.4713352069563514  0.5891042257684447
  0.4281272922319339  0.7213896767468365  0.5896462809518347
  0.4275954322091545  0.9714173863717883  0.5897263689352293
  0.5949782820963514  0.2221605722039851  0.5888334467935548
  0.5958697402409177  0.4714528450197043  0.5875112832620110
  0.5943555318439200  0.7212461628071802  0.5887513517600063
  0.5954236588590784  0.9712554700182793  0.5891704294676720
  0.3435832638027941  0.0340893213518163  0.5899604464795171
  0.3448034303001426  0.2837482347491484  0.5907732665549544
  0.3436861192376451  0.5338916202880384  0.5896789606016465
  0.3445285655122897  0.7835475753443059  0.5909529213055775
  0.5114506729461292  0.0337237933307333  0.5897043564279678
  0.5119661870887925  0.2843512433835271  0.5887724256626901
  0.5116779857307456  0.5336277763777908  0.5887986725296570
  0.5115257573063908  0.7841017308241618  0.5896482958564099
  0.6783147003707152  0.0345788707806055  0.5913246823314420
  0.6811318268046163  0.2824244206528166  0.5868700358793164
  0.6812240807880480  0.5353072708130814  0.5863154105408164
  0.6783838493516148  0.7831488564863720  0.5909811993947449
  0.3447074157330345  0.1594483384068293  0.5908934348783905
  0.3437941741690848  0.4088817214620404  0.5896411599671084
  0.3445761284784239  0.6591948073211177  0.5908233527621238
  0.3435276914336333  0.9088808409826675  0.5899866585703202
  0.5115435044577223  0.1592082276408970  0.5892792027900684
  0.5120783950540784  0.4090324793233308  0.5886509181916105
  0.5114518199000193  0.6587044465018530  0.5892332763684507
  0.5116318180841892  0.9089665667471537  0.5895527018275653
  0.6781541176130120  0.1569168419837243  0.5886052336725246
  0.6808680225896312  0.4089522027909781  0.5889551594235778
  0.6779536986660702  0.6610387217180121  0.5886755529177692
  0.6812448163081414  0.9088500649410548  0.5847769063695252
  0.2620657125060329  0.0981720163909448  0.4119184959434867
  0.2621037160086803  0.3448415983619285  0.4118095218651678
  0.2619969404080940  0.5979680345577453  0.4118166018126290
  0.2619638881160873  0.8448450814702380  0.4119126266137190
  0.4281080443699816  0.0963124941810934  0.4090776301724213
  0.4282838372954388  0.3465686399436126  0.4086146489762291
  0.4280376426889334  0.5963767888105620  0.4087235768505497
  0.4280599394204756  0.8466004191875143  0.4091458205192812
  0.5941351315049750  0.0962791153879091  0.4087522258758385
  0.5955048672899595  0.3464198746556258  0.4082070632734268
  0.5944495057396505  0.5961336245357728  0.4076388684557600
  0.5951614514486234  0.8466995993573052  0.4089573189171234
  0.2387805186739452  0.2215777561257199  0.5004071954462928
  0.2398581213407512  0.4713477746889487  0.5006892088980663
  0.2386505624040589  0.7213789129897928  0.5004896390556105
  0.2398410622218815  0.9715189398289281  0.5008489787849998
  0.4279835332747589  0.2215104736291182  0.4095318666615554
  0.4274554004813961  0.4714240182689822  0.4095745675533843
  0.4278424617979052  0.7215541392944861  0.4097535456611571
  0.4273347873375110  0.9713761916519174  0.4101845085135408
  0.5944889702021404  0.2215271756020270  0.4075530699818302
  0.5952149578106689  0.4717590454530715  0.4079614426032923
  0.5940145779862607  0.7215748051587828  0.4085572398932279
  0.5951649927699137  0.9711942577439580  0.4090838847578616
  0.3433299246117756  0.0339936942054650  0.4106769937644118
  0.3444320972890321  0.2836699150989035  0.4092965691845584
  0.3433378060262639  0.5339516046343197  0.4103820269176990
  0.3442677402643012  0.7836532187129717  0.4094987866180210
  0.5111692116379759  0.0335611251657123  0.4092103231990330
  0.5115290498084448  0.2840893295159367  0.4086129838582610
  0.5112512195027498  0.5338475182943410  0.4086814555045324
  0.5112291335226169  0.7842921360469258  0.4090596268006394
  0.6780676756461903  0.0343146233448188  0.4059800983843869
  0.6808116177040217  0.2816350547222398  0.4065712042443310
  0.6806592688706157  0.5356931177650823  0.4075152596165498
  0.6780884097979953  0.7835090881189917  0.4057893109224753
  0.3443925980805830  0.1593145022067686  0.4094502575264091
  0.3434270710087409  0.4088890996641470  0.4103383730383194
  0.3442786524516430  0.6592832135085378  0.4093825027551609
  0.3432869565242190  0.9089172305727180  0.4107045321034928
  0.5111988715600921  0.1588909306911316  0.4089551450779216
  0.5116074841746322  0.4090608022453815  0.4084221818311149
  0.5111064496993655  0.6589387049492805  0.4088626248869035
  0.5113648968520614  0.9090174418233496  0.4095105362299789
  0.6778625172021155  0.1564309123411770  0.4077140583139417
  0.6799346688623998  0.4093840263103334  0.4035770928552549
  0.6775761402779783  0.6615074181945875  0.4068828909054479
  0.6810094725492234  0.9089539149603679  0.4126992891655765
  0.7592662096045878  0.9086467110639156  0.4984164960802527
  0.7639405806778831  0.7785236134707268  0.4979804686707678
  0.7638689258755513  0.6445585059058153  0.4972114651810776
  0.7638049993703815  0.1727438784726951  0.4977942339016874
  0.7640675575608232  0.0388534401399200  0.4982046485488972
  0.7674433646420781  0.4596638472918688  0.5125647991746585
  0.8021227395194898  0.4942136981523982  0.5300139399793542
  0.8270633620129482  0.4839806670306934  0.4913293853368466
  0.8107880835040129  0.4886983931870609  0.5899769449400351
  0.7732184307389147  0.4213505496216629  0.5193217448965135
  0.7915331209265817  0.5347436441793578  0.5198229544343983
 
  0.00000000E+00  0.00000000E+00  0.00000000E+00
  0.00000000E+00  0.00000000E+00  0.00000000E+00
  0.00000000E+00  0.00000000E+00  0.00000000E+00
  0.00000000E+00  0.00000000E+00  0.00000000E+00
  0.00000000E+00  0.00000000E+00  0.00000000E+00
  0.00000000E+00  0.00000000E+00  0.00000000E+00
  0.00000000E+00  0.00000000E+00  0.00000000E+00
  0.00000000E+00  0.00000000E+00  0.00000000E+00
  0.00000000E+00  0.00000000E+00  0.00000000E+00
  0.00000000E+00  0.00000000E+00  0.00000000E+00
  0.00000000E+00  0.00000000E+00  0.00000000E+00
  0.00000000E+00  0.00000000E+00  0.00000000E+00
  0.00000000E+00  0.00000000E+00  0.00000000E+00
  0.00000000E+00  0.00000000E+00  0.00000000E+00
  0.00000000E+00  0.00000000E+00  0.00000000E+00
  0.00000000E+00  0.00000000E+00  0.00000000E+00
  0.00000000E+00  0.00000000E+00  0.00000000E+00
  0.00000000E+00  0.00000000E+00  0.00000000E+00
  0.00000000E+00  0.00000000E+00  0.00000000E+00
  0.00000000E+00  0.00000000E+00  0.00000000E+00
  0.00000000E+00  0.00000000E+00  0.00000000E+00
  0.00000000E+00  0.00000000E+00  0.00000000E+00
  0.00000000E+00  0.00000000E+00  0.00000000E+00
  0.00000000E+00  0.00000000E+00  0.00000000E+00
  0.00000000E+00  0.00000000E+00  0.00000000E+00
  0.00000000E+00  0.00000000E+00  0.00000000E+00
  0.00000000E+00  0.00000000E+00  0.00000000E+00
  0.00000000E+00  0.00000000E+00  0.00000000E+00
  0.00000000E+00  0.00000000E+00  0.00000000E+00
  0.00000000E+00  0.00000000E+00  0.00000000E+00
  0.00000000E+00  0.00000000E+00  0.00000000E+00
  0.00000000E+00  0.00000000E+00  0.00000000E+00
  0.00000000E+00  0.00000000E+00  0.00000000E+00
  0.00000000E+00  0.00000000E+00  0.00000000E+00
  0.00000000E+00  0.00000000E+00  0.00000000E+00
  0.00000000E+00  0.00000000E+00  0.00000000E+00
  0.00000000E+00  0.00000000E+00  0.00000000E+00
  0.00000000E+00  0.00000000E+00  0.00000000E+00
  0.00000000E+00  0.00000000E+00  0.00000000E+00
  0.00000000E+00  0.00000000E+00  0.00000000E+00
  0.00000000E+00  0.00000000E+00  0.00000000E+00
  0.00000000E+00  0.00000000E+00  0.00000000E+00
  0.00000000E+00  0.00000000E+00  0.00000000E+00
  0.00000000E+00  0.00000000E+00  0.00000000E+00
  0.00000000E+00  0.00000000E+00  0.00000000E+00
  0.00000000E+00  0.00000000E+00  0.00000000E+00
  0.00000000E+00  0.00000000E+00  0.00000000E+00
  0.00000000E+00  0.00000000E+00  0.00000000E+00
  0.00000000E+00  0.00000000E+00  0.00000000E+00
  0.00000000E+00  0.00000000E+00  0.00000000E+00
  0.00000000E+00  0.00000000E+00  0.00000000E+00
  0.00000000E+00  0.00000000E+00  0.00000000E+00
  0.00000000E+00  0.00000000E+00  0.00000000E+00
  0.00000000E+00  0.00000000E+00  0.00000000E+00
  0.00000000E+00  0.00000000E+00  0.00000000E+00
  0.00000000E+00  0.00000000E+00  0.00000000E+00
  0.00000000E+00  0.00000000E+00  0.00000000E+00
  0.00000000E+00  0.00000000E+00  0.00000000E+00
  0.00000000E+00  0.00000000E+00  0.00000000E+00
  0.00000000E+00  0.00000000E+00  0.00000000E+00
  0.00000000E+00  0.00000000E+00  0.00000000E+00
  0.00000000E+00  0.00000000E+00  0.00000000E+00
  0.00000000E+00  0.00000000E+00  0.00000000E+00
  0.00000000E+00  0.00000000E+00  0.00000000E+00
  0.00000000E+00  0.00000000E+00  0.00000000E+00
  0.00000000E+00  0.00000000E+00  0.00000000E+00
  0.00000000E+00  0.00000000E+00  0.00000000E+00
  0.00000000E+00  0.00000000E+00  0.00000000E+00
  0.00000000E+00  0.00000000E+00  0.00000000E+00
  0.00000000E+00  0.00000000E+00  0.00000000E+00
  0.00000000E+00  0.00000000E+00  0.00000000E+00
  0.00000000E+00  0.00000000E+00  0.00000000E+00
  0.00000000E+00  0.00000000E+00  0.00000000E+00
  0.00000000E+00  0.00000000E+00  0.00000000E+00
  0.00000000E+00  0.00000000E+00  0.00000000E+00
  0.00000000E+00  0.00000000E+00  0.00000000E+00
  0.00000000E+00  0.00000000E+00  0.00000000E+00
  0.00000000E+00  0.00000000E+00  0.00000000E+00
  0.00000000E+00  0.00000000E+00  0.00000000E+00
  0.00000000E+00  0.00000000E+00  0.00000000E+00
  0.00000000E+00  0.00000000E+00  0.00000000E+00
  0.00000000E+00  0.00000000E+00  0.00000000E+00
  0.00000000E+00  0.00000000E+00  0.00000000E+00
  0.00000000E+00  0.00000000E+00  0.00000000E+00
  0.00000000E+00  0.00000000E+00  0.00000000E+00
  0.00000000E+00  0.00000000E+00  0.00000000E+00
  0.00000000E+00  0.00000000E+00  0.00000000E+00
  0.00000000E+00  0.00000000E+00  0.00000000E+00
  0.00000000E+00  0.00000000E+00  0.00000000E+00
  0.00000000E+00  0.00000000E+00  0.00000000E+00
  0.00000000E+00  0.00000000E+00  0.00000000E+00
  0.00000000E+00  0.00000000E+00  0.00000000E+00
  0.00000000E+00  0.00000000E+00  0.00000000E+00
  0.00000000E+00  0.00000000E+00  0.00000000E+00
  0.00000000E+00  0.00000000E+00  0.00000000E+00
  0.00000000E+00  0.00000000E+00  0.00000000E+00
  0.00000000E+00  0.00000000E+00  0.00000000E+00
  0.00000000E+00  0.00000000E+00  0.00000000E+00
  0.00000000E+00  0.00000000E+00  0.00000000E+00
  0.00000000E+00  0.00000000E+00  0.00000000E+00
  0.00000000E+00  0.00000000E+00  0.00000000E+00
  0.00000000E+00  0.00000000E+00  0.00000000E+00
  0.00000000E+00  0.00000000E+00  0.00000000E+00
  0.00000000E+00  0.00000000E+00  0.00000000E+00
  0.00000000E+00  0.00000000E+00  0.00000000E+00
  0.00000000E+00  0.00000000E+00  0.00000000E+00
  0.00000000E+00  0.00000000E+00  0.00000000E+00
  0.00000000E+00  0.00000000E+00  0.00000000E+00
  0.00000000E+00  0.00000000E+00  0.00000000E+00
  0.00000000E+00  0.00000000E+00  0.00000000E+00
  0.00000000E+00  0.00000000E+00  0.00000000E+00
  0.00000000E+00  0.00000000E+00  0.00000000E+00
  0.00000000E+00  0.00000000E+00  0.00000000E+00
  0.00000000E+00  0.00000000E+00  0.00000000E+00
  0.00000000E+00  0.00000000E+00  0.00000000E+00
  0.00000000E+00  0.00000000E+00  0.00000000E+00
  0.00000000E+00  0.00000000E+00  0.00000000E+00
  0.00000000E+00  0.00000000E+00  0.00000000E+00
  0.00000000E+00  0.00000000E+00  0.00000000E+00
  0.00000000E+00  0.00000000E+00  0.00000000E+00
  0.00000000E+00  0.00000000E+00  0.00000000E+00
  0.00000000E+00  0.00000000E+00  0.00000000E+00
  0.00000000E+00  0.00000000E+00  0.00000000E+00
  0.00000000E+00  0.00000000E+00  0.00000000E+00
  0.00000000E+00  0.00000000E+00  0.00000000E+00
  0.00000000E+00  0.00000000E+00  0.00000000E+00
  0.00000000E+00  0.00000000E+00  0.00000000E+00
  0.00000000E+00  0.00000000E+00  0.00000000E+00
  0.00000000E+00  0.00000000E+00  0.00000000E+00
  0.00000000E+00  0.00000000E+00  0.00000000E+00
  0.00000000E+00  0.00000000E+00  0.00000000E+00
  0.00000000E+00  0.00000000E+00  0.00000000E+00
  0.00000000E+00  0.00000000E+00  0.00000000E+00
  0.00000000E+00  0.00000000E+00  0.00000000E+00
  0.00000000E+00  0.00000000E+00  0.00000000E+00
  0.00000000E+00  0.00000000E+00  0.00000000E+00
  0.00000000E+00  0.00000000E+00  0.00000000E+00
  0.00000000E+00  0.00000000E+00  0.00000000E+00
  0.00000000E+00  0.00000000E+00  0.00000000E+00
  0.00000000E+00  0.00000000E+00  0.00000000E+00
  0.00000000E+00  0.00000000E+00  0.00000000E+00
  0.00000000E+00  0.00000000E+00  0.00000000E+00
  0.00000000E+00  0.00000000E+00  0.00000000E+00
  0.00000000E+00  0.00000000E+00  0.00000000E+00
  0.00000000E+00  0.00000000E+00  0.00000000E+00
  0.00000000E+00  0.00000000E+00  0.00000000E+00
  0.00000000E+00  0.00000000E+00  0.00000000E+00
  0.00000000E+00  0.00000000E+00  0.00000000E+00
  0.00000000E+00  0.00000000E+00  0.00000000E+00
  0.00000000E+00  0.00000000E+00  0.00000000E+00
  0.00000000E+00  0.00000000E+00  0.00000000E+00
