H4 W48 C1 S97 O1
1.0
  33.0000000000000000    0.0000000000000000    0.0000000000000000
   0.0000000000000000   25.2255992900000017    0.0000000000000000
   0.0000000000000000    0.0000000000000000   17.4929999999999986
W S O C H
48 97 1 1 4
direct
   0.2889056500000000    0.0389547200000000    0.5000015799999999 W
   0.2907852000000000    0.2848373800000000    0.5000017000000000 W
   0.2889559600000000    0.5388620200000001    0.5000017500000000 W
   0.2907242400000000    0.7847438500000000    0.5000021400000000 W
   0.4560171400000000    0.0355310200000000    0.5000028100000000 W
   0.4563110200000000    0.2857470200000000    0.5000027800000000 W
   0.4560602700000000    0.5355812200000000    0.5000007800000000 W
   0.4562080700000000    0.7858067399999999    0.5000008900000000 W
   0.6228935100000000    0.0357283800000000    0.5000009700000000 W
   0.6241544700000000    0.2851973700000000    0.5000015400000000 W
   0.6240268500000000    0.5359217100000000    0.5000008900000000 W
   0.6228664500000000    0.7851958800000000    0.4999997400000000 W
   0.2907383600000000    0.1612350400000000    0.5000011300000000 W
   0.2889978600000000    0.4070573500000000    0.5000022000000000 W
   0.2907384200000000    0.6611599400000000    0.5000022400000000 W
   0.2888813300000000    0.9070312400000000    0.5000020400000000 W
   0.4562046800000000    0.1603556300000000    0.5000031300000000 W
   0.4563124900000000    0.4103533100000000    0.5000015200000000 W
   0.4561550700000000    0.6602113700000000    0.5000006500000000 W
   0.4560792400000000    0.9103734600000000    0.5000017300000000 W
   0.6219530300000000    0.1603786800000000    0.5000010100000000 W
   0.6231768300000000    0.4104777000000000    0.5000013900000000 W
   0.6218763100000000    0.6604842700000000    0.5000003000000000 W
   0.6232702600000000    0.9104451099999999    0.4999996500000000 W
   0.3725333100000000    0.2230416700000000    0.5000017700000000 W
   0.3719562600000000    0.4729471600000000    0.5000008500000001 W
   0.3724971600000000    0.7229901300000000    0.5000014000000000 W
   0.3718404200000000    0.9729959100000000    0.5000017800000000 W
   0.5397476400000000    0.2231134400000000    0.5000035900000001 W
   0.5398169300000000    0.4731262200000000    0.5000014000000000 W
   0.5391357300000000    0.7230963600000000    0.5000004600000000 W
   0.5397931000000000    0.9729958900000000    0.5000018800000000 W
   0.7053109500000000    0.2171024000000000    0.4999994800000000 W
   0.7020752600000000    0.4698024600000000    0.5000009800000000 W
   0.7067164700000000    0.7249516800000000    0.5000001700000000 W
   0.7086565000000000    0.9800642300000000    0.4999989700000000 W
   0.3735428400000000    0.0981314000000000    0.5000021300000000 W
   0.3736686500000000    0.3478948800000000    0.5000016200000000 W
   0.3735459400000000    0.5980536000000000    0.5000009300000000 W
   0.3735232900000000    0.8478906300000000    0.5000012200000000 W
   0.5391240899999999    0.0978408500000000    0.5000027700000000 W
   0.5399070100000000    0.3479262500000000    0.5000021100000001 W
   0.5396092700000000    0.5978453400000000    0.5000010100000000 W
   0.5397996500000000    0.8479965200000000    0.5000008100000000 W
   0.7068114900000000    0.0960884700000000    0.4999990600000000 W
   0.7021937400000000    0.3515456600000000    0.5000002500000000 W
   0.7053299000000000    0.6035264900000000    0.5000008300000000 W
   0.7086189400000000    0.8406860300000000    0.4999993900000000 W
   0.2624508900000000    0.0995693100000000    0.5887911000000000 S
   0.2624907500000000    0.3464928800000000    0.5888033900000000 S
   0.2624804100000000    0.5994604100000001    0.5888007300000000 S
   0.2624242100000000    0.8464230200000000    0.5887850600000000 S
   0.4285048200000000    0.0979511300000000    0.5907158000000000 S
   0.4286614300000000    0.3480902800000000    0.5907313700000000 S
   0.4284772700000000    0.5978848100000000    0.5907653899999999 S
   0.4284824800000000    0.8481011200000000    0.5907444900000000 S
   0.5944153400000000    0.0979010000000000    0.5901181100000000 S
   0.5956075700000000    0.3475978800000000    0.5900342500000000 S
   0.5951192199999999    0.5973399700000001    0.5903600800000000 S
   0.5955315700000000    0.8481351200000000    0.5901085900000000 S
   0.4283065600000000    0.2230620700000000    0.5899734599999999 S
   0.4278869500000000    0.4729093500000000    0.5897640900000000 S
   0.4282672200000000    0.7230203400000000    0.5899455600000000 S
   0.4277361300000000    0.9729449000000000    0.5897923900000001 S
   0.5952925900000000    0.2236687800000000    0.5902815500000000 S
   0.5955514400000000    0.4734175100000000    0.5899673500000000 S
   0.5944253100000000    0.7229987700000000    0.5901198300000000 S
   0.5955596500000000    0.9728023700000000    0.5900837700000000 S
   0.3437582400000000    0.0355660200000000    0.5896924000000000 S
   0.3447577600000000    0.2852251500000000    0.5906916100000000 S
   0.3438063800000000    0.5354716300000000    0.5897110700000000 S
   0.3446842700000000    0.7851639000000000    0.5907001100000000 S
   0.5115273600000000    0.0351763700000000    0.5902418400000000 S
   0.5118382400000000    0.2855469200000000    0.5901158100000000 S
   0.5116379800000000    0.5353997100000000    0.5900985000000000 S
   0.5116393400000000    0.7857344400000000    0.5902905800000000 S
   0.6786370500000000    0.0361662200000000    0.5924794100000000 S
   0.6822969700000000    0.2836633000000000    0.5893503500000000 S
   0.6820330200000000    0.5373776000000000    0.5895183100000000 S
   0.6785506200000000    0.7847004700000000    0.5925478600000000 S
   0.3447031700000000    0.1608568900000000    0.5906789000000000 S
   0.3438665300000000    0.4104281600000000    0.5897035000000000 S
   0.3446996100000000    0.6607797300000000    0.5906907200000000 S
   0.3437325500000000    0.9104601100000000    0.5896956600000000 S
   0.5116450600000000    0.1606360200000000    0.5902063400000001 S
   0.5120069400000000    0.4105586600000000    0.5900858900000000 S
   0.5115775200000000    0.6603648200000000    0.5902154100000000 S
   0.5117671300000000    0.9105448400000000    0.5900206400000000 S
   0.6778397400000000    0.1578452300000000    0.5913334200000000 S
   0.6786346100000000    0.4106112500000000    0.5943483100000000 S
   0.6778536700000000    0.6630099800000000    0.5911867400000000 S
   0.6812472899999999    0.9103995400000000    0.5861282700000000 S
   0.2624498100000000    0.0995691100000000    0.4112104900000000 S
   0.2624893400000000    0.3464932000000000    0.4112008300000000 S
   0.2624801300000000    0.5994607199999999    0.4112020300000000 S
   0.2624230500000000    0.8464227300000000    0.4112188200000000 S
   0.4285038200000000    0.0979513600000000    0.4092807100000000 S
   0.4286604600000000    0.3480910800000000    0.4092670700000000 S
   0.4284762900000000    0.5978846100000000    0.4092340000000000 S
   0.4284812200000000    0.8481006900000000    0.4092528100000000 S
   0.5944160100000000    0.0979014800000000    0.4098761600000000 S
   0.5956081500000000    0.3475984200000000    0.4099653100000000 S
   0.5951199300000000    0.5973391900000000    0.4096388900000000 S
   0.5955319600000000    0.8481343000000000    0.4098850200000000 S
   0.2390528700000000    0.2230664400000000    0.5000013500000000 S
   0.2401221100000000    0.4729259200000000    0.5000028500000000 S
   0.2390153500000000    0.7229382500000000    0.5000054000000000 S
   0.2400784700000000    0.9729977800000000    0.5000025800000000 S
   0.4283055300000000    0.2230624200000000    0.4100234300000000 S
   0.4278858300000000    0.4729093800000000    0.4102351700000000 S
   0.4282658900000000    0.7230199400000000    0.4100529500000000 S
   0.4277347800000000    0.9729448500000000    0.4102044300000000 S
   0.5952930400000001    0.2236695200000000    0.4097159700000000 S
   0.5955518800000000    0.4734174500000000    0.4100329800000000 S
   0.5944258400000000    0.7229979800000000    0.4098764300000000 S
   0.5955600599999999    0.9728026800000000    0.4099100100000000 S
   0.3437572400000000    0.0355659000000000    0.4103070600000000 S
   0.3447570000000000    0.2852258000000000    0.4093084100000000 S
   0.3438053100000000    0.5354718500000000    0.4102903000000000 S
   0.3446832900000000    0.7851634300000000    0.4093006700000000 S
   0.5115268700000000    0.0351762900000000    0.4097516900000000 S
   0.5118383600000000    0.2855476600000000    0.4098816100000000 S
   0.5116379300000000    0.5353988000000000    0.4099010400000000 S
   0.5116388900000000    0.7857339100000000    0.4097045800000000 S
   0.6786379700000000    0.0361663600000000    0.4075146500000000 S
   0.6822971300000000    0.2836645000000000    0.4106475000000000 S
   0.6820336299999999    0.5373773800000000    0.4104821700000000 S
   0.6785517500000000    0.7847000800000000    0.4074489100000000 S
   0.3447022800000000    0.1608570300000000    0.4093200300000000 S
   0.3438655900000000    0.4104284100000000    0.4102976800000000 S
   0.3446985400000000    0.6607798800000000    0.4093114300000000 S
   0.3437314300000000    0.9104599500000000    0.4103048400000000 S
   0.5116450400000000    0.1606374200000000    0.4097886500000000 S
   0.5120069900000001    0.4105594000000000    0.4099133800000000 S
   0.5115770500000000    0.6603637999999999    0.4097821600000000 S
   0.5117665800000000    0.9105446400000000    0.4099734100000000 S
   0.6778403800000000    0.1578459700000000    0.4086622900000000 S
   0.6786350600000000    0.4106122200000000    0.4056523300000000 S
   0.6778545000000000    0.6630093000000000    0.4088124400000000 S
   0.6812485600000000    0.9103994000000000    0.4138663900000000 S
   0.7592770599999999    0.9103956900000000    0.4999991200000000 S
   0.7641907999999999    0.7809480100000000    0.5000008300000000 S
   0.7634452100000000    0.6494224500000000    0.5000025100000000 S
   0.7633700100000000    0.1709486900000000    0.4999990700000000 S
   0.7641832800000000    0.0397853300000000    0.4999992700000000 S
   0.7587034006060607    0.4356498989410632    0.4990492272989196 O
   0.7999064627272727    0.4544071266509147    0.5075416099662723 C
   0.8203254927272728    0.4203890722080940    0.5002182080340708 H
   0.8038470254545456    0.4717095231165965    0.5646740846704396 H
   0.7555317909090910    0.3931385108994274    0.5005042275847482 H
   0.8058737330303031    0.4842713158556739    0.4633677575681702 H
