Mo  S                                   
    1.000000000000000     
    33.0000000000000000    0.0000000000000000    0.0000000000000000
     0.0000000000000000   25.5200004577999984    0.0000000000000000
     0.0000000000000000    0.0000000000000000   17.4729003905999996
   Mo   S    O    C 
    48    99     2     1
Direct
  0.2834559430002747  0.1055270085443231  0.4997672320579941
  0.3680431458345934  0.0355787314728723  0.4999695720436091
  0.2846889687328267  0.2267924592484632  0.4996323017231494
  0.3686533826511336  0.1607491921008761  0.4996822965439864
  0.4505259133363674  0.0978007729178233  0.4996981129373460
  0.5334195462165575  0.0351896200852077  0.4996803681612508
  0.2850085177344928  0.3433070280552308  0.4995102439183566
  0.3693236195922793  0.2849172295830601  0.4995286579728133
  0.4518014889173103  0.2225932393153034  0.4992677277651031
  0.5336993059141509  0.1595335494538156  0.4987790181955173
  0.6154968866908029  0.0973662680245225  0.4989886350780359
  0.2842465855349890  0.4640074330147241  0.4994572767646560
  0.3694258951284583  0.4089041783621575  0.4996350938283121
  0.4524128525466187  0.3470456881430143  0.4993690058655669
  0.5348202481948204  0.2846515829019396  0.4984374973108813
  0.2850022332878476  0.6038786536100637  0.4995490433557414
  0.3690593763681086  0.5337934660096645  0.4998778745931185
  0.4518749955721277  0.4715599644682910  0.4999118523199826
  0.5354479218111288  0.4093368001866454  0.4994000514593074
  0.2846567228757088  0.7145874364395819  0.4997006344615809
  0.3688826334446654  0.6590615629759422  0.5000986714962464
  0.4516602172473590  0.5966303106788993  0.5003740477390047
  0.5350200677336143  0.5344339831550856  0.5005003940384709
  0.4512029362695459  0.7220485054527740  0.5005982846687566
  0.5341633526691958  0.6594519911279024  0.5008971279421368
  0.6167655217291206  0.2215173380742134  0.4963822854923238
  0.7002962382716549  0.0396774284273176  0.4997883577130360
  0.6182652291416852  0.3461302915380282  0.4971338281944501
  0.6960966499039316  0.1621251805428014  0.4977310724749088
  0.6191053340781987  0.4718063491522990  0.5008783435999350
  0.6972570184888990  0.2751151574815190  0.4883087922703470
  0.6164363000829859  0.5974117592667130  0.5016037771660421
  0.7010823874832699  0.4050313579939522  0.5001031272199855
  0.6171303332876528  0.7230920096781172  0.5012361084119761
  0.7001784161441255  0.5397945025141361  0.5128188915631329
  0.6996043264630651  0.6594671063181650  0.4983357163789361
  0.2842849268828677  0.8544151527260154  0.4998207278036483
  0.3684197211323517  0.7846309738647383  0.5002432827731850
  0.2842783042125640  0.9652443961615976  0.4998143037413442
  0.3681989011723483  0.9101613950772268  0.5001681941960739
  0.4508190103078129  0.8474848809244215  0.5005306861332208
  0.5337516028665510  0.7852509478461287  0.5008761963491845
  0.4506196441515643  0.9727301005992066  0.5001956410846220
  0.5335261086261637  0.9100410399170267  0.5004416876406942
  0.6155432628211144  0.8478838838572194  0.5005768367267193
  0.6168724967386036  0.9728264996898840  0.4999756022923869
  0.6993261377986958  0.7887478934035016  0.4967588092997349
  0.6994219397483274  0.9093188906390467  0.5031952850678858
  0.3105937311367258  0.0358071724434628  0.4142521677529710
  0.3105079299284678  0.0358686737178468  0.5854591823597997
  0.3128035683587538  0.1626658122172560  0.4084501446939155
  0.3128359634157528  0.1627686324657483  0.5909386025453234
  0.3951298439903713  0.0977001844204267  0.4101455211592323
  0.3952107381741693  0.0979000421529261  0.5894624263992544
  0.4779669658399093  0.0350150365213037  0.4105645027077794
  0.4781083181478711  0.0353614271848838  0.5891935061074206
  0.3134071724631461  0.2848970699181949  0.4073761978464430
  0.3134441313615661  0.2849578333875500  0.5917253153784776
  0.3965916155086837  0.2226122534050729  0.4101037409776407
  0.3967609938400616  0.2227074993127635  0.5889046566153682
  0.4783083912030644  0.1596404302124355  0.4097036928859628
  0.4787202906716436  0.1599967046036684  0.5887945512226924
  0.5606388834572184  0.0968427531003161  0.4091536173328204
  0.5608559942831712  0.0974762743544187  0.5890970075031006
  0.3135949209902379  0.4069927535266184  0.4082346995953298
  0.3134945942343269  0.4069821569612886  0.5908180988008890
  0.3971488635097538  0.3470504635464877  0.4101393864394813
  0.3972532994891702  0.3469517505924077  0.5888847850079654
  0.4794352500952076  0.2848168381139133  0.4094298682481776
  0.4799316430215810  0.2847213543503627  0.5886070686755542
  0.5608659765239726  0.2216761508113096  0.4084008387759815
  0.5620726909682430  0.2220958309731673  0.5874262862913759
  0.6452179280607793  0.0345593601065748  0.4111033299249173
  0.6451370305856761  0.0354569780547012  0.5881323529397526
  0.6435905693311590  0.1587440471927559  0.4066971871942676
  0.6435395105363242  0.1603610937798944  0.5891042706531328
  0.3115757600921231  0.5335472628311725  0.4140247314404445
  0.3113569820439446  0.5334658250444969  0.5852224878033374
  0.3963972870328366  0.4717488625477368  0.4102642407438197
  0.3963042826964401  0.4715617192374200  0.5893748234376256
  0.4799196645242944  0.4097663345759934  0.4101892554962654
  0.4800408665167860  0.4092972724057874  0.5889178772574313
  0.5624283724567508  0.3473270321132272  0.4090166920842811
  0.5634833831162165  0.3464833702087319  0.5877361127012958
  0.3144443047316398  0.6591691571949683  0.4059595755800627
  0.3141562017822784  0.6590603154545464  0.5936202115912702
  0.3963601799836753  0.5963825809921741  0.4108830105350231
  0.3961258141002090  0.5962157056848861  0.5893744375088560
  0.4795852935801450  0.5342710926696418  0.4111063684914125
  0.4793904501978046  0.5339551428967078  0.5894415327861716
  0.5635788654523332  0.4723160440992377  0.4112504938366527
  0.5630315010148377  0.4713895569944553  0.5891711459785318
  0.3959324431861039  0.7222215428102475  0.4111718274477731
  0.3956739029253471  0.7221352099859067  0.5894881792857327
  0.4789140405143414  0.6595095941607032  0.4112976629748401
  0.4786557921343333  0.6594076068468532  0.5899940973580914
  0.5620079459845905  0.5970853332823698  0.4110986651012056
  0.5614233028562065  0.5971773765561794  0.5909112655184420
  0.5614750714573835  0.7224778304216515  0.4120155429254791
  0.5614874852156555  0.7225640133267927  0.5900556223904669
  0.6434826090070417  0.2832702847060601  0.4031098241850324
  0.6478269446136911  0.2817254530649088  0.5851536056590610
  0.7253700584420201  0.0985398773889560  0.4113681450201592
  0.7249957485443201  0.1003322354523922  0.5866801826293462
  0.6474956157879711  0.4095056758287202  0.4108398039925082
  0.6469993106780673  0.4078148535954090  0.5896163164693861
  0.7505088202806219  0.2170331175543695  0.4856859039051015
  0.6485090078042484  0.5351977035617432  0.4153604751184378
  0.6431449438291990  0.5345718828470944  0.5931748187801988
  0.7302401245677191  0.3390950154303355  0.5693417800526336
  0.6442011033571819  0.6605946699346540  0.4123658783203223
  0.6456632256329458  0.6609226508043673  0.5895495116013953
  0.7430875145628032  0.4752819122275701  0.5422764378681322
  0.7276835736028492  0.5995718393218494  0.4176815251380343
  0.7237461947826783  0.6013374987438915  0.5972978166045909
  0.7478286736784284  0.7244368935330839  0.5044299127704476
  0.2294608158263657  0.1638484780342868  0.4997198749416107
  0.2293001372715304  0.2851419900433261  0.4996578455362920
  0.2281857081653426  0.6579827840800608  0.4990665868834027
  0.2346187005529419  0.0370349376045972  0.4997406013020574
  0.3109058446212085  0.7845807697982636  0.4144717984068377
  0.3106577151899951  0.7845369175958049  0.5853923796268048
  0.3137636640306465  0.9100254141898942  0.4060885952150824
  0.3135553272907736  0.9100609675710823  0.5938116288384389
  0.3955311283823736  0.8471734415857339  0.4111350074100090
  0.3953506889547747  0.8472417644098789  0.5895443130850468
  0.4784915650486480  0.7848347399134853  0.4114250839037492
  0.4783177505047149  0.7848878254230631  0.5899698026517080
  0.3952948826710201  0.9729461814943837  0.4108723346665296
  0.3952213632913345  0.9730955259067725  0.5893991117614100
  0.4781402294147227  0.9100396102484858  0.4110409883431489
  0.4781018349821366  0.9102689966918285  0.5897828135899252
  0.5607758513099395  0.8476741937472285  0.4106962150439521
  0.5608101668330915  0.8477954963011313  0.5906368407397777
  0.5612378518624224  0.9724430643001752  0.4109303332456959
  0.5612081610828539  0.9729507475323039  0.5891780590715479
  0.6436623343195771  0.7851751540855599  0.4111054171558960
  0.6458612693120870  0.7858211030450574  0.5889234695254233
  0.6454560935620619  0.9102969311870842  0.4122446541107991
  0.6438251655524067  0.9108809006733722  0.5895104276948259
  0.7249465423842653  0.8482852850905285  0.4102712279763192
  0.7252762021146055  0.8494463934633691  0.5893773890814740
  0.7481067832288275  0.9728899675631798  0.4981233914939296
  0.2276234616590053  0.9108463517053914  0.4993862139860686
  0.2347747055791746  0.7843311895755014  0.4995744325672148
  0.2352844502644453  0.5323737706671970  0.4992090336939735
  0.2299264823268981  0.4061754397929900  0.4992560510005165
  0.7309126979984650  0.3138202321032046  0.3943375928166518
  0.7456289825792692  0.4029527699651262  0.3976947882563551
  0.7277887808863528  0.3611330115124790  0.4135387174349594
 
  0.00000000E+00  0.00000000E+00  0.00000000E+00
  0.00000000E+00  0.00000000E+00  0.00000000E+00
  0.00000000E+00  0.00000000E+00  0.00000000E+00
  0.00000000E+00  0.00000000E+00  0.00000000E+00
  0.00000000E+00  0.00000000E+00  0.00000000E+00
  0.00000000E+00  0.00000000E+00  0.00000000E+00
  0.00000000E+00  0.00000000E+00  0.00000000E+00
  0.00000000E+00  0.00000000E+00  0.00000000E+00
  0.00000000E+00  0.00000000E+00  0.00000000E+00
  0.00000000E+00  0.00000000E+00  0.00000000E+00
  0.00000000E+00  0.00000000E+00  0.00000000E+00
  0.00000000E+00  0.00000000E+00  0.00000000E+00
  0.00000000E+00  0.00000000E+00  0.00000000E+00
  0.00000000E+00  0.00000000E+00  0.00000000E+00
  0.00000000E+00  0.00000000E+00  0.00000000E+00
  0.00000000E+00  0.00000000E+00  0.00000000E+00
  0.00000000E+00  0.00000000E+00  0.00000000E+00
  0.00000000E+00  0.00000000E+00  0.00000000E+00
  0.00000000E+00  0.00000000E+00  0.00000000E+00
  0.00000000E+00  0.00000000E+00  0.00000000E+00
  0.00000000E+00  0.00000000E+00  0.00000000E+00
  0.00000000E+00  0.00000000E+00  0.00000000E+00
  0.00000000E+00  0.00000000E+00  0.00000000E+00
  0.00000000E+00  0.00000000E+00  0.00000000E+00
  0.00000000E+00  0.00000000E+00  0.00000000E+00
  0.00000000E+00  0.00000000E+00  0.00000000E+00
  0.00000000E+00  0.00000000E+00  0.00000000E+00
  0.00000000E+00  0.00000000E+00  0.00000000E+00
  0.00000000E+00  0.00000000E+00  0.00000000E+00
  0.00000000E+00  0.00000000E+00  0.00000000E+00
  0.00000000E+00  0.00000000E+00  0.00000000E+00
  0.00000000E+00  0.00000000E+00  0.00000000E+00
  0.00000000E+00  0.00000000E+00  0.00000000E+00
  0.00000000E+00  0.00000000E+00  0.00000000E+00
  0.00000000E+00  0.00000000E+00  0.00000000E+00
  0.00000000E+00  0.00000000E+00  0.00000000E+00
  0.00000000E+00  0.00000000E+00  0.00000000E+00
  0.00000000E+00  0.00000000E+00  0.00000000E+00
  0.00000000E+00  0.00000000E+00  0.00000000E+00
  0.00000000E+00  0.00000000E+00  0.00000000E+00
  0.00000000E+00  0.00000000E+00  0.00000000E+00
  0.00000000E+00  0.00000000E+00  0.00000000E+00
  0.00000000E+00  0.00000000E+00  0.00000000E+00
  0.00000000E+00  0.00000000E+00  0.00000000E+00
  0.00000000E+00  0.00000000E+00  0.00000000E+00
  0.00000000E+00  0.00000000E+00  0.00000000E+00
  0.00000000E+00  0.00000000E+00  0.00000000E+00
  0.00000000E+00  0.00000000E+00  0.00000000E+00
  0.00000000E+00  0.00000000E+00  0.00000000E+00
  0.00000000E+00  0.00000000E+00  0.00000000E+00
  0.00000000E+00  0.00000000E+00  0.00000000E+00
  0.00000000E+00  0.00000000E+00  0.00000000E+00
  0.00000000E+00  0.00000000E+00  0.00000000E+00
  0.00000000E+00  0.00000000E+00  0.00000000E+00
  0.00000000E+00  0.00000000E+00  0.00000000E+00
  0.00000000E+00  0.00000000E+00  0.00000000E+00
  0.00000000E+00  0.00000000E+00  0.00000000E+00
  0.00000000E+00  0.00000000E+00  0.00000000E+00
  0.00000000E+00  0.00000000E+00  0.00000000E+00
  0.00000000E+00  0.00000000E+00  0.00000000E+00
  0.00000000E+00  0.00000000E+00  0.00000000E+00
  0.00000000E+00  0.00000000E+00  0.00000000E+00
  0.00000000E+00  0.00000000E+00  0.00000000E+00
  0.00000000E+00  0.00000000E+00  0.00000000E+00
  0.00000000E+00  0.00000000E+00  0.00000000E+00
  0.00000000E+00  0.00000000E+00  0.00000000E+00
  0.00000000E+00  0.00000000E+00  0.00000000E+00
  0.00000000E+00  0.00000000E+00  0.00000000E+00
  0.00000000E+00  0.00000000E+00  0.00000000E+00
  0.00000000E+00  0.00000000E+00  0.00000000E+00
  0.00000000E+00  0.00000000E+00  0.00000000E+00
  0.00000000E+00  0.00000000E+00  0.00000000E+00
  0.00000000E+00  0.00000000E+00  0.00000000E+00
  0.00000000E+00  0.00000000E+00  0.00000000E+00
  0.00000000E+00  0.00000000E+00  0.00000000E+00
  0.00000000E+00  0.00000000E+00  0.00000000E+00
  0.00000000E+00  0.00000000E+00  0.00000000E+00
  0.00000000E+00  0.00000000E+00  0.00000000E+00
  0.00000000E+00  0.00000000E+00  0.00000000E+00
  0.00000000E+00  0.00000000E+00  0.00000000E+00
  0.00000000E+00  0.00000000E+00  0.00000000E+00
  0.00000000E+00  0.00000000E+00  0.00000000E+00
  0.00000000E+00  0.00000000E+00  0.00000000E+00
  0.00000000E+00  0.00000000E+00  0.00000000E+00
  0.00000000E+00  0.00000000E+00  0.00000000E+00
  0.00000000E+00  0.00000000E+00  0.00000000E+00
  0.00000000E+00  0.00000000E+00  0.00000000E+00
  0.00000000E+00  0.00000000E+00  0.00000000E+00
  0.00000000E+00  0.00000000E+00  0.00000000E+00
  0.00000000E+00  0.00000000E+00  0.00000000E+00
  0.00000000E+00  0.00000000E+00  0.00000000E+00
  0.00000000E+00  0.00000000E+00  0.00000000E+00
  0.00000000E+00  0.00000000E+00  0.00000000E+00
  0.00000000E+00  0.00000000E+00  0.00000000E+00
  0.00000000E+00  0.00000000E+00  0.00000000E+00
  0.00000000E+00  0.00000000E+00  0.00000000E+00
  0.00000000E+00  0.00000000E+00  0.00000000E+00
  0.00000000E+00  0.00000000E+00  0.00000000E+00
  0.00000000E+00  0.00000000E+00  0.00000000E+00
  0.00000000E+00  0.00000000E+00  0.00000000E+00
  0.00000000E+00  0.00000000E+00  0.00000000E+00
  0.00000000E+00  0.00000000E+00  0.00000000E+00
  0.00000000E+00  0.00000000E+00  0.00000000E+00
  0.00000000E+00  0.00000000E+00  0.00000000E+00
  0.00000000E+00  0.00000000E+00  0.00000000E+00
  0.00000000E+00  0.00000000E+00  0.00000000E+00
  0.00000000E+00  0.00000000E+00  0.00000000E+00
  0.00000000E+00  0.00000000E+00  0.00000000E+00
  0.00000000E+00  0.00000000E+00  0.00000000E+00
  0.00000000E+00  0.00000000E+00  0.00000000E+00
  0.00000000E+00  0.00000000E+00  0.00000000E+00
  0.00000000E+00  0.00000000E+00  0.00000000E+00
  0.00000000E+00  0.00000000E+00  0.00000000E+00
  0.00000000E+00  0.00000000E+00  0.00000000E+00
  0.00000000E+00  0.00000000E+00  0.00000000E+00
  0.00000000E+00  0.00000000E+00  0.00000000E+00
  0.00000000E+00  0.00000000E+00  0.00000000E+00
  0.00000000E+00  0.00000000E+00  0.00000000E+00
  0.00000000E+00  0.00000000E+00  0.00000000E+00
  0.00000000E+00  0.00000000E+00  0.00000000E+00
  0.00000000E+00  0.00000000E+00  0.00000000E+00
  0.00000000E+00  0.00000000E+00  0.00000000E+00
  0.00000000E+00  0.00000000E+00  0.00000000E+00
  0.00000000E+00  0.00000000E+00  0.00000000E+00
  0.00000000E+00  0.00000000E+00  0.00000000E+00
  0.00000000E+00  0.00000000E+00  0.00000000E+00
  0.00000000E+00  0.00000000E+00  0.00000000E+00
  0.00000000E+00  0.00000000E+00  0.00000000E+00
  0.00000000E+00  0.00000000E+00  0.00000000E+00
  0.00000000E+00  0.00000000E+00  0.00000000E+00
  0.00000000E+00  0.00000000E+00  0.00000000E+00
  0.00000000E+00  0.00000000E+00  0.00000000E+00
  0.00000000E+00  0.00000000E+00  0.00000000E+00
  0.00000000E+00  0.00000000E+00  0.00000000E+00
  0.00000000E+00  0.00000000E+00  0.00000000E+00
  0.00000000E+00  0.00000000E+00  0.00000000E+00
  0.00000000E+00  0.00000000E+00  0.00000000E+00
  0.00000000E+00  0.00000000E+00  0.00000000E+00
  0.00000000E+00  0.00000000E+00  0.00000000E+00
  0.00000000E+00  0.00000000E+00  0.00000000E+00
  0.00000000E+00  0.00000000E+00  0.00000000E+00
  0.00000000E+00  0.00000000E+00  0.00000000E+00
  0.00000000E+00  0.00000000E+00  0.00000000E+00
  0.00000000E+00  0.00000000E+00  0.00000000E+00
  0.00000000E+00  0.00000000E+00  0.00000000E+00
  0.00000000E+00  0.00000000E+00  0.00000000E+00
  0.00000000E+00  0.00000000E+00  0.00000000E+00
  0.00000000E+00  0.00000000E+00  0.00000000E+00
  0.00000000E+00  0.00000000E+00  0.00000000E+00
  0.00000000E+00  0.00000000E+00  0.00000000E+00
