Mo  S                                   
1.0
  33.0000000000         0.0000000000         0.0000000000
   0.0000000000        25.5200004578         0.0000000000
   0.0000000000         0.0000000000        17.4729003906
Mo S O C
48 99 2 1
Cartesian
     9.392193518         2.679103302         8.699097631
    12.194088902         0.899656528         8.716933723
     9.415051780         5.767858866         8.696564484
    12.197819795         4.090264000         8.710079901
    14.914318897         2.489977906         8.729399982
    17.663295193         0.898332575         8.753375678
     9.410469440         8.744131767         8.697526089
    12.197323581         7.258056817         8.708196253
    14.930937645         5.672315469         8.724442784
    17.654432817         4.076796929         8.747089941
    20.370009079         2.507378067         8.781818508
     9.380884739        11.838685098         8.701181541
    12.187452171        10.426755734         8.710862030
    14.923652725         8.847087412         8.725880307
    17.654339658         7.266906991         8.753594686
     9.419482227        15.415855598         8.707451217
    12.180496164        13.620146177         8.716297006
    14.899705284        12.028410718         8.727690226
    17.643746702        10.439845174         8.753044599
     9.421973751        18.240618381         8.710751328
    12.192678325        16.819253730         8.722952376
    14.911232597        15.221420588         8.734553819
    17.640394076        13.626431978         8.746722636
    14.922618560        18.419577033         8.740505144
    17.651091349        16.813287717         8.754134750
    20.381406341         5.695182378         8.776630035
    23.154899772         1.018685490         8.704517030
    20.379139615         8.855512514         8.842066838
    23.033370947         4.140506111         8.838496428
    20.370825869        12.012018237         8.767805609
    22.991009470         7.238024276         8.923035060
    20.356469370        15.201377484         8.766261146
    22.986150228        10.475125945         8.913448502
    20.415085471        18.404623802         8.756296910
    23.022128791        13.571726845         8.809052434
    23.138898633        16.693674302         8.642960490
     9.427078983        21.804138499         8.710233059
    12.198441644        20.021736433         8.725957121
     9.429633661        24.627113958         8.706309455
    12.202928061        23.222437506         8.723553479
    14.929177779        21.619889245         8.741334567
    17.664904651        20.020913234         8.754267680
    14.927042867        24.818085840         8.737113921
    17.665588808        23.214139953         8.754413870
    20.368017434        21.615431525         8.743760781
    20.423143849        24.824567778         8.766992663
    23.125174277        20.072059073         8.653165021
    23.136141375        23.149497960         8.772464402
    10.302779189         0.902906275         7.211185770
    10.287263368         0.908676916        10.203158729
    10.362091537         4.137484893         7.106761592
    10.347506471         4.140568257        10.296439074
    13.094398189         2.484734691         7.152272031
    13.076162625         2.490997927        10.284424846
    15.843800340         0.891357138         7.180859491
    15.821383810         0.896873332        10.298824219
    10.360124533         7.257853544         7.089734880
    10.346629781         7.256981516        10.311371914
    13.120901345         5.671470437         7.151306213
    13.102256238         5.672986664        10.275647545
    15.842073059         4.074315602         7.169377572
    15.818427711         4.077266886        10.296070218
    18.575135320         2.488930720         7.190135272
    18.547365187         2.486700019        10.330783607
    10.351570615        10.379268840         7.108694047
    10.338089211        10.375545921        10.297660007
    13.114608907         8.846784501         7.151875224
    13.095232135         8.844459575        10.277007844
    15.852172854         7.262445970         7.167884715
    15.818981545         7.260255961        10.299481590
    18.578250151         5.679962682         7.191390443
    18.537238438         5.670340744        10.318858960
    21.318721353         0.907796569         7.219390345
    21.382800444         0.913310278        10.309658315
    21.331381062         4.106259649         7.222449732
    21.231700402         4.136661671        10.375669769
    10.288826433        13.616495120         7.212410808
    10.275629030        13.611517302        10.203835569
    13.079639741        12.032811647         7.151848361
    13.062731964        12.028473986        10.283692849
    15.834464975        10.443769773         7.171238128
    15.803902467        10.443484351        10.297904655
    18.600234585         8.855259875         7.215049795
    18.519823950         8.855903011        10.348492350
    10.400330887        16.824142285         7.073549912
    10.384110324        16.820240079        10.354569374
    13.092519240        15.217644546         7.164851956
    13.075721682        15.211674128        10.284293369
    15.821694343        13.626424299         7.175847798
    15.803742107        13.622476346        10.295896335
    18.561325547        12.025563645         7.188377070
    18.529512459        12.036145079        10.316379297
    13.102164246        18.427431442         7.171997599
    13.084813064        18.424678198        10.287934055
    15.830747708        16.822003837         7.182540020
    15.813449848        16.817798822        10.304460697
    18.551144458        15.217989602         7.187658477
    18.540236961        15.220347878        10.325201055
    18.572059802        18.411443353         7.203119924
    18.578469966        18.412567213        10.310050856
    21.397797571         7.320992194         7.252454143
    21.267950203         7.225052685        10.451194100
    24.024604945         2.521727031         7.255135170
    23.933053238         2.608034145        10.333256611
    21.389272066        10.386540863         7.245606642
    21.265453263        10.491231067        10.445654424
    24.575873917         5.750065774         8.216791915
    21.309343777        13.599011472         7.204063909
    21.229320610        13.577030411        10.357624013
    24.223539165         8.860350236         9.990001864
    21.282086570        16.800544310         7.191396575
    21.393599984        16.794226225        10.281834743
    24.564053082        11.959941726         8.189434437
    23.993425955        15.181600356         7.197281726
    23.946695279        15.109320842        10.272114027
    24.690455857        18.402283387         8.728784267
     7.600785818         4.158763437         8.690773468
     7.579995076         7.254627377         8.691714115
     7.550792053        16.802761326         8.701767124
     7.783420749         0.931210883         8.694116102
    10.303754264        20.021823273         7.222104754
    10.287908498        20.022303131        10.209301794
    10.410540835        23.218349653         7.073609403
    10.392795075        23.222559350        10.354061889
    13.109117462        21.614388926         7.172081406
    13.091154969        21.616243420        10.288614214
    15.842288606        20.018109711         7.187667599
    15.828374871        20.017635408        10.304592907
    13.107315478        24.822889699         7.166522318
    13.088785367        24.828532417        10.285042807
    15.843057788        23.218017559         7.184723826
    15.827416684        23.220874276        10.305447287
    18.557889579        21.619620200         7.182218965
    18.565937953        21.615007451        10.322472391
    18.589116284        24.819246351         7.205422941
    18.577777934        24.818224756        10.313144080
    21.274610934        19.998291553         7.178505699
    21.370340942        20.009595515        10.273581636
    21.337454638        23.231265953         7.208894502
    21.322105888        23.216450696        10.304267608
    23.940743032        21.609597769         7.131886100
    23.992902438        21.611604037        10.268018103
    24.698906580        24.823957424         8.817377503
     7.558310681        23.243417932         8.699757199
     7.783587694        20.024294418         8.703177556
     7.773967913        13.588289684         8.697807227
     7.593817490        10.353537940         8.692399333
    23.100000000         8.398000000         7.252500000
    23.100000000        10.718000000         7.252500000
    23.100000000         9.558000000         7.252500000     
