W48 S97                                 
   1.00000000000000     
    33.0000000000000000    0.0000000000000000    0.0000000000000000
     0.0000000000000000   25.2255992888999998    0.0000000000000000
     0.0000000000000000    0.0000000000000000   17.4930000304999993
   W    S    O    C 
    48    97     2     1
Direct
  0.2888774249142403  0.0409021638117798  0.5037070396771360
  0.2938187336099030  0.2832337525627309  0.5107430138273207
  0.2942993502015547  0.5318356003207292  0.5063270537885759
  0.2927029137567662  0.7819808246582851  0.5051346575486380
  0.4559063628055993  0.0356236982853170  0.5023855034167523
  0.4561752959131586  0.2858175135056507  0.5029968300227217
  0.4561027888154875  0.5353782816534751  0.5042503808663731
  0.4566305004687390  0.7854317497450277  0.5019338480832672
  0.6225405032292929  0.0358999421283402  0.4988702670843773
  0.6226395731719804  0.2854887151601406  0.4994597026586888
  0.6226327734669510  0.5350188940222192  0.4999269849212730
  0.6228236152531994  0.7855001922699875  0.4990685767242811
  0.2924818215360468  0.1639179771981349  0.5052662370359452
  0.2942175935196160  0.4142146764384220  0.5064124329288208
  0.2940288808562755  0.6627272167202335  0.5106018219518565
  0.2889885340723440  0.9049155449468052  0.5036958750943615
  0.4563027561263888  0.1606030228488555  0.5019198911646694
  0.4560339813637213  0.4104558341364926  0.5042669107737170
  0.4563583927200974  0.6600514372831437  0.5029705523522873
  0.4560513010356896  0.9103734005534752  0.5023993274602833
  0.6225101124768281  0.1603416193973685  0.4990184882264966
  0.6225697743119357  0.4106109967709005  0.4998997323207497
  0.6228274672836801  0.6602034066908730  0.4995281384446073
  0.6227476962556346  0.9107705045143704  0.4988821337291017
  0.3734071838602249  0.2238288553563919  0.5034606809692972
  0.3726254552382671  0.4729475001844538  0.5058046863346882
  0.3736312450175416  0.7221343205977722  0.5034093658522157
  0.3716586620095725  0.9729696349459248  0.5048763228276005
  0.5397140711506622  0.2230013506261330  0.5007366168301215
  0.5391923798121470  0.4728619575994057  0.5020194698320821
  0.5398145238075164  0.7228566187277738  0.5007591696280558
  0.5396627680730038  0.9731867628784806  0.5004656868790597
  0.7076162753817118  0.2161299740748637  0.4976001532193775
  0.7071296532873187  0.4724187799609656  0.4980626654761919
  0.7073587496007994  0.7294169255100955  0.4977178412725343
  0.7078905720534618  0.9795974184380063  0.4973806601832847
  0.3733706942983614  0.0985968934232733  0.5043418468462432
  0.3723405921474877  0.3492618596601272  0.5075167258367850
  0.3724691141786547  0.5966462544335354  0.5074306821249119
  0.3735790976101632  0.8473440221011058  0.5043326927399483
  0.5391380317327686  0.0980396355906644  0.5004231571469863
  0.5397314108109678  0.3481055646397239  0.5016124698671186
  0.5398719797530782  0.5976559757547129  0.5016355224066250
  0.5397135706087183  0.8480755822742597  0.5004409583481332
  0.7070518385998931  0.0985439235015546  0.4974444900033978
  0.7076538355326770  0.3547645914471469  0.4979095827464541
  0.7079580452668995  0.5914052531282922  0.4979712299844411
  0.7073352923644964  0.8416336829520672  0.4975097568412716
  0.2639684932150089  0.1033063679458314  0.5940784854732490
  0.2570278140066203  0.3466749666692573  0.5725890349030860
  0.2571268350761858  0.5993585777884913  0.5724541476515550
  0.2641265602658796  0.8425321992313841  0.5940256834161493
  0.4290034121294203  0.0981664032989071  0.5934216197922976
  0.4289086742633423  0.3478943919157108  0.5951644400677220
  0.4290287925990273  0.5979998675384792  0.5951116596202310
  0.4292370671855543  0.8477810529763353  0.5934226662571668
  0.5949827245733875  0.0980108370925420  0.5895283843922240
  0.5958814949887551  0.3477419154300885  0.5906672094783246
  0.5960362761860488  0.5979779188870913  0.5907039960709229
  0.5957139202417236  0.8483514198620146  0.5895732292360076
  0.4292558323673153  0.2228674281462000  0.5929885587613215
  0.4287920210915404  0.4729455794859697  0.5953177856512185
  0.4295191405168628  0.7231000683436702  0.5929122129035470
  0.4282467258556112  0.9729516593871901  0.5929469304525604
  0.5957329086025084  0.2229478384144791  0.5900505763990194
  0.5952252327214148  0.4728511448686543  0.5907412126741887
  0.5957911988541058  0.7228560691923854  0.5899110420036304
  0.5957752951755343  0.9731001228495912  0.5896898814028435
  0.3434464368015622  0.0361374913182486  0.5942819442582454
  0.3460923856060800  0.2837775798833223  0.5993760911651175
  0.3442003043041106  0.5340266269317364  0.6005879126889719
  0.3468902957790417  0.7835035023753808  0.5953741942384622
  0.5120154250135618  0.0353994497074821  0.5912786667740937
  0.5123588332496536  0.2853451577551165  0.5917892278742587
  0.5123424667697876  0.5355746300763491  0.5928754753780632
  0.5125363726479296  0.7855684366929502  0.5912508499064379
  0.6790305490336757  0.0368778587345756  0.5903229109046170
  0.6807279651500000  0.2853597343491143  0.5851092549435608
  0.6792531178960435  0.5341033154342888  0.5911130678743984
  0.6783788128341632  0.7855997068359201  0.5922755894081718
  0.3466868176067875  0.1624320249047723  0.5954322254059493
  0.3441410294941403  0.4119575534415332  0.6006500579987524
  0.3462758883102522  0.6621746182889363  0.5992773932743422
  0.3435619950303608  0.9097467440470036  0.5942620759240196
  0.5121423439285497  0.1605468004480676  0.5912876890756721
  0.5122728482169533  0.4102054908874108  0.5928847124128213
  0.5125069398011589  0.6604700495781176  0.5918045412785714
  0.5122550894032759  0.9106364816122907  0.5911200225102371
  0.6788945163128286  0.1593659531437199  0.5908046345335406
  0.6790840112986977  0.4114545409347452  0.5914142870364317
  0.6808599117782930  0.6601367961725195  0.5853764326675668
  0.6807301722907669  0.9109907817956622  0.5848599990420265
  0.2627520339085030  0.0997537867580314  0.4159004481827882
  0.2629247294601265  0.8460994367205866  0.4157782493591531
  0.4278378301381540  0.0980419126880365  0.4122433519350949
  0.4270489476418602  0.3485760787663624  0.4147946978246423
  0.4272003006313424  0.5973097644159090  0.4147548367833134
  0.4280837297730288  0.8479157961353149  0.4122676870811920
  0.5940638397938380  0.0981029794307397  0.4093035137409560
  0.5947162391682155  0.3480506286836914  0.4099838464682115
  0.5948872382931422  0.5977001887292283  0.4100234570949896
  0.5948030729610689  0.8482338679211058  0.4093027903320191
  0.2453676568770902  0.2261117662237931  0.4639649269192505
  0.2455304011422687  0.7198427886348399  0.4639539031172412
  0.2415723012531685  0.9728695797209718  0.5045380747631869
  0.4282872623049218  0.2237730596041192  0.4121664333773184
  0.4278644393348418  0.4729269444074563  0.4144837514972721
  0.4285758883230224  0.7222379150886385  0.4122024163156014
  0.4270074770202015  0.9729445932647491  0.4135484829188595
  0.5947908353867928  0.2232548600032441  0.4093808927857771
  0.5939700005350805  0.4728665579622460  0.4105316059521368
  0.5948730145167435  0.7225334141798564  0.4096215521551901
  0.5948084765359346  0.9730840880258166  0.4090738439784533
  0.3436435110371410  0.0354166417669498  0.4151561618676079
  0.3424628671134604  0.2878976757719461  0.4154214336500732
  0.3438720714754341  0.5353608493087405  0.4138538952106732
  0.3451116234627176  0.7846891661036528  0.4132465300922377
  0.5108748365126717  0.0353769227773422  0.4108626648795523
  0.5112435033610938  0.2859233440874376  0.4117567093678431
  0.5109389796541594  0.5353676433706386  0.4124410709193611
  0.5116541555026024  0.7853383979708780  0.4107316200975387
  0.6781190213565197  0.0369126821015509  0.4054782411634738
  0.6797403407403518  0.2855690321383997  0.4114973270542738
  0.6780782602034179  0.5340234761964942  0.4062650892680905
  0.6774532675091617  0.7854358347387759  0.4039562991740287
  0.3448477780585097  0.1612686512080222  0.4132989691943338
  0.3437757504328386  0.4105532861332921  0.4139348615165456
  0.3426894467064582  0.6580911301972617  0.4153058300246202
  0.3437640427253833  0.9104579263442821  0.4151543837632148
  0.5112562364402369  0.1607927970874130  0.4106637062603344
  0.5108538119280743  0.4104473011931255  0.4124240281188857
  0.5114153931262816  0.6598991505556511  0.4117579101370221
  0.5111145612234858  0.9106480487453852  0.4110495973460647
  0.6779666502492118  0.1595027037019521  0.4052470236567155
  0.6779133944426217  0.4115663851038235  0.4058912546572568
  0.6798903099053655  0.6599550654203089  0.4114149123354074
  0.6798847317977469  0.9109268529813587  0.4109089581121921
  0.7584356201743401  0.9115690816465926  0.4965831729913102
  0.7641643330874405  0.7855146450570338  0.4966504413191812
  0.7584697943689904  0.6594265431360830  0.4969110596038201
  0.7630691496171955  0.5334234112325429  0.4967404118725824
  0.7632089621314958  0.4112002109377201  0.4967632485258647
  0.7581492729277797  0.2854709274750302  0.4967218778066361
  0.7631706893741155  0.1597551702983187  0.4965628422129550
  0.7630077164458097  0.0375568824187714  0.4964717491419451
  0.2363869596806663  0.5192019046777508  0.4569008635986557
  0.2362702821446897  0.4268514613125978  0.4572057071894565
  0.2520015058844925  0.4730038529603099  0.4625308066010062
 
  0.00000000E+00  0.00000000E+00  0.00000000E+00
  0.00000000E+00  0.00000000E+00  0.00000000E+00
  0.00000000E+00  0.00000000E+00  0.00000000E+00
  0.00000000E+00  0.00000000E+00  0.00000000E+00
  0.00000000E+00  0.00000000E+00  0.00000000E+00
  0.00000000E+00  0.00000000E+00  0.00000000E+00
  0.00000000E+00  0.00000000E+00  0.00000000E+00
  0.00000000E+00  0.00000000E+00  0.00000000E+00
  0.00000000E+00  0.00000000E+00  0.00000000E+00
  0.00000000E+00  0.00000000E+00  0.00000000E+00
  0.00000000E+00  0.00000000E+00  0.00000000E+00
  0.00000000E+00  0.00000000E+00  0.00000000E+00
  0.00000000E+00  0.00000000E+00  0.00000000E+00
  0.00000000E+00  0.00000000E+00  0.00000000E+00
  0.00000000E+00  0.00000000E+00  0.00000000E+00
  0.00000000E+00  0.00000000E+00  0.00000000E+00
  0.00000000E+00  0.00000000E+00  0.00000000E+00
  0.00000000E+00  0.00000000E+00  0.00000000E+00
  0.00000000E+00  0.00000000E+00  0.00000000E+00
  0.00000000E+00  0.00000000E+00  0.00000000E+00
  0.00000000E+00  0.00000000E+00  0.00000000E+00
  0.00000000E+00  0.00000000E+00  0.00000000E+00
  0.00000000E+00  0.00000000E+00  0.00000000E+00
  0.00000000E+00  0.00000000E+00  0.00000000E+00
  0.00000000E+00  0.00000000E+00  0.00000000E+00
  0.00000000E+00  0.00000000E+00  0.00000000E+00
  0.00000000E+00  0.00000000E+00  0.00000000E+00
  0.00000000E+00  0.00000000E+00  0.00000000E+00
  0.00000000E+00  0.00000000E+00  0.00000000E+00
  0.00000000E+00  0.00000000E+00  0.00000000E+00
  0.00000000E+00  0.00000000E+00  0.00000000E+00
  0.00000000E+00  0.00000000E+00  0.00000000E+00
  0.00000000E+00  0.00000000E+00  0.00000000E+00
  0.00000000E+00  0.00000000E+00  0.00000000E+00
  0.00000000E+00  0.00000000E+00  0.00000000E+00
  0.00000000E+00  0.00000000E+00  0.00000000E+00
  0.00000000E+00  0.00000000E+00  0.00000000E+00
  0.00000000E+00  0.00000000E+00  0.00000000E+00
  0.00000000E+00  0.00000000E+00  0.00000000E+00
  0.00000000E+00  0.00000000E+00  0.00000000E+00
  0.00000000E+00  0.00000000E+00  0.00000000E+00
  0.00000000E+00  0.00000000E+00  0.00000000E+00
  0.00000000E+00  0.00000000E+00  0.00000000E+00
  0.00000000E+00  0.00000000E+00  0.00000000E+00
  0.00000000E+00  0.00000000E+00  0.00000000E+00
  0.00000000E+00  0.00000000E+00  0.00000000E+00
  0.00000000E+00  0.00000000E+00  0.00000000E+00
  0.00000000E+00  0.00000000E+00  0.00000000E+00
  0.00000000E+00  0.00000000E+00  0.00000000E+00
  0.00000000E+00  0.00000000E+00  0.00000000E+00
  0.00000000E+00  0.00000000E+00  0.00000000E+00
  0.00000000E+00  0.00000000E+00  0.00000000E+00
  0.00000000E+00  0.00000000E+00  0.00000000E+00
  0.00000000E+00  0.00000000E+00  0.00000000E+00
  0.00000000E+00  0.00000000E+00  0.00000000E+00
  0.00000000E+00  0.00000000E+00  0.00000000E+00
  0.00000000E+00  0.00000000E+00  0.00000000E+00
  0.00000000E+00  0.00000000E+00  0.00000000E+00
  0.00000000E+00  0.00000000E+00  0.00000000E+00
  0.00000000E+00  0.00000000E+00  0.00000000E+00
  0.00000000E+00  0.00000000E+00  0.00000000E+00
  0.00000000E+00  0.00000000E+00  0.00000000E+00
  0.00000000E+00  0.00000000E+00  0.00000000E+00
  0.00000000E+00  0.00000000E+00  0.00000000E+00
  0.00000000E+00  0.00000000E+00  0.00000000E+00
  0.00000000E+00  0.00000000E+00  0.00000000E+00
  0.00000000E+00  0.00000000E+00  0.00000000E+00
  0.00000000E+00  0.00000000E+00  0.00000000E+00
  0.00000000E+00  0.00000000E+00  0.00000000E+00
  0.00000000E+00  0.00000000E+00  0.00000000E+00
  0.00000000E+00  0.00000000E+00  0.00000000E+00
  0.00000000E+00  0.00000000E+00  0.00000000E+00
  0.00000000E+00  0.00000000E+00  0.00000000E+00
  0.00000000E+00  0.00000000E+00  0.00000000E+00
  0.00000000E+00  0.00000000E+00  0.00000000E+00
  0.00000000E+00  0.00000000E+00  0.00000000E+00
  0.00000000E+00  0.00000000E+00  0.00000000E+00
  0.00000000E+00  0.00000000E+00  0.00000000E+00
  0.00000000E+00  0.00000000E+00  0.00000000E+00
  0.00000000E+00  0.00000000E+00  0.00000000E+00
  0.00000000E+00  0.00000000E+00  0.00000000E+00
  0.00000000E+00  0.00000000E+00  0.00000000E+00
  0.00000000E+00  0.00000000E+00  0.00000000E+00
  0.00000000E+00  0.00000000E+00  0.00000000E+00
  0.00000000E+00  0.00000000E+00  0.00000000E+00
  0.00000000E+00  0.00000000E+00  0.00000000E+00
  0.00000000E+00  0.00000000E+00  0.00000000E+00
  0.00000000E+00  0.00000000E+00  0.00000000E+00
  0.00000000E+00  0.00000000E+00  0.00000000E+00
  0.00000000E+00  0.00000000E+00  0.00000000E+00
  0.00000000E+00  0.00000000E+00  0.00000000E+00
  0.00000000E+00  0.00000000E+00  0.00000000E+00
  0.00000000E+00  0.00000000E+00  0.00000000E+00
  0.00000000E+00  0.00000000E+00  0.00000000E+00
  0.00000000E+00  0.00000000E+00  0.00000000E+00
  0.00000000E+00  0.00000000E+00  0.00000000E+00
  0.00000000E+00  0.00000000E+00  0.00000000E+00
  0.00000000E+00  0.00000000E+00  0.00000000E+00
  0.00000000E+00  0.00000000E+00  0.00000000E+00
  0.00000000E+00  0.00000000E+00  0.00000000E+00
  0.00000000E+00  0.00000000E+00  0.00000000E+00
  0.00000000E+00  0.00000000E+00  0.00000000E+00
  0.00000000E+00  0.00000000E+00  0.00000000E+00
  0.00000000E+00  0.00000000E+00  0.00000000E+00
  0.00000000E+00  0.00000000E+00  0.00000000E+00
  0.00000000E+00  0.00000000E+00  0.00000000E+00
  0.00000000E+00  0.00000000E+00  0.00000000E+00
  0.00000000E+00  0.00000000E+00  0.00000000E+00
  0.00000000E+00  0.00000000E+00  0.00000000E+00
  0.00000000E+00  0.00000000E+00  0.00000000E+00
  0.00000000E+00  0.00000000E+00  0.00000000E+00
  0.00000000E+00  0.00000000E+00  0.00000000E+00
  0.00000000E+00  0.00000000E+00  0.00000000E+00
  0.00000000E+00  0.00000000E+00  0.00000000E+00
  0.00000000E+00  0.00000000E+00  0.00000000E+00
  0.00000000E+00  0.00000000E+00  0.00000000E+00
  0.00000000E+00  0.00000000E+00  0.00000000E+00
  0.00000000E+00  0.00000000E+00  0.00000000E+00
  0.00000000E+00  0.00000000E+00  0.00000000E+00
  0.00000000E+00  0.00000000E+00  0.00000000E+00
  0.00000000E+00  0.00000000E+00  0.00000000E+00
  0.00000000E+00  0.00000000E+00  0.00000000E+00
  0.00000000E+00  0.00000000E+00  0.00000000E+00
  0.00000000E+00  0.00000000E+00  0.00000000E+00
  0.00000000E+00  0.00000000E+00  0.00000000E+00
  0.00000000E+00  0.00000000E+00  0.00000000E+00
  0.00000000E+00  0.00000000E+00  0.00000000E+00
  0.00000000E+00  0.00000000E+00  0.00000000E+00
  0.00000000E+00  0.00000000E+00  0.00000000E+00
  0.00000000E+00  0.00000000E+00  0.00000000E+00
  0.00000000E+00  0.00000000E+00  0.00000000E+00
  0.00000000E+00  0.00000000E+00  0.00000000E+00
  0.00000000E+00  0.00000000E+00  0.00000000E+00
  0.00000000E+00  0.00000000E+00  0.00000000E+00
  0.00000000E+00  0.00000000E+00  0.00000000E+00
  0.00000000E+00  0.00000000E+00  0.00000000E+00
  0.00000000E+00  0.00000000E+00  0.00000000E+00
  0.00000000E+00  0.00000000E+00  0.00000000E+00
  0.00000000E+00  0.00000000E+00  0.00000000E+00
  0.00000000E+00  0.00000000E+00  0.00000000E+00
  0.00000000E+00  0.00000000E+00  0.00000000E+00
  0.00000000E+00  0.00000000E+00  0.00000000E+00
  0.00000000E+00  0.00000000E+00  0.00000000E+00
  0.00000000E+00  0.00000000E+00  0.00000000E+00
  0.00000000E+00  0.00000000E+00  0.00000000E+00
  0.00000000E+00  0.00000000E+00  0.00000000E+00
  0.00000000E+00  0.00000000E+00  0.00000000E+00
  0.00000000E+00  0.00000000E+00  0.00000000E+00
