W48 S97
1.0
  33.0000000000         0.0000000000         0.0000000000
   0.0000000000        25.2255992889         0.0000000000
   0.0000000000         0.0000000000        17.4930000305
W S O C
48 97 2 1
Cartesian
     9.493487520         1.055647438         8.797158869
     9.659461020         7.153677756         8.828655715
     9.810420180        13.244931469         8.955099318
     9.641861460        19.682295791         8.778125960
    15.015089100         0.900359658         8.789996010
    15.053364480         7.215120000         8.776305988
    15.088023390        13.507177556         8.795461873
    15.047260470        19.807300744         8.772891005
    20.524091280         0.903828682         8.739563691
    20.553618360         7.195416537         8.732211033
    20.566750380        13.498311766         8.732767660
    20.545439310        19.818136905         8.735538202
     9.634357590         4.179949407         8.778062635
     9.807986100        10.621903275         8.955123108
     9.667004160        16.710602896         8.828595714
     9.497507580        22.804942961         8.797986637
    15.035267940         4.057106036         8.772112041
    15.086133810        10.353091974         8.795442456
    15.059508750        16.645978442         8.776851945
    15.020373390        22.962598668         8.790499808
    20.532339300         4.040360022         8.735059243
    20.564285940        10.355078237         8.732421999
    20.561830080        16.659078853         8.732653606
    20.532425430        22.975822937         8.739982123
    12.292328400         5.672558711         8.778045317
    12.432253020        11.931603525         8.852507770
    12.300403830        18.190937172         8.778517628
    12.231720270        24.543818188         8.827009099
    17.803359090         5.623323891         8.751090004
    17.820852060        11.928763627         8.759079756
    17.808193260        18.236262024         8.751759811
    17.783104680        24.548245281         8.763631785
    23.349409710         5.444757676         8.717068043
    23.353034760        11.918889571         8.713608277
    23.347105650        18.383523523         8.716713809
    23.341895280        24.714128317         8.720523610
    12.290087040         2.500539747         8.809297436
    12.301555530         8.808174110         8.848428578
    12.305943540        15.054636899         8.848421580
    12.297485310        21.361446637         8.810104214
    17.769897420         2.472842291         8.757692212
    17.829203700         8.775270090         8.755094676
    17.833205280        15.082989211         8.755570661
    17.791008840        21.392481944         8.758300443
    23.318587710         2.477708813         8.719610300
    23.366114310         8.942453506         8.713873296
    23.375953260        14.918127055         8.714928299
    23.335235220        21.258977478         8.718855652
     8.684665110         2.652758076        10.350424791
     8.242943610         8.952415852         9.469854109
     8.246643240        14.914788699         9.471007772
     8.691189870        21.207938271        10.351698107
    14.121720030         2.488278592        10.373394325
    14.162676660         8.777057576        10.385054284
    14.166920460        15.084163211        10.385080174
    14.130566670        21.374006715        10.373678936
    19.611146610         2.474693093        10.319596353
    19.674572280         8.771488268        10.320001141
    19.679389950        15.084390493        10.319663351
    19.637732400        21.397101256        10.320936491
    14.133146280         5.640757807        10.349631484
    14.254740390        11.930638394        10.418211391
    14.142723210        18.223024891        10.349342325
    14.095484040        24.543471841        10.372041066
    19.648763310         5.625912542        10.318675696
    19.660101780        11.927855001        10.317747692
    19.652983680        18.231286275        10.315945214
    19.633693530        24.546600824        10.326564339
    11.294577690         0.924888778        10.381416615
    11.329743480         7.202045320        10.436366676
    11.459539740        13.450072601        10.511164470
    11.407852830        19.730322810        10.386834197
    16.865689170         0.896025395        10.347286547
    16.904753250         7.201930796        10.334333156
    16.937666460        13.515052988        10.348386857
    16.891244700        19.808511825        10.337941612
    22.384664610         0.930207343        10.344202881
    22.462988790         7.196100655        10.238733036
    22.424882370        13.471586505        10.337998464
    22.379748600        19.817245180        10.359553863
    11.400318930         4.132604236        10.386165265
    11.456835060        10.414396234        10.510976245
    11.337057270        16.661725270        10.436621024
    11.299155780        22.936066888        10.381660292
    16.876674210         4.057452635        10.338099923
    16.935763020        10.343716123        10.348489891
    16.910231580        16.657277493        10.335250663
    16.874449680        22.967218737        10.344719100
    22.388086050         4.018853937        10.346012007
    22.420193400        10.377904125        10.341710479
    22.468747950        16.647651404        10.245579271
    22.442002110        22.985746435        10.251914361
     8.647500510         2.528712705         7.242833220
     8.652957060        21.332401378         7.243067101
    14.096206080         2.474132328         7.207901623
    14.102158620         8.799653659         7.227283867
    14.106581280        15.062412185         7.227714895
    14.104563990        21.387975391         7.208877208
    19.587967080         2.470072520         7.168824885
    19.648134000         8.772459706         7.158638186
    19.653229530        15.083688969         7.159603275
    19.614507330        21.401501862         7.168455433
     8.108010240         5.724942695         7.920853155
     8.114185860        18.138529224         7.921824016
     7.953700260        24.541849834         8.834315225
    14.120103030         5.648272513         7.194735342
    14.186664690        11.930608123         7.209759730
    14.129836710        18.216091131         7.196252860
    14.062585350        24.542810173         7.236189554
    19.627773000         5.623568580         7.159429920
    19.630261200        11.928016193         7.164114895
    19.631799660        18.233684220         7.163158902
    19.607326530        24.546168457         7.169596151
    11.308376970         0.897071248         7.256433853
    11.290971780         7.287345936         7.215820005
    11.346789630        13.439540408         7.263820972
    11.385521400        19.782197994         7.199145327
    16.834348740         0.890240913         7.194342974
    16.876667280         7.207295776         7.185332679
    16.894702440        13.510938945         7.190118239
    16.869878520        19.814507950         7.182728671
    22.362232860         0.928791935         7.109821696
    22.444778730         7.194358827         7.202906672
    22.403224800        13.472660611         7.103132198
    22.358662590        19.819654729         7.088591316
    11.377266450         4.080738386         7.198580303
    11.344305060        10.425002590         7.264150015
    11.298583560        16.577174107         7.215550437
    11.312375250        22.962990422         7.257462966
    16.855404720         4.051925707         7.181132785
    16.892603310        10.348665133         7.189682664
    16.881884580        16.652291905         7.185655250
    16.843032690        22.972402598         7.197813410
    22.368431580         4.016170185         7.102354459
    22.397632620        10.377707870         7.097997477
    22.449963360        16.649122309         7.196610416
    22.420068330        22.987183538         7.201477319
    25.022203470        22.997821173         8.707846258
    25.202099010        19.826375838         8.705080090
    25.043698680        16.645571806         8.705990076
    25.198294440        13.463042090         8.705101256
    25.200227910        10.369391495         8.699212413
    25.024760970         7.188814997         8.706675626
    25.176775470         4.015249199         8.707309223
    25.165405320         0.937987675         8.708824641
     8.290000000        13.092000000         8.852000000
     8.290000000        10.772000000         8.852000000
     8.290000000        11.932000000         8.852000000
