Mo48 H4 C1 S98 O1                       
   1.00000000000000     
    33.0000000000000000    0.0000000000000000    0.0000000000000000
     0.0000000000000000   25.5199999999999996    0.0000000000000000
     0.0000000000000000    0.0000000000000000   17.4728999999999992
   Mo   S    O    C    H 
    48    98     1     1     4
Direct
  0.2858103335084715  0.1041117216209759  0.4923285203427157
  0.3705693979858978  0.0344532536170438  0.4973911966189610
  0.2866626987804110  0.2253245974048656  0.4922363477361637
  0.3709123226479645  0.1594892706605344  0.4971466892654864
  0.4531347942429768  0.0966937140340877  0.5021138411925963
  0.5363881221798570  0.0340806500828989  0.5072332431588131
  0.2865320848444925  0.3419203252823788  0.4920550646198057
  0.3710066530837389  0.2836539687408848  0.4968750380586822
  0.4537954415593901  0.2214818435132030  0.5016876707489035
  0.5362128331418979  0.1588211403107854  0.5064076885847933
  0.6184243233272521  0.0970005902555509  0.5112006854922484
  0.2854643598220156  0.4631972022041639  0.4918438689989368
  0.3706085873058082  0.4078160573950541  0.4966281885364658
  0.4536142365783061  0.3459620890854180  0.5014863484497699
  0.5363550391742600  0.2840061825206613  0.5064155068794748
  0.2863722847062602  0.6034673607893085  0.4918807470982195
  0.3701207080367082  0.5329057738972748  0.4964818655349700
  0.4526863392822320  0.4706065015527768  0.5011626187318775
  0.5360575853861759  0.4085942689919406  0.5063569927606407
  0.2863240537180551  0.7139492230436513  0.4919661644162165
  0.3702186869539639  0.6582948782804399  0.4965789049003126
  0.4525778384892833  0.5956715205873214  0.5010277686516520
  0.5356366855851312  0.5333491834187889  0.5058194211109118
  0.4526246920344593  0.7210152697720260  0.5011643473212609
  0.5351697295824092  0.6581780593167348  0.5053308406431234
  0.6187288037669118  0.2223783548946066  0.5102719106161618
  0.7026446235502297  0.0375078320281002  0.5073358398480601
  0.6190753230954494  0.3467443530360697  0.5138094240491490
  0.6990979793541203  0.1606790294120791  0.5163942005453698
  0.6185332038618784  0.4707759426357080  0.5103626983175015
  0.6979423584411213  0.2823679292387077  0.5194202029844465
  0.6180785614151436  0.5958197607246775  0.5116978570164682
  0.6972297484111607  0.4120814129072039  0.5191470654258978
  0.6177323616320789  0.7201561038599480  0.5083373549269119
  0.6971278188442042  0.5325400310031880  0.5158212919715559
  0.6973890972188700  0.6600034731917428  0.5142826199905470
  0.2864944560960007  0.8536779262068347  0.4922042204686467
  0.3702846341061666  0.7837991911254913  0.4968996004628223
  0.2867123572963478  0.9640885462060887  0.4923797631732711
  0.3705732027999306  0.9092014591055921  0.4973206093937809
  0.4529161329633490  0.8464353308738578  0.5018790929898316
  0.5353954427345222  0.7836526799168541  0.5056101914152840
  0.4532296212354757  0.9716564790733436  0.5023668595060801
  0.5360461668646763  0.9086889315252124  0.5070008793930988
  0.6178419687134090  0.8452448557154392  0.5104404284273321
  0.6200607027372278  0.9710985343873464  0.5115271548782195
  0.6982004448420380  0.7802992540476643  0.5139300593352090
  0.7025720127142832  0.9036699568199925  0.5078388318024938
  0.3144586014614867  0.0346280898676272  0.4083906678489931
  0.3116166206214343  0.0346500910232235  0.5795431602574076
  0.3165178180131985  0.1613339998311541  0.4027671644344254
  0.3135944426847928  0.1614537404207643  0.5851207239544840
  0.3991659792879687  0.0965511926357110  0.4093053455476237
  0.3962372251424388  0.0967242303381098  0.5884276516001653
  0.4823443190446634  0.0340083450389222  0.4148103760884692
  0.4794116355377180  0.0341438643407790  0.5931021437499691
  0.3165871546034797  0.2835802363807879  0.4015979532882962
  0.3136982602451514  0.2837164952634264  0.5858791296352635
  0.4000809179354131  0.2213886369707349  0.4092272889217356
  0.3972431591206932  0.2215579194483773  0.5878998362325110
  0.4823125908332489  0.1587063731440343  0.4139893173627682
  0.4795779318876292  0.1589431974117990  0.5928158672203783
  0.5648497705247304  0.0963300824009587  0.4185336824811525
  0.5623641545916492  0.0964639616998432  0.5981468779584197
  0.3161822064932699  0.4058699463214099  0.4023336656989768
  0.3133436897621225  0.4059726788917394  0.5847233213648354
  0.3999122068849871  0.3458128467586593  0.4089742542454737
  0.3970527826243332  0.3459605898641191  0.5876788224146573
  0.4827043860525969  0.2837551925441819  0.4136424736397233
  0.4797518258156918  0.2838471666477074  0.5927089439681917
  0.5649324605462588  0.2215940063532075  0.4180351966701295
  0.5621957438267714  0.2214330517513778  0.5970213883849230
  0.6471680356749966  0.0337720674435989  0.4226055328785592
  0.6489358116089301  0.0343820944864524  0.5993499241942680
  0.6482208150151680  0.1595359782034601  0.4225977866029333
  0.6437402379749076  0.1611214512081268  0.6027368697907466
  0.3139330463352874  0.5327690629338702  0.4077450855319058
  0.3112889269164630  0.5327753632425822  0.5788724083058338
  0.3986776841690711  0.4706428920457298  0.4084611148159444
  0.3958564595367748  0.4707290256135873  0.5876162659348009
  0.4822246290862888  0.4084785784270257  0.4136168999166958
  0.4791923051089243  0.4086679283888072  0.5923624962414233
  0.5658077841959427  0.3463920014409823  0.4194004079664346
  0.5619255915927965  0.3464388578584525  0.5983129797335187
  0.3171876723449127  0.6585194855287324  0.3995784968492966
  0.3142504366407071  0.6584491829933240  0.5875212298743192
  0.3986237515821721  0.5954550376224738  0.4087213114698626
  0.3958805137474661  0.5954152938424545  0.5872748672782523
  0.4816113424165862  0.5331557913876107  0.4134686658554056
  0.4787470848675185  0.5332729087423462  0.5918370291571045
  0.5646635230074517  0.4708073978195178  0.4178500677111444
  0.5617830242341101  0.4712623443739131  0.5969604088890684
  0.3986558385101198  0.7213967481498192  0.4089466591929113
  0.3959476637068362  0.7211897375729226  0.5874341386468047
  0.4811642397514436  0.6583504356453997  0.4131128877416601
  0.4785317976512822  0.6583047777605321  0.5918563013868291
  0.5644250468373875  0.5957272920115395  0.4180769801010360
  0.5612941273558547  0.5960591739076122  0.5970572711628642
  0.5634534180690405  0.7208409456425846  0.4168394350347214
  0.5613864353378561  0.7206968590322581  0.5956468397960646
  0.6500490297932006  0.2859990138757464  0.4234980830711360
  0.6452298251015847  0.2824630380178351  0.6061156563552897
  0.7289301750473708  0.0968631907562604  0.4247526261104357
  0.7265540318399031  0.1006228041551824  0.6005010858557807
  0.6496838906657153  0.4074451768667489  0.4231208294782135
  0.6450759789003452  0.4111677496830940  0.6067981495022302
  0.7452173401194223  0.2237974583007958  0.4772141259396024
  0.6478092337337731  0.5339406564767541  0.4219320301171656
  0.6447729878946303  0.5316895139986160  0.6042657286747893
  0.7344609942406922  0.3474322066440783  0.5794485911588917
  0.6477960775979058  0.6569342758436700  0.4205036040962417
  0.6448731621039272  0.6604336033617464  0.6029181913901356
  0.7448213595807915  0.4713652354900272  0.4785976027994049
  0.7298048613315613  0.5960921028343397  0.5884255170824457
  0.7458591804987206  0.7187640889665444  0.4766063095999148
  0.2316744715817282  0.1623871085036869  0.4891610288530386
  0.2310920903263895  0.2835611750066066  0.4891296394276146
  0.2296418911225752  0.6575555356115043  0.4887893738695389
  0.2369720391185053  0.0359029477452132  0.4894546574249779
  0.3140613786615388  0.7838771432823164  0.4080602083499831
  0.3113068371508349  0.7837308032252873  0.5791087391954270
  0.3176165797133420  0.9091315540836060  0.4001302157226050
  0.3144675720510042  0.9089913713251317  0.5879891950135412
  0.3990025300797939  0.8463669712565954  0.4094718927887308
  0.3961272457310336  0.8460825837787994  0.5879247621973779
  0.4813568064623385  0.7839083231438418  0.4136337479985118
  0.4788486348512564  0.7834868138532572  0.5921548347652162
  0.3993110306183401  0.9719836902488092  0.4098341324801241
  0.3963229994248582  0.9719271410754111  0.5882379315437908
  0.4820204869286822  0.9091424044545086  0.4145469926968704
  0.4791449418480594  0.9088367592385539  0.5930710295621877
  0.5641218843291984  0.8463385197258793  0.4180272683883859
  0.5618240283583202  0.8457802407255389  0.5974808995478088
  0.5653721351346475  0.9713161378370134  0.4198817285142920
  0.5631356255538540  0.9711747419226456  0.5975929865164930
  0.6470981382048128  0.7830041052587801  0.4208241105480018
  0.6432331426534040  0.7806323543203898  0.6014740550236305
  0.6472110497865264  0.9083953897079786  0.4225152719668700
  0.6484144327258423  0.9073424170182401  0.5990412869146167
  0.7286716761298226  0.8445142053998036  0.4243545994377304
  0.7255481045554036  0.8405953882284943  0.5998259918667462
  0.7496393309222835  0.9707699914278305  0.5125095868155713
  0.2299045986451486  0.9101181915904645  0.4889478879166103
  0.2365844764009424  0.7838744807836879  0.4891976260664492
  0.2366589280271625  0.5315062285606985  0.4891408190836574
  0.2314190521106691  0.4048059060535228  0.4889240714154159
  0.7317603879281689  0.5942331706890768  0.4181042158141545
  0.7750403075818408  0.5929514103419659  0.4005108063400666
  0.7823670432951931  0.5566480198006029  0.3698525554636306
  0.7906193081639410  0.5936810200998150  0.4558062628939815
  0.7162680791703765  0.5941606876980301  0.3703443869416543
  0.7832866462769750  0.6276407927579729  0.3668622607302717
 
  0.00000000E+00  0.00000000E+00  0.00000000E+00
  0.00000000E+00  0.00000000E+00  0.00000000E+00
  0.00000000E+00  0.00000000E+00  0.00000000E+00
  0.00000000E+00  0.00000000E+00  0.00000000E+00
  0.00000000E+00  0.00000000E+00  0.00000000E+00
  0.00000000E+00  0.00000000E+00  0.00000000E+00
  0.00000000E+00  0.00000000E+00  0.00000000E+00
  0.00000000E+00  0.00000000E+00  0.00000000E+00
  0.00000000E+00  0.00000000E+00  0.00000000E+00
  0.00000000E+00  0.00000000E+00  0.00000000E+00
  0.00000000E+00  0.00000000E+00  0.00000000E+00
  0.00000000E+00  0.00000000E+00  0.00000000E+00
  0.00000000E+00  0.00000000E+00  0.00000000E+00
  0.00000000E+00  0.00000000E+00  0.00000000E+00
  0.00000000E+00  0.00000000E+00  0.00000000E+00
  0.00000000E+00  0.00000000E+00  0.00000000E+00
  0.00000000E+00  0.00000000E+00  0.00000000E+00
  0.00000000E+00  0.00000000E+00  0.00000000E+00
  0.00000000E+00  0.00000000E+00  0.00000000E+00
  0.00000000E+00  0.00000000E+00  0.00000000E+00
  0.00000000E+00  0.00000000E+00  0.00000000E+00
  0.00000000E+00  0.00000000E+00  0.00000000E+00
  0.00000000E+00  0.00000000E+00  0.00000000E+00
  0.00000000E+00  0.00000000E+00  0.00000000E+00
  0.00000000E+00  0.00000000E+00  0.00000000E+00
  0.00000000E+00  0.00000000E+00  0.00000000E+00
  0.00000000E+00  0.00000000E+00  0.00000000E+00
  0.00000000E+00  0.00000000E+00  0.00000000E+00
  0.00000000E+00  0.00000000E+00  0.00000000E+00
  0.00000000E+00  0.00000000E+00  0.00000000E+00
  0.00000000E+00  0.00000000E+00  0.00000000E+00
  0.00000000E+00  0.00000000E+00  0.00000000E+00
  0.00000000E+00  0.00000000E+00  0.00000000E+00
  0.00000000E+00  0.00000000E+00  0.00000000E+00
  0.00000000E+00  0.00000000E+00  0.00000000E+00
  0.00000000E+00  0.00000000E+00  0.00000000E+00
  0.00000000E+00  0.00000000E+00  0.00000000E+00
  0.00000000E+00  0.00000000E+00  0.00000000E+00
  0.00000000E+00  0.00000000E+00  0.00000000E+00
  0.00000000E+00  0.00000000E+00  0.00000000E+00
  0.00000000E+00  0.00000000E+00  0.00000000E+00
  0.00000000E+00  0.00000000E+00  0.00000000E+00
  0.00000000E+00  0.00000000E+00  0.00000000E+00
  0.00000000E+00  0.00000000E+00  0.00000000E+00
  0.00000000E+00  0.00000000E+00  0.00000000E+00
  0.00000000E+00  0.00000000E+00  0.00000000E+00
  0.00000000E+00  0.00000000E+00  0.00000000E+00
  0.00000000E+00  0.00000000E+00  0.00000000E+00
  0.00000000E+00  0.00000000E+00  0.00000000E+00
  0.00000000E+00  0.00000000E+00  0.00000000E+00
  0.00000000E+00  0.00000000E+00  0.00000000E+00
  0.00000000E+00  0.00000000E+00  0.00000000E+00
  0.00000000E+00  0.00000000E+00  0.00000000E+00
  0.00000000E+00  0.00000000E+00  0.00000000E+00
  0.00000000E+00  0.00000000E+00  0.00000000E+00
  0.00000000E+00  0.00000000E+00  0.00000000E+00
  0.00000000E+00  0.00000000E+00  0.00000000E+00
  0.00000000E+00  0.00000000E+00  0.00000000E+00
  0.00000000E+00  0.00000000E+00  0.00000000E+00
  0.00000000E+00  0.00000000E+00  0.00000000E+00
  0.00000000E+00  0.00000000E+00  0.00000000E+00
  0.00000000E+00  0.00000000E+00  0.00000000E+00
  0.00000000E+00  0.00000000E+00  0.00000000E+00
  0.00000000E+00  0.00000000E+00  0.00000000E+00
  0.00000000E+00  0.00000000E+00  0.00000000E+00
  0.00000000E+00  0.00000000E+00  0.00000000E+00
  0.00000000E+00  0.00000000E+00  0.00000000E+00
  0.00000000E+00  0.00000000E+00  0.00000000E+00
  0.00000000E+00  0.00000000E+00  0.00000000E+00
  0.00000000E+00  0.00000000E+00  0.00000000E+00
  0.00000000E+00  0.00000000E+00  0.00000000E+00
  0.00000000E+00  0.00000000E+00  0.00000000E+00
  0.00000000E+00  0.00000000E+00  0.00000000E+00
  0.00000000E+00  0.00000000E+00  0.00000000E+00
  0.00000000E+00  0.00000000E+00  0.00000000E+00
  0.00000000E+00  0.00000000E+00  0.00000000E+00
  0.00000000E+00  0.00000000E+00  0.00000000E+00
  0.00000000E+00  0.00000000E+00  0.00000000E+00
  0.00000000E+00  0.00000000E+00  0.00000000E+00
  0.00000000E+00  0.00000000E+00  0.00000000E+00
  0.00000000E+00  0.00000000E+00  0.00000000E+00
  0.00000000E+00  0.00000000E+00  0.00000000E+00
  0.00000000E+00  0.00000000E+00  0.00000000E+00
  0.00000000E+00  0.00000000E+00  0.00000000E+00
  0.00000000E+00  0.00000000E+00  0.00000000E+00
  0.00000000E+00  0.00000000E+00  0.00000000E+00
  0.00000000E+00  0.00000000E+00  0.00000000E+00
  0.00000000E+00  0.00000000E+00  0.00000000E+00
  0.00000000E+00  0.00000000E+00  0.00000000E+00
  0.00000000E+00  0.00000000E+00  0.00000000E+00
  0.00000000E+00  0.00000000E+00  0.00000000E+00
  0.00000000E+00  0.00000000E+00  0.00000000E+00
  0.00000000E+00  0.00000000E+00  0.00000000E+00
  0.00000000E+00  0.00000000E+00  0.00000000E+00
  0.00000000E+00  0.00000000E+00  0.00000000E+00
  0.00000000E+00  0.00000000E+00  0.00000000E+00
  0.00000000E+00  0.00000000E+00  0.00000000E+00
  0.00000000E+00  0.00000000E+00  0.00000000E+00
  0.00000000E+00  0.00000000E+00  0.00000000E+00
  0.00000000E+00  0.00000000E+00  0.00000000E+00
  0.00000000E+00  0.00000000E+00  0.00000000E+00
  0.00000000E+00  0.00000000E+00  0.00000000E+00
  0.00000000E+00  0.00000000E+00  0.00000000E+00
  0.00000000E+00  0.00000000E+00  0.00000000E+00
  0.00000000E+00  0.00000000E+00  0.00000000E+00
  0.00000000E+00  0.00000000E+00  0.00000000E+00
  0.00000000E+00  0.00000000E+00  0.00000000E+00
  0.00000000E+00  0.00000000E+00  0.00000000E+00
  0.00000000E+00  0.00000000E+00  0.00000000E+00
  0.00000000E+00  0.00000000E+00  0.00000000E+00
  0.00000000E+00  0.00000000E+00  0.00000000E+00
  0.00000000E+00  0.00000000E+00  0.00000000E+00
  0.00000000E+00  0.00000000E+00  0.00000000E+00
  0.00000000E+00  0.00000000E+00  0.00000000E+00
  0.00000000E+00  0.00000000E+00  0.00000000E+00
  0.00000000E+00  0.00000000E+00  0.00000000E+00
  0.00000000E+00  0.00000000E+00  0.00000000E+00
  0.00000000E+00  0.00000000E+00  0.00000000E+00
  0.00000000E+00  0.00000000E+00  0.00000000E+00
  0.00000000E+00  0.00000000E+00  0.00000000E+00
  0.00000000E+00  0.00000000E+00  0.00000000E+00
  0.00000000E+00  0.00000000E+00  0.00000000E+00
  0.00000000E+00  0.00000000E+00  0.00000000E+00
  0.00000000E+00  0.00000000E+00  0.00000000E+00
  0.00000000E+00  0.00000000E+00  0.00000000E+00
  0.00000000E+00  0.00000000E+00  0.00000000E+00
  0.00000000E+00  0.00000000E+00  0.00000000E+00
  0.00000000E+00  0.00000000E+00  0.00000000E+00
  0.00000000E+00  0.00000000E+00  0.00000000E+00
  0.00000000E+00  0.00000000E+00  0.00000000E+00
  0.00000000E+00  0.00000000E+00  0.00000000E+00
  0.00000000E+00  0.00000000E+00  0.00000000E+00
  0.00000000E+00  0.00000000E+00  0.00000000E+00
  0.00000000E+00  0.00000000E+00  0.00000000E+00
  0.00000000E+00  0.00000000E+00  0.00000000E+00
  0.00000000E+00  0.00000000E+00  0.00000000E+00
  0.00000000E+00  0.00000000E+00  0.00000000E+00
  0.00000000E+00  0.00000000E+00  0.00000000E+00
  0.00000000E+00  0.00000000E+00  0.00000000E+00
  0.00000000E+00  0.00000000E+00  0.00000000E+00
  0.00000000E+00  0.00000000E+00  0.00000000E+00
  0.00000000E+00  0.00000000E+00  0.00000000E+00
  0.00000000E+00  0.00000000E+00  0.00000000E+00
  0.00000000E+00  0.00000000E+00  0.00000000E+00
  0.00000000E+00  0.00000000E+00  0.00000000E+00
  0.00000000E+00  0.00000000E+00  0.00000000E+00
  0.00000000E+00  0.00000000E+00  0.00000000E+00
  0.00000000E+00  0.00000000E+00  0.00000000E+00
  0.00000000E+00  0.00000000E+00  0.00000000E+00
  0.00000000E+00  0.00000000E+00  0.00000000E+00
  0.00000000E+00  0.00000000E+00  0.00000000E+00
  0.00000000E+00  0.00000000E+00  0.00000000E+00
