Mo36 Se72                               
   1.00000000000000     
    19.7340000000000018    0.0000000000000000    0.0000000000000012
    -9.8669999999999938   17.0901453182821115    0.0000000000000012
     0.0000000000000000    0.0000000000000000   25.8539999999999992
   Mo   Se
    36    69
Direct
  0.1228368621758804  0.0485194178826589  0.5003610592860142
  0.1285010944888541  0.2174508721643846  0.5005244050320954
  0.1285245982415120  0.3832670209833680  0.5005241231789839
  0.1228029818036802  0.5464965777700002  0.5003412254184312
  0.1200287596825191  0.7124008391389580  0.5011742660698957
  0.1200632429312805  0.8798698192531305  0.5011864447057519
  0.2883911766364733  0.0487219712764784  0.4972563247655515
  0.2957317964482300  0.2186712861697728  0.4907325014234445
  0.2984198687885069  0.3853496274249082  0.4878877382762923
  0.2957033710049188  0.5492993722863275  0.4907035459119271
  0.2884055530350551  0.7119013198616102  0.4972122193687625
  0.2871790517041077  0.8796757694416257  0.4998994984015042
  0.4536992472958730  0.0468629861727550  0.5003934487024182
  0.4496402322391546  0.2146890093962455  0.4947076167115156
  0.4450578295504499  0.3756004387775533  0.4881393665117528
  0.4450384037105408  0.5417033959817061  0.4881231353837094
  0.4496509722790307  0.7071656744496622  0.4946720711525074
  0.4537628046889353  0.8790022881864417  0.5003647315436339
  0.6206717386595031  0.0464625126799731  0.5034588841652337
  0.6189975233027099  0.2129168867865943  0.5024087190462225
  0.6135540306804259  0.3770726967953024  0.4994165018064152
  0.6101451812040750  0.5412178847020783  0.4985288539298196
  0.6135694418577344  0.7087480333449747  0.4994163733556150
  0.6190270155726623  0.8783229155897203  0.5023651924537091
  0.7880473318912635  0.0467345358127957  0.5051399088239208
  0.7880366569802533  0.2135176945450041  0.5051780011609566
  0.7854690877413688  0.3790237227378057  0.5039889326431322
  0.7825652837749644  0.5443733679283227  0.5031693244162483
  0.7825714899511880  0.7104370016570627  0.5032089641652675
  0.7854954938674368  0.8786888426665200  0.5040047213443088
  0.9559496858968473  0.0478828549455841  0.5042852959135828
  0.9579094781665916  0.2150428146619348  0.5050086494055392
  0.9559069365146442  0.3802385435942526  0.5043043827030260
  0.9530431965887729  0.5458007080541876  0.5034566114557748
  0.9517022115614040  0.7119977098317420  0.5032794719911564
  0.9530687677730469  0.8795250263052878  0.5035022999781518
  0.0722240368264480  0.1068956686999769  0.5664594840831825
  0.0759448526060709  0.2740770260066654  0.5668466326649551
  0.0721652584844605  0.4374611952664580  0.5664612260924926
  0.0675216542731931  0.6018126062235467  0.5662920042297515
  0.0654833350430053  0.7688554077051748  0.5664597875210831
  0.0676110758708646  0.9379343973253995  0.5663505401585383
  0.2411646015075135  0.1131798192293871  0.5604401498061051
  0.2578312597457000  0.2838904101153830  0.5582207759922966
  0.2579086392326460  0.4462600269608998  0.5582269921473397
  0.2411167326239081  0.6002589755239072  0.5604155635296451
  0.2335631860028187  0.7671870048723477  0.5639211937725435
  0.2335985194123538  0.9385552248044817  0.5639375831886042
  0.3973245907430041  0.1072336706273873  0.5623622837755207
  0.3973628610853339  0.7622510607564692  0.5623302128555139
  0.3975324266011597  0.9347645747788818  0.5650635969690043
  0.5625619510209035  0.1016396999219467  0.5670664335013811
  0.5550741375074466  0.2673867003157469  0.5637552085910826
  0.5421314606785401  0.4244086333217041  0.5600730988086440
  0.5420623855730611  0.5899397016867880  0.5600701502676344
  0.5551199178352277  0.7599805847242891  0.5637289763852209
  0.5626260808131747  0.9331305935978094  0.5670483871323171
  0.7310333648635208  0.1016001290196797  0.5695438181001080
  0.7289917393511658  0.2682686704525707  0.5688067839508477
  0.7235257232299759  0.4321620743890549  0.5666442670206990
  0.7201081651271153  0.5961313370049339  0.5659840067384678
  0.7235289000267215  0.7636103169786921  0.5666757314097097
  0.7290079731292494  0.9329720857564183  0.5687806150076327
  0.9010948423881402  0.1032551127879557  0.5696942960205789
  0.9011006723426505  0.2699585579981942  0.5697193433573275
  0.8981386060995433  0.4352976350687285  0.5685825375922704
  0.8951345084031530  0.6004136460885476  0.5678673507001903
  0.8951456956738966  0.7670136088962636  0.5679044164617935
  0.8981736348457119  0.9351572933882437  0.5686092561302303
  0.0651781877925686  0.1034954514476070  0.4377562315327026
  0.0670137324202926  0.2696118540328669  0.4384364735119490
  0.0651331344248050  0.4338277042510938  0.4377700888616900
  0.0627445861146967  0.6003900934786088  0.4372161803035084
  0.0619714877104443  0.7671287845231305  0.4373926791397977
  0.0627149980763164  0.9345645890633278  0.4372361793736772
  0.2300027121621184  0.1008679639429744  0.4315651970299612
  0.2312796296712207  0.2676465834218220  0.4284647123268641
  0.2312603679354481  0.4358471464820894  0.4284117365505793
  0.2299750879529583  0.6013592738648725  0.4315375837921280
  0.2297781157684540  0.7683030063273151  0.4350058194721171
  0.2298437651562608  0.9337395494280187  0.4350089749631962
  0.4000781645919673  0.1015773700360967  0.4327647403971611
  0.4009472639105738  0.2677246777685340  0.4240715907923374
  0.4026114142529380  0.4374222175176072  0.4207772521112929
  0.4009398653596321  0.6054640683179855  0.4240531561183332
  0.4001118558637771  0.7706995381401001  0.4326978501632652
  0.3989315599935779  0.9355078489495199  0.4355672901854675
  0.5668663197079127  0.1024197531211541  0.4375265577937384
  0.5651046153898847  0.2670481864733460  0.4344994497496444
  0.5628210191128886  0.4338234911351009  0.4309127700101882
  0.5628136773564449  0.6013074681575716  0.4308933296875139
  0.5650808682810862  0.7702619139246849  0.4344689518166120
  0.5669384015229326  0.9367777237558670  0.4375003068894614
  0.7336590650196015  0.1029612664255879  0.4400815543113694
  0.7326700460692450  0.2682756279075491  0.4393907028939523
  0.7301382256950362  0.4340095870768010  0.4381395058559931
  0.7280595061731816  0.6001826324171944  0.4378029175129825
  0.7302116986377385  0.7683866176960237  0.4381658315552741
  0.7326837853338617  0.9365819338195394  0.4393636442576891
  0.8998208576154809  0.1034752594772499  0.4404570074340839
  0.8997596007002002  0.2684934961162142  0.4404833329543365
  0.8977626497694473  0.4340101433556640  0.4395956612993075
  0.8954108604496582  0.6002868887333435  0.4390404971301649
  0.8954080897350281  0.7674365627498787  0.4390709632920249
  0.8977359653599066  0.9359464717443515  0.4395934906650467
 
  0.00000000E+00  0.00000000E+00  0.00000000E+00
  0.00000000E+00  0.00000000E+00  0.00000000E+00
  0.00000000E+00  0.00000000E+00  0.00000000E+00
  0.00000000E+00  0.00000000E+00  0.00000000E+00
  0.00000000E+00  0.00000000E+00  0.00000000E+00
  0.00000000E+00  0.00000000E+00  0.00000000E+00
  0.00000000E+00  0.00000000E+00  0.00000000E+00
  0.00000000E+00  0.00000000E+00  0.00000000E+00
  0.00000000E+00  0.00000000E+00  0.00000000E+00
  0.00000000E+00  0.00000000E+00  0.00000000E+00
  0.00000000E+00  0.00000000E+00  0.00000000E+00
  0.00000000E+00  0.00000000E+00  0.00000000E+00
  0.00000000E+00  0.00000000E+00  0.00000000E+00
  0.00000000E+00  0.00000000E+00  0.00000000E+00
  0.00000000E+00  0.00000000E+00  0.00000000E+00
  0.00000000E+00  0.00000000E+00  0.00000000E+00
  0.00000000E+00  0.00000000E+00  0.00000000E+00
  0.00000000E+00  0.00000000E+00  0.00000000E+00
  0.00000000E+00  0.00000000E+00  0.00000000E+00
  0.00000000E+00  0.00000000E+00  0.00000000E+00
  0.00000000E+00  0.00000000E+00  0.00000000E+00
  0.00000000E+00  0.00000000E+00  0.00000000E+00
  0.00000000E+00  0.00000000E+00  0.00000000E+00
  0.00000000E+00  0.00000000E+00  0.00000000E+00
  0.00000000E+00  0.00000000E+00  0.00000000E+00
  0.00000000E+00  0.00000000E+00  0.00000000E+00
  0.00000000E+00  0.00000000E+00  0.00000000E+00
  0.00000000E+00  0.00000000E+00  0.00000000E+00
  0.00000000E+00  0.00000000E+00  0.00000000E+00
  0.00000000E+00  0.00000000E+00  0.00000000E+00
  0.00000000E+00  0.00000000E+00  0.00000000E+00
  0.00000000E+00  0.00000000E+00  0.00000000E+00
  0.00000000E+00  0.00000000E+00  0.00000000E+00
  0.00000000E+00  0.00000000E+00  0.00000000E+00
  0.00000000E+00  0.00000000E+00  0.00000000E+00
  0.00000000E+00  0.00000000E+00  0.00000000E+00
  0.00000000E+00  0.00000000E+00  0.00000000E+00
  0.00000000E+00  0.00000000E+00  0.00000000E+00
  0.00000000E+00  0.00000000E+00  0.00000000E+00
  0.00000000E+00  0.00000000E+00  0.00000000E+00
  0.00000000E+00  0.00000000E+00  0.00000000E+00
  0.00000000E+00  0.00000000E+00  0.00000000E+00
  0.00000000E+00  0.00000000E+00  0.00000000E+00
  0.00000000E+00  0.00000000E+00  0.00000000E+00
  0.00000000E+00  0.00000000E+00  0.00000000E+00
  0.00000000E+00  0.00000000E+00  0.00000000E+00
  0.00000000E+00  0.00000000E+00  0.00000000E+00
  0.00000000E+00  0.00000000E+00  0.00000000E+00
  0.00000000E+00  0.00000000E+00  0.00000000E+00
  0.00000000E+00  0.00000000E+00  0.00000000E+00
  0.00000000E+00  0.00000000E+00  0.00000000E+00
  0.00000000E+00  0.00000000E+00  0.00000000E+00
  0.00000000E+00  0.00000000E+00  0.00000000E+00
  0.00000000E+00  0.00000000E+00  0.00000000E+00
  0.00000000E+00  0.00000000E+00  0.00000000E+00
  0.00000000E+00  0.00000000E+00  0.00000000E+00
  0.00000000E+00  0.00000000E+00  0.00000000E+00
  0.00000000E+00  0.00000000E+00  0.00000000E+00
  0.00000000E+00  0.00000000E+00  0.00000000E+00
  0.00000000E+00  0.00000000E+00  0.00000000E+00
  0.00000000E+00  0.00000000E+00  0.00000000E+00
  0.00000000E+00  0.00000000E+00  0.00000000E+00
  0.00000000E+00  0.00000000E+00  0.00000000E+00
  0.00000000E+00  0.00000000E+00  0.00000000E+00
  0.00000000E+00  0.00000000E+00  0.00000000E+00
  0.00000000E+00  0.00000000E+00  0.00000000E+00
  0.00000000E+00  0.00000000E+00  0.00000000E+00
  0.00000000E+00  0.00000000E+00  0.00000000E+00
  0.00000000E+00  0.00000000E+00  0.00000000E+00
  0.00000000E+00  0.00000000E+00  0.00000000E+00
  0.00000000E+00  0.00000000E+00  0.00000000E+00
  0.00000000E+00  0.00000000E+00  0.00000000E+00
  0.00000000E+00  0.00000000E+00  0.00000000E+00
  0.00000000E+00  0.00000000E+00  0.00000000E+00
  0.00000000E+00  0.00000000E+00  0.00000000E+00
  0.00000000E+00  0.00000000E+00  0.00000000E+00
  0.00000000E+00  0.00000000E+00  0.00000000E+00
  0.00000000E+00  0.00000000E+00  0.00000000E+00
  0.00000000E+00  0.00000000E+00  0.00000000E+00
  0.00000000E+00  0.00000000E+00  0.00000000E+00
  0.00000000E+00  0.00000000E+00  0.00000000E+00
  0.00000000E+00  0.00000000E+00  0.00000000E+00
  0.00000000E+00  0.00000000E+00  0.00000000E+00
  0.00000000E+00  0.00000000E+00  0.00000000E+00
  0.00000000E+00  0.00000000E+00  0.00000000E+00
  0.00000000E+00  0.00000000E+00  0.00000000E+00
  0.00000000E+00  0.00000000E+00  0.00000000E+00
  0.00000000E+00  0.00000000E+00  0.00000000E+00
  0.00000000E+00  0.00000000E+00  0.00000000E+00
  0.00000000E+00  0.00000000E+00  0.00000000E+00
  0.00000000E+00  0.00000000E+00  0.00000000E+00
  0.00000000E+00  0.00000000E+00  0.00000000E+00
  0.00000000E+00  0.00000000E+00  0.00000000E+00
  0.00000000E+00  0.00000000E+00  0.00000000E+00
  0.00000000E+00  0.00000000E+00  0.00000000E+00
  0.00000000E+00  0.00000000E+00  0.00000000E+00
  0.00000000E+00  0.00000000E+00  0.00000000E+00
  0.00000000E+00  0.00000000E+00  0.00000000E+00
  0.00000000E+00  0.00000000E+00  0.00000000E+00
  0.00000000E+00  0.00000000E+00  0.00000000E+00
  0.00000000E+00  0.00000000E+00  0.00000000E+00
  0.00000000E+00  0.00000000E+00  0.00000000E+00
  0.00000000E+00  0.00000000E+00  0.00000000E+00
  0.00000000E+00  0.00000000E+00  0.00000000E+00
  0.00000000E+00  0.00000000E+00  0.00000000E+00
