H4 C1 O1                                
   1.00000000000000     
    20.0000000000000000    0.0000000000000000    0.0000000000000000
     0.0000000000000000   20.0000000000000000    0.0000000000000000
     0.0000000000000000    0.0000000000000000   20.0000000000000000
   O    C    H 
     1     1     4
Direct
  0.5003073142533616  0.4997292702088864  0.4994334999009195
  0.5358273283138052  0.5059189916476231  0.5612650593171492
  0.5357445746782505  0.5577302631072245  0.5803246075641955
  0.4539387331981508  0.5119683570975792  0.5071740595866769
  0.5158005562659890  0.4724403361401823  0.6003121347848688
  0.5877212317904438  0.4913840837985043  0.5510165353461977
 
  0.00000000E+00  0.00000000E+00  0.00000000E+00
  0.00000000E+00  0.00000000E+00  0.00000000E+00
  0.00000000E+00  0.00000000E+00  0.00000000E+00
  0.00000000E+00  0.00000000E+00  0.00000000E+00
  0.00000000E+00  0.00000000E+00  0.00000000E+00
  0.00000000E+00  0.00000000E+00  0.00000000E+00
