H4 C1 O1
1.0
  20.0000000000000000    0.0000000000000000    0.0000000000000000
   0.0000000000000000   20.0000000000000000    0.0000000000000000
   0.0000000000000000    0.0000000000000000   20.0000000000000000
O C H
1 1 4
direct
   0.5000000000000000    0.5000000000000000    0.5000000000000000 O
   0.5367806600000000    0.5063415135000000    0.5621594620000000 C
   0.5363244410000000    0.5581618770000001    0.5805600770000000 H
   0.4527499720000000    0.5112264090000000    0.5061388535000000 H
   0.5151749560000000    0.4722891310000000    0.5994935450000000 H
   0.5883097095000001    0.4911523715000001    0.5511739590000001 H
