W48 Se99                                
   1.00000000000000     
    33.0000000000000000    0.0000000000000000    0.0000000000000000
     0.0000000000000000   26.2560005188000005    0.0000000000000000
     0.0000000000000000    0.0000000000000000   18.1299991608000006
   W    Se   O    C 
    48    99     1     1
Direct
  0.2804244914597480  0.0424485770872993  0.5000182212068948
  0.2858478372511382  0.2780412902355100  0.4999648377752541
  0.2812982057112838  0.5424789485950401  0.4999929166601997
  0.2864236735218922  0.7772535447006906  0.5000258764752261
  0.4534718213765065  0.0357504411864337  0.5000026187731050
  0.4543953023679908  0.2857654855979963  0.4999994161840743
  0.4547777738378823  0.5359501054569770  0.4999928074594728
  0.4552078127701180  0.7860076033039182  0.4999923250026575
  0.6269660455097992  0.0360236480869513  0.5000062490463459
  0.6264134449289404  0.2848980003320772  0.5000029855921087
  0.6298058032211993  0.5361976503812846  0.5000007135250184
  0.6272998968361946  0.7867285932184603  0.4999998339310245
  0.2855977895954740  0.1686916262134035  0.4999663518599403
  0.2808899548997377  0.4040679239656676  0.5000158912792716
  0.2867111623955275  0.6682243696470265  0.5000307155247822
  0.2807150704429635  0.9031547435839726  0.4999778302976228
  0.4541750488445656  0.1603043119607282  0.5000014464210628
  0.4545107475596026  0.4105536935525615  0.4999972766668634
  0.4556459960218391  0.6602911764240375  0.4999922969101671
  0.4540248048395520  0.9104106503744743  0.4999948363924854
  0.6268881902863180  0.1600557061045208  0.5000051825614067
  0.6276689822200763  0.4097272900133970  0.5000010233062264
  0.6292570904171575  0.6609654127509532  0.4999998673268934
  0.6271689310161644  0.9119552252455466  0.4999997043184401
  0.3683307341944623  0.2231588204872290  0.4999943566979934
  0.3669726348617296  0.4732102174158974  0.4999985897281905
  0.3692839406875338  0.7230105015793873  0.4999958422148753
  0.3661544775892641  0.9729842476302658  0.4999983282458890
  0.5410292203269977  0.2226358164907045  0.5000015488989502
  0.5413503132809101  0.4731509875335316  0.4999968625071667
  0.5420529559241837  0.7231983817430118  0.4999963757911865
  0.5400395833345918  0.9735664087687255  0.4999994361502438
  0.7152619021294436  0.2138069944973940  0.5000094085790860
  0.7091391478008851  0.4619978734853867  0.5000046680051226
  0.7144346043271774  0.7170658354412257  0.5000017947562340
  0.7139844734526991  0.9776261717854496  0.5000058231615605
  0.3679687392544129  0.0986972807711715  0.4999975738670253
  0.3685147622903522  0.3476796203717135  0.4999926569473983
  0.3692261027255957  0.5988125000102941  0.4999986847811185
  0.3686472089206538  0.8473615826849390  0.4999955477304640
  0.5400296182255637  0.0978290310539789  0.5000036596340466
  0.5404509391651532  0.3480504045274963  0.4999991293140032
  0.5423125512435986  0.5982096014248173  0.4999949621094404
  0.5415419958640049  0.8489091065762625  0.4999961833619084
  0.7139936033818319  0.0946527071864497  0.5000088104506423
  0.7132188437787476  0.3548663704914397  0.5000084777449192
  0.7158254655685453  0.6057123505070043  0.5000012496058611
  0.7148289218610187  0.8585321341645998  0.5000024812286762
  0.2522307685968619  0.1039598491473158  0.5891768241638566
  0.2525567942664446  0.3427680738660566  0.5892830764373749
  0.2532742155139220  0.6038098320920536  0.5895289418254142
  0.2528067668028287  0.8416279845967377  0.5893791437052383
  0.4250317138785058  0.0980817339775356  0.5936791272440151
  0.4256808628364721  0.3483275163308593  0.5935810695670217
  0.4263690614257946  0.5981892072332129  0.5936616723188438
  0.4257947920138642  0.8480419747316593  0.5936482469689504
  0.5975582665354269  0.0980363917486027  0.5930223267928504
  0.5978350046845395  0.3474300819355480  0.5930069515079032
  0.6004012743935619  0.5980894880748502  0.5927418852214190
  0.5990569586430993  0.8489791488199755  0.5935143579420060
  0.4258941544551163  0.2231236555073744  0.5933379659579296
  0.4251226356307408  0.4732618425058701  0.5925209234432688
  0.4270240242608542  0.7230335185433731  0.5931483949275259
  0.4241835457787712  0.9728624299905473  0.5925736493874879
  0.5985195703739895  0.2226851264459508  0.5936185782797485
  0.5994455094917623  0.4741891404773393  0.5920324060703989
  0.5996980362130575  0.7235414576502525  0.5930781829319192
  0.5976095211998806  0.9737917127810244  0.5929459562488887
  0.3368420514941553  0.0358019713457124  0.5927485820759201
  0.3396085420198627  0.2850077421034732  0.5954284123616610
  0.3378645700293463  0.5360684394989119  0.5926526246015816
  0.3401699441881839  0.7845423790847520  0.5954996212051065
  0.5109032081739855  0.0355944389292202  0.5933812192299016
  0.5118924888604549  0.2852615018347336  0.5930743017203922
  0.5126598577228467  0.5358580646705741  0.5928591964544487
  0.5129489265754130  0.7859209151883318  0.5928603074545203
  0.6851054427706488  0.0362077643970581  0.5965199144286889
  0.6868444077899231  0.2841596133994080  0.5885298052864997
  0.6914644062832070  0.5340131538753675  0.5904086063546451
  0.6873905935693698  0.7876850566714267  0.5890094562730838
  0.3392887167033183  0.1615044361692335  0.5954483040333503
  0.3374156220388327  0.4105468377342704  0.5926905025829154
  0.3404859863121105  0.6613709201193996  0.5955466273469955
  0.3371150861856258  0.9100529246549703  0.5927012573699026
  0.5116682007374063  0.1605118554797648  0.5932258119695781
  0.5121187414622929  0.4108682926509392  0.5932855777998757
  0.5133290761968743  0.6605831758629335  0.5931596509321501
  0.5116741269752018  0.9107891173473797  0.5931563133460241
  0.6849414916053104  0.1581242809530359  0.5958750796116198
  0.6821355191585667  0.4074384431291947  0.6010271714712367
  0.6859118458691574  0.6614508076019097  0.5997841248744358
  0.6850210411912421  0.9144061394374055  0.5962458006413264
  0.2522498156530792  0.1039746774124406  0.4107820345859111
  0.2525907982710378  0.3427505840367978  0.4106522048589242
  0.2532405484561691  0.6037915012431018  0.4105206430636632
  0.2527759934638598  0.8416416761236873  0.4106508145231588
  0.4250333441368099  0.0980800093883114  0.4063234505409206
  0.4256830323112205  0.3483278644150148  0.4064116578893178
  0.4263656857993778  0.5981896585647508  0.4063266823230200
  0.4257924306802412  0.8480421786553669  0.4063383559770046
  0.5975596237465497  0.0980345829383510  0.4069918596115001
  0.5978366461119042  0.3474289645162896  0.4069940921682794
  0.6004037176365321  0.5980887339319110  0.4072560571000877
  0.5990585470086134  0.8489790663463969  0.4064837566943413
  0.2259977399192059  0.2235470240671369  0.5000123170985064
  0.2313369913016229  0.4734268383064282  0.5000036303110544
  0.2267546082563208  0.7224889368779860  0.4999962905374914
  0.2311436498612020  0.9726248394962359  0.5000019119687901
  0.4258985422925692  0.2231226603385856  0.4066602872189226
  0.4251211100114488  0.4732596728741421  0.4074709442625923
  0.4270188291799128  0.7230332370071210  0.4068374677892357
  0.4241840299823023  0.9728658334288706  0.4074245204015839
  0.5985210831801108  0.2226836795733799  0.4063869602654863
  0.5994486233400566  0.4741893440139652  0.4079654744199701
  0.5997011051330455  0.7235405367274703  0.4069184499181846
  0.5976109308442710  0.9737940191094669  0.4070556008365374
  0.3368313643779166  0.0358072652906117  0.4072620357791532
  0.3396308132859815  0.2850023492840904  0.4045474257853944
  0.3378646549194366  0.5360655686861218  0.4073475448851321
  0.3401457375666536  0.7845420867125046  0.4045086810280905
  0.5109031521961769  0.0355964555982731  0.4066231176869348
  0.5118937366801994  0.2852603597472973  0.4069258750874474
  0.5126626971725577  0.5358568056871978  0.4071297436761214
  0.5129504381115091  0.7859214088098543  0.4071298917833589
  0.6851082151497061  0.0362101165088435  0.4034914300346956
  0.6868494746796192  0.2841607707763014  0.4114838778903155
  0.6914654260786766  0.5340120994011824  0.4095952726179036
  0.6873920271842192  0.7876856160055774  0.4109927820357331
  0.3393115576917121  0.1615048258888802  0.4045214072421477
  0.3374055361450918  0.4105476131130082  0.4073063567255360
  0.3404601501387977  0.6613662375482033  0.4044670604636816
  0.3371236752238849  0.9100609279875680  0.4072828768593144
  0.5116694798565841  0.1605109714938626  0.4067775597085690
  0.5121196298134130  0.4108669735905569  0.4067099426705312
  0.5133300563141594  0.6605861208362211  0.4068287547865672
  0.5116768692360983  0.9107905076579871  0.4068344059134636
  0.6849421978617997  0.1581263583382278  0.4041379909952830
  0.6821390515919764  0.4074360916828779  0.3989807439677741
  0.6859125856150662  0.6614504923448443  0.4002178571399533
  0.6850229218429169  0.9144077711547254  0.4037572826513398
  0.7735903362345199  0.9157642653695828  0.4999974571478147
  0.7679298922596237  0.7890191830505979  0.5000106995650467
  0.7760329527507032  0.6665132621544144  0.4999978233548260
  0.7729522567346045  0.4184897603733997  0.5000057958018815
  0.7679627144115269  0.2873636572891075  0.5000374590525082
  0.7741548074120371  0.1590027501939511  0.5000067705847191
  0.7736348139123393  0.0372667835986854  0.5000425449482858
  0.7997501171589486  0.5453076967967616  0.4999958317801302
  0.7688773350811470  0.5671525775978056  0.4999978155883696
 
  0.00000000E+00  0.00000000E+00  0.00000000E+00
  0.00000000E+00  0.00000000E+00  0.00000000E+00
  0.00000000E+00  0.00000000E+00  0.00000000E+00
  0.00000000E+00  0.00000000E+00  0.00000000E+00
  0.00000000E+00  0.00000000E+00  0.00000000E+00
  0.00000000E+00  0.00000000E+00  0.00000000E+00
  0.00000000E+00  0.00000000E+00  0.00000000E+00
  0.00000000E+00  0.00000000E+00  0.00000000E+00
  0.00000000E+00  0.00000000E+00  0.00000000E+00
  0.00000000E+00  0.00000000E+00  0.00000000E+00
  0.00000000E+00  0.00000000E+00  0.00000000E+00
  0.00000000E+00  0.00000000E+00  0.00000000E+00
  0.00000000E+00  0.00000000E+00  0.00000000E+00
  0.00000000E+00  0.00000000E+00  0.00000000E+00
  0.00000000E+00  0.00000000E+00  0.00000000E+00
  0.00000000E+00  0.00000000E+00  0.00000000E+00
  0.00000000E+00  0.00000000E+00  0.00000000E+00
  0.00000000E+00  0.00000000E+00  0.00000000E+00
  0.00000000E+00  0.00000000E+00  0.00000000E+00
  0.00000000E+00  0.00000000E+00  0.00000000E+00
  0.00000000E+00  0.00000000E+00  0.00000000E+00
  0.00000000E+00  0.00000000E+00  0.00000000E+00
  0.00000000E+00  0.00000000E+00  0.00000000E+00
  0.00000000E+00  0.00000000E+00  0.00000000E+00
  0.00000000E+00  0.00000000E+00  0.00000000E+00
  0.00000000E+00  0.00000000E+00  0.00000000E+00
  0.00000000E+00  0.00000000E+00  0.00000000E+00
  0.00000000E+00  0.00000000E+00  0.00000000E+00
  0.00000000E+00  0.00000000E+00  0.00000000E+00
  0.00000000E+00  0.00000000E+00  0.00000000E+00
  0.00000000E+00  0.00000000E+00  0.00000000E+00
  0.00000000E+00  0.00000000E+00  0.00000000E+00
  0.00000000E+00  0.00000000E+00  0.00000000E+00
  0.00000000E+00  0.00000000E+00  0.00000000E+00
  0.00000000E+00  0.00000000E+00  0.00000000E+00
  0.00000000E+00  0.00000000E+00  0.00000000E+00
  0.00000000E+00  0.00000000E+00  0.00000000E+00
  0.00000000E+00  0.00000000E+00  0.00000000E+00
  0.00000000E+00  0.00000000E+00  0.00000000E+00
  0.00000000E+00  0.00000000E+00  0.00000000E+00
  0.00000000E+00  0.00000000E+00  0.00000000E+00
  0.00000000E+00  0.00000000E+00  0.00000000E+00
  0.00000000E+00  0.00000000E+00  0.00000000E+00
  0.00000000E+00  0.00000000E+00  0.00000000E+00
  0.00000000E+00  0.00000000E+00  0.00000000E+00
  0.00000000E+00  0.00000000E+00  0.00000000E+00
  0.00000000E+00  0.00000000E+00  0.00000000E+00
  0.00000000E+00  0.00000000E+00  0.00000000E+00
  0.00000000E+00  0.00000000E+00  0.00000000E+00
  0.00000000E+00  0.00000000E+00  0.00000000E+00
  0.00000000E+00  0.00000000E+00  0.00000000E+00
  0.00000000E+00  0.00000000E+00  0.00000000E+00
  0.00000000E+00  0.00000000E+00  0.00000000E+00
  0.00000000E+00  0.00000000E+00  0.00000000E+00
  0.00000000E+00  0.00000000E+00  0.00000000E+00
  0.00000000E+00  0.00000000E+00  0.00000000E+00
  0.00000000E+00  0.00000000E+00  0.00000000E+00
  0.00000000E+00  0.00000000E+00  0.00000000E+00
  0.00000000E+00  0.00000000E+00  0.00000000E+00
  0.00000000E+00  0.00000000E+00  0.00000000E+00
  0.00000000E+00  0.00000000E+00  0.00000000E+00
  0.00000000E+00  0.00000000E+00  0.00000000E+00
  0.00000000E+00  0.00000000E+00  0.00000000E+00
  0.00000000E+00  0.00000000E+00  0.00000000E+00
  0.00000000E+00  0.00000000E+00  0.00000000E+00
  0.00000000E+00  0.00000000E+00  0.00000000E+00
  0.00000000E+00  0.00000000E+00  0.00000000E+00
  0.00000000E+00  0.00000000E+00  0.00000000E+00
  0.00000000E+00  0.00000000E+00  0.00000000E+00
  0.00000000E+00  0.00000000E+00  0.00000000E+00
  0.00000000E+00  0.00000000E+00  0.00000000E+00
  0.00000000E+00  0.00000000E+00  0.00000000E+00
  0.00000000E+00  0.00000000E+00  0.00000000E+00
  0.00000000E+00  0.00000000E+00  0.00000000E+00
  0.00000000E+00  0.00000000E+00  0.00000000E+00
  0.00000000E+00  0.00000000E+00  0.00000000E+00
  0.00000000E+00  0.00000000E+00  0.00000000E+00
  0.00000000E+00  0.00000000E+00  0.00000000E+00
  0.00000000E+00  0.00000000E+00  0.00000000E+00
  0.00000000E+00  0.00000000E+00  0.00000000E+00
  0.00000000E+00  0.00000000E+00  0.00000000E+00
  0.00000000E+00  0.00000000E+00  0.00000000E+00
  0.00000000E+00  0.00000000E+00  0.00000000E+00
  0.00000000E+00  0.00000000E+00  0.00000000E+00
  0.00000000E+00  0.00000000E+00  0.00000000E+00
  0.00000000E+00  0.00000000E+00  0.00000000E+00
  0.00000000E+00  0.00000000E+00  0.00000000E+00
  0.00000000E+00  0.00000000E+00  0.00000000E+00
  0.00000000E+00  0.00000000E+00  0.00000000E+00
  0.00000000E+00  0.00000000E+00  0.00000000E+00
  0.00000000E+00  0.00000000E+00  0.00000000E+00
  0.00000000E+00  0.00000000E+00  0.00000000E+00
  0.00000000E+00  0.00000000E+00  0.00000000E+00
  0.00000000E+00  0.00000000E+00  0.00000000E+00
  0.00000000E+00  0.00000000E+00  0.00000000E+00
  0.00000000E+00  0.00000000E+00  0.00000000E+00
  0.00000000E+00  0.00000000E+00  0.00000000E+00
  0.00000000E+00  0.00000000E+00  0.00000000E+00
  0.00000000E+00  0.00000000E+00  0.00000000E+00
  0.00000000E+00  0.00000000E+00  0.00000000E+00
  0.00000000E+00  0.00000000E+00  0.00000000E+00
  0.00000000E+00  0.00000000E+00  0.00000000E+00
  0.00000000E+00  0.00000000E+00  0.00000000E+00
  0.00000000E+00  0.00000000E+00  0.00000000E+00
  0.00000000E+00  0.00000000E+00  0.00000000E+00
  0.00000000E+00  0.00000000E+00  0.00000000E+00
  0.00000000E+00  0.00000000E+00  0.00000000E+00
  0.00000000E+00  0.00000000E+00  0.00000000E+00
  0.00000000E+00  0.00000000E+00  0.00000000E+00
  0.00000000E+00  0.00000000E+00  0.00000000E+00
  0.00000000E+00  0.00000000E+00  0.00000000E+00
  0.00000000E+00  0.00000000E+00  0.00000000E+00
  0.00000000E+00  0.00000000E+00  0.00000000E+00
  0.00000000E+00  0.00000000E+00  0.00000000E+00
  0.00000000E+00  0.00000000E+00  0.00000000E+00
  0.00000000E+00  0.00000000E+00  0.00000000E+00
  0.00000000E+00  0.00000000E+00  0.00000000E+00
  0.00000000E+00  0.00000000E+00  0.00000000E+00
  0.00000000E+00  0.00000000E+00  0.00000000E+00
  0.00000000E+00  0.00000000E+00  0.00000000E+00
  0.00000000E+00  0.00000000E+00  0.00000000E+00
  0.00000000E+00  0.00000000E+00  0.00000000E+00
  0.00000000E+00  0.00000000E+00  0.00000000E+00
  0.00000000E+00  0.00000000E+00  0.00000000E+00
  0.00000000E+00  0.00000000E+00  0.00000000E+00
  0.00000000E+00  0.00000000E+00  0.00000000E+00
  0.00000000E+00  0.00000000E+00  0.00000000E+00
  0.00000000E+00  0.00000000E+00  0.00000000E+00
  0.00000000E+00  0.00000000E+00  0.00000000E+00
  0.00000000E+00  0.00000000E+00  0.00000000E+00
  0.00000000E+00  0.00000000E+00  0.00000000E+00
  0.00000000E+00  0.00000000E+00  0.00000000E+00
  0.00000000E+00  0.00000000E+00  0.00000000E+00
  0.00000000E+00  0.00000000E+00  0.00000000E+00
  0.00000000E+00  0.00000000E+00  0.00000000E+00
  0.00000000E+00  0.00000000E+00  0.00000000E+00
  0.00000000E+00  0.00000000E+00  0.00000000E+00
  0.00000000E+00  0.00000000E+00  0.00000000E+00
  0.00000000E+00  0.00000000E+00  0.00000000E+00
  0.00000000E+00  0.00000000E+00  0.00000000E+00
  0.00000000E+00  0.00000000E+00  0.00000000E+00
  0.00000000E+00  0.00000000E+00  0.00000000E+00
  0.00000000E+00  0.00000000E+00  0.00000000E+00
  0.00000000E+00  0.00000000E+00  0.00000000E+00
  0.00000000E+00  0.00000000E+00  0.00000000E+00
  0.00000000E+00  0.00000000E+00  0.00000000E+00
  0.00000000E+00  0.00000000E+00  0.00000000E+00
  0.00000000E+00  0.00000000E+00  0.00000000E+00
  0.00000000E+00  0.00000000E+00  0.00000000E+00
