W48 Se99
1.0
  33.0000000000         0.0000000000         0.0000000000
   0.0000000000        26.2560005188         0.0000000000
   0.0000000000         0.0000000000        18.1299991608
W Se O C
48 99 1 1
Cartesian
     9.263122110         1.104200303         9.064995954
     9.441355770         7.285459886         9.064920715
     9.262437690        14.234918058         9.064962233
     9.441709200        20.411113910         9.065141357
    14.983973730         0.935024227         9.064992691
    15.008468640         7.498916970         9.064965133
    14.986201230        14.062942830         9.064910018
    15.008368650        20.635586435         9.064985258
    20.715074820         0.930910174         9.065022968
    20.692840410         7.480561137         9.064989246
    20.767168290        14.057869383         9.064943015
    20.692843380        20.641667325         9.065039466
     9.438439890         4.425292139         9.064881735
     9.263822370        10.602638003         9.065029676
     9.441943830        17.551319260         9.065247961
     9.262563420        23.729666003         9.064928511
    15.006935790         4.205112207         9.065024600
    14.996673120        10.774896534         9.064951717
    15.016558260        17.330875980         9.064943015
    14.987767740        23.900539792         9.064971841
    20.712760530         4.195644818         9.064992147
    20.731213140        10.771901512         9.064953893
    20.733187200        17.346047748         9.064993597
    20.711506200        23.923284577         9.065063761
    12.170181210         5.854626535         9.064994867
    12.101147190        12.418092618         9.064980725
    12.172441050        18.981292727         9.064997949
    12.095391990        25.546341522         9.064957519
    17.874600810         5.841694930         9.065010458
    17.857940760        12.416514370         9.064930324
    17.849764020        18.985536747         9.065006651
    17.837481750        25.552874802         9.065002481
    23.614419510         5.608320832         9.064996680
    23.405160570        12.158080758         9.064997405
    23.552454420        18.792690887         9.065085154
    23.569977420        25.644813339         9.065085698
    12.160344240         2.590690336         9.064986889
    12.165199530         9.121014782         9.064944465
    12.165394890        15.719437054         9.065001031
    12.162577020        22.247698303         9.065004838
    17.841852930         2.562736885         9.065022243
    17.845166460         9.136105681         9.064963683
    17.862522150        15.698679847         9.064882279
    17.869648170        22.280193780         9.065024237
    23.570370120         2.471923156         9.065052157
    23.552358390         9.326798287         9.064995773
    23.406015600        15.959863250         9.065031670
    23.613816930        22.511834719         9.065178705
     8.337221970         2.721535277        10.681346115
     8.340067560         8.987035400        10.683630676
     8.339363010        15.850278581        10.683952846
     8.339573220        22.112551842        10.682862508
    14.044306980         2.571795730        10.762801300
    14.051975190         9.138391003        10.761230155
    14.049662880        15.699938297        10.762880166
    14.046713340        22.266962068        10.763918290
    19.742692200         2.563916830        10.748743299
    19.744270590         9.124111940        10.747491604
    19.774787670        15.676965610        10.739147453
    19.770230700        22.279636365        10.760005836
    14.069712360         5.853091347        10.757032335
    14.016274140        12.416176192        10.744429085
    14.074600650        18.981515903        10.754207681
    14.010357900        25.543984520        10.743497746
    19.774448760         5.841775011        10.760262375
    19.771662570        12.439162271        10.738970867
    19.748331240        18.996678218        10.747300876
    19.740480210        25.554000134        10.747998156
    11.128843770         0.940617280        10.744230742
    11.214726600         7.474304595        10.795568373
    11.131351440        14.068870647        10.742551723
    11.214605490        20.599878012        10.795894351
    16.881218640         0.928871658        10.758485092
    16.908438030         7.484322834        10.751189943
    16.892069370        14.056802864        10.748711934
    16.908676290        20.637870182        10.751219132
    22.634683500         0.930287907        10.822217296
    22.685549040         7.465492818        10.670772700
    22.840682370        14.058579083        10.708132645
    22.685419020        20.655030054        10.670807872
    11.210196690         4.237449622        10.796219965
    11.130446580        10.770474760        10.744002667
    11.215145040        17.364275713        10.796624446
    11.127605940        23.897274596        10.744317585
    16.905384870         4.210054111        10.754660024
    16.898513940        10.779579816        10.756397422
    16.912710870        17.339553588        10.758101280
    16.891897440        23.909192982        10.753307889
    22.628787390         4.142490858        10.809248908
    22.531254570        10.718015271        10.898658631
    22.532762670        17.399995427        10.898528457
    22.627460130        23.976131080        10.810099205
     8.337415680         2.721610369         7.448374206
     8.340098910         8.986952169         7.446284543
     8.339169630        15.850192724         7.446278378
     8.339029710        22.112791034         7.447505779
    14.044346910         2.571818836         7.367195685
    14.051989050         9.138350832         7.368601122
    14.049587970        15.699961403         7.366963802
    14.046705750        22.266947365         7.366040985
    19.742679330         2.563876921         7.381271997
    19.744299630         9.124072293         7.382436668
    19.774850370        15.677057768         7.390685093
    19.770254460        22.279658945         7.370043001
     7.465285410         5.857074907         9.065149334
     7.616918760        12.417721621         9.064986527
     7.467201390        18.981773212         9.064726543
     7.616458080        25.544521456         9.064982901
    14.069722920         5.853074280         7.372949965
    14.016236190        12.416227129         7.385407813
    14.074529370        18.981569991         7.375731107
    14.010421260        25.543987146         7.386467511
    19.774430610         5.841762145         7.369725182
    19.771697880        12.439149405         7.390900840
    19.748365560        18.996744909         7.382702998
    19.740511890        25.553976241         7.382058658
    11.128820340         0.940664278         7.385721643
    11.214816690         7.474245781         7.334321101
    11.131328340        14.068781640         7.387423325
    11.214352380        20.599963607         7.334205250
    16.881241410         0.928883211         7.371521684
    16.908450240         7.484226212         7.378775315
    16.892147250        14.056788949         7.380924083
    16.908722160        20.637891187         7.378730715
    22.634800980         0.930391356         7.307933975
    22.685562240         7.465494131         7.459188932
    22.840727250        14.058609540         7.421846392
    22.685546070        20.655083354         7.459363705
    11.210394690         4.237528390         7.333725712
    11.130345270        10.770425399         7.385950081
    11.214757950        17.364241843         7.333508696
    11.127611880        23.897274858         7.385640421
    16.905408960         4.210048072         7.375374490
    16.898521200        10.779564850         7.373525955
    16.912760370        17.339605575         7.371790370
    16.891939020        23.909184843         7.376702512
    22.628810490         4.142463289         7.320752791
    22.531296150        10.718017109         7.231318774
    22.532859030        17.400061329         7.231524912
    22.627476630        23.976113226         7.320271802
    25.551254190        23.953891197         9.065111080
    25.351289040        20.554008779         9.065338430
    25.516523340        17.079216679         9.065239078
    25.516990950        11.042003815         9.065013178
    25.352233830         7.567000879         9.064986527
    25.550793180         4.165363773         9.064959513
    25.532857350         0.930278192         9.065119964
    26.574000000        15.218000000         9.065000000
    25.424000000        15.218000000         9.065000000
