Mo  S                                   
   1.00000000000000     
    33.0000000000000000    0.0000000000000000    0.0000000000000000
     0.0000000000000000   25.5200004577999984    0.0000000000000000
     0.0000000000000000    0.0000000000000000   17.4729003905999996
   Mo   S    O    C 
    48    99     1     1
Direct
  0.2843845980055320  0.1051404932423502  0.4975755778726452
  0.3691189180105041  0.0353234200780477  0.4984948188158650
  0.2853624087652500  0.2262672140241778  0.4975404061652040
  0.3695175038791207  0.1603972620141134  0.4980770604300442
  0.4516189266839550  0.0975944351390857  0.4990369275082597
  0.5346802154839363  0.0350663737915255  0.5007819429503843
  0.2854309836019822  0.3428215733193695  0.4976470628007725
  0.3698392488815109  0.2845063570544511  0.4981368818888164
  0.4525475177543742  0.2222934515030399  0.4986993916446391
  0.5347691371927982  0.1595503216391336  0.5000083880778949
  0.6167554683659691  0.0976255292915992  0.5033234648216709
  0.2845495713927298  0.4638212427692326  0.4978988665869886
  0.3696695886325611  0.4085778868101905  0.4985954101254879
  0.4526658158786314  0.3467112916927983  0.4990901774834753
  0.5354651490748087  0.2845452915850775  0.4999582449254602
  0.2854560650386242  0.6039163445479850  0.4982831219871476
  0.3693131249554008  0.5336352122749962  0.4992775451962719
  0.4518897904494880  0.4712939108816039  0.4998883056328478
  0.5351864303493623  0.4090816411950595  0.5004243865864760
  0.2853163440350019  0.7145907229142949  0.4984105136435797
  0.3693818908693275  0.6589913765423204  0.4997559774770468
  0.4518863452430008  0.5964684428155299  0.5008444256986007
  0.5348046973117747  0.5341368477802770  0.5013243389292200
  0.4518974595256718  0.7218338011006338  0.5011851200321128
  0.5346557695520294  0.6590554680519811  0.5023366878305322
  0.6176768276958243  0.2218775526601066  0.5021749435358381
  0.7013067040018973  0.0400427328630456  0.5051849916284843
  0.6185147940749715  0.3473531906408847  0.5031180319180872
  0.6977995862681340  0.1622649813065845  0.5063031183604746
  0.6182006161259636  0.4709826165645286  0.5009833372227105
  0.6978316195242390  0.2821707808302641  0.5109067869734336
  0.6166894702929556  0.5964630007993484  0.5025139047620588
  0.6990598117097073  0.4130429952444037  0.4978808281658147
  0.6182074314294981  0.7217033796494160  0.5027211084901855
  0.6984895880185717  0.5346276131292367  0.5032899521298302
  0.7005801777059204  0.6565159003858173  0.4950514985819178
  0.2852568036860246  0.8543357412673640  0.4982413494353185
  0.3692743122250033  0.7845132706828403  0.4996948854102697
  0.2853324408628946  0.9650241998415342  0.4979397958986502
  0.3692877193358591  0.9099761676489843  0.4991647141412165
  0.4518743962912102  0.8472271299374429  0.5007221797316911
  0.5347955754597921  0.7847023904499493  0.5022068742853515
  0.4517916093364748  0.9725179960690463  0.4998690237377310
  0.5346820670947168  0.9096740378271434  0.5014920394054262
  0.6166531867255232  0.8471519448748797  0.5020564368711280
  0.6181136489086819  0.9724664098320177  0.5026158034699479
  0.7001968212007457  0.7872101813806515  0.4967819893161384
  0.7004869484645363  0.9082043873291570  0.5056742630137920
  0.3118166953121813  0.0354516206459773  0.4123698372455878
  0.3113737426758621  0.0356758809606109  0.5835722271258276
  0.3138423599484222  0.1622977348740151  0.4064623054058344
  0.3134999486996782  0.1623569050824309  0.5889588117886491
  0.3964580446064970  0.0973995878735502  0.4088552659910996
  0.3959704623620406  0.0976729887278637  0.5881228577598820
  0.4796517106168514  0.0347763015520265  0.4105627921067254
  0.4788537658820544  0.0352519090456304  0.5891040631675851
  0.3141222711305788  0.2845551180895217  0.4055904102346048
  0.3137740743358637  0.2844574034622170  0.5899458691580476
  0.3976030175942487  0.2223396409955813  0.4088572987605965
  0.3971911475422560  0.2223110123565131  0.5876520329905369
  0.4799050349850109  0.1595598567014955  0.4096303537403200
  0.4791598231116849  0.1597547345128034  0.5886685546623665
  0.5627511939620056  0.0970273245791994  0.4113730500895407
  0.5612420732864436  0.0973698491454261  0.5911777632515537
  0.3140723073515301  0.4067927332801885  0.4067652619851443
  0.3135631642234443  0.4065635568076302  0.5893205973235592
  0.3977374896984486  0.3467952320433378  0.4091911588131292
  0.3972720839881529  0.3465019961148857  0.5879746262220397
  0.4805918635955194  0.2846169053631477  0.4096766567285692
  0.4799066199288003  0.2844094619018754  0.5887191664823052
  0.5631944378596354  0.2220122925125169  0.4108437385327438
  0.5617331395466471  0.2218928594828265  0.5899964109203666
  0.6469403826661316  0.0350285805210562  0.4154203979946580
  0.6456188833861015  0.0350026842680384  0.5922530528940138
  0.6461383743437679  0.1596181178960185  0.4135843472528931
  0.6433543179339741  0.1611923417793308  0.5946346602137721
  0.3120990170688716  0.5335025768013362  0.4128772441850290
  0.3114330991920597  0.5332632972414255  0.5840809594863693
  0.3967416919199212  0.4716252751274798  0.4096538380145079
  0.3961497985349049  0.4711848733607301  0.5888465539608770
  0.4801876691539282  0.4094490375012837  0.4102803972878264
  0.4795825290424283  0.4089920623057391  0.5892554944967368
  0.5638060397237497  0.3468654907451676  0.4117103360430294
  0.5625085157578373  0.3468377151505173  0.5904709984846156
  0.3152529688187619  0.6591330488949725  0.4049517559748684
  0.3143826844043028  0.6590196348930416  0.5927624846310454
  0.3969098775780946  0.5963302187132126  0.4107053718099650
  0.3961383753050144  0.5960144089094214  0.5892653121645579
  0.4796665332668777  0.5342037459657354  0.4114821182670694
  0.4791288954037815  0.5336315466188065  0.5899850435060126
  0.5626788657626831  0.4718492553403070  0.4116402706380280
  0.5624243575793583  0.4713072731668602  0.5900581245069084
  0.3969044784261818  0.7220113379736469  0.4110570041869450
  0.3960732222948190  0.7220512558838375  0.5894216877273607
  0.4796187814692692  0.6593154994284964  0.4121839666959009
  0.4788864989691214  0.6591012648276521  0.5908812337925905
  0.5619568834835122  0.5968325234367380  0.4122965576050255
  0.5617637023988131  0.5965130679553825  0.5920522749364133
  0.5624163295664190  0.7217636428832944  0.4136337089296375
  0.5624815722970482  0.7218246364315324  0.5915119984392045
  0.6496402369928046  0.2851068331279547  0.4150933501973718
  0.6445227835063925  0.2826203094325868  0.5961235844447269
  0.7279357026857161  0.0991329427039613  0.4199413220105981
  0.7236534462778551  0.1005209311432923  0.5964767791305307
  0.6460869253053377  0.4088987545008000  0.4099284870952319
  0.6465388956192254  0.4102097348962150  0.5928987973361189
  0.7472014342607544  0.2226169476947734  0.4796151702064353
  0.6458607415739547  0.5347717265835485  0.4123384665567601
  0.6439598531554042  0.5325519361423796  0.5924829493443117
  0.7321450037298406  0.3467554145252946  0.5737806515093324
  0.6440518703363572  0.6595032494536055  0.4123417249229754
  0.6481107745258678  0.6586742791303030  0.5895683507814390
  0.7475890852053751  0.4764415713852506  0.4670263538140000
  0.7262771387344452  0.5980519283111895  0.4101045932196780
  0.7270493778974148  0.5942286109670494  0.5862887111480953
  0.7483295301096662  0.7223958006528989  0.5018435631914376
  0.2302469014951443  0.1633210515347224  0.4973114275854230
  0.2298543042804218  0.2845550387091410  0.4973965881034027
  0.2287179435218750  0.6581161653419618  0.4973791578978800
  0.2355804775370877  0.0366826762519943  0.4973107271674042
  0.3120069796920897  0.7844350591008286  0.4132972942089334
  0.3112554782546553  0.7845511814151304  0.5842596628861251
  0.3150622656314353  0.9097482076094514  0.4046003672327507
  0.3143876392410809  0.9100000218527885  0.5923511722388749
  0.3968423498574142  0.8468304721498017  0.4106652719697422
  0.3960946989818124  0.8471704884546136  0.5890516135652022
  0.4797288843778409  0.7843910035699044  0.4122082292212935
  0.4790352185377644  0.7846563657277298  0.5906416370482382
  0.3967116407583416  0.9726022035300115  0.4099100048893015
  0.3960836452779588  0.9730256918252510  0.5883961658050145
  0.4795933694164947  0.9096437055385476  0.4113578561922322
  0.4789142420675453  0.9101292231018506  0.5900397823419569
  0.5619905703423188  0.8471102369924020  0.4120736373183964
  0.5617991746716132  0.8472974116160487  0.5918990853817876
  0.5629154036404290  0.9722500638703092  0.4125670976172609
  0.5619772926764974  0.9725730778098649  0.5906511061246484
  0.6442176492867508  0.7841097966813321  0.4124152024967573
  0.6471895558392431  0.7845566641799812  0.5898779707763933
  0.6467431639872038  0.9100445756856952  0.4143683832906295
  0.6448742421110215  0.9098906534479518  0.5916349662485499
  0.7257899037617414  0.8473397673848913  0.4117145740328794
  0.7264377135963689  0.8477001583467955  0.5902753470922074
  0.7485633732365654  0.9727232675846433  0.5044330995695417
  0.2286313642979536  0.9107658194153113  0.4973968043130282
  0.2355599639728083  0.7844452755023593  0.4975905856120230
  0.2357083315667858  0.5322599688495443  0.4974092357190910
  0.2303469717317152  0.4057667934358248  0.4971989185693668
  0.7541697795476393  0.3532860099030208  0.3761950253858826
  0.7344991736148223  0.3744467873660167  0.4218290125294529
 
  0.00000000E+00  0.00000000E+00  0.00000000E+00
  0.00000000E+00  0.00000000E+00  0.00000000E+00
  0.00000000E+00  0.00000000E+00  0.00000000E+00
  0.00000000E+00  0.00000000E+00  0.00000000E+00
  0.00000000E+00  0.00000000E+00  0.00000000E+00
  0.00000000E+00  0.00000000E+00  0.00000000E+00
  0.00000000E+00  0.00000000E+00  0.00000000E+00
  0.00000000E+00  0.00000000E+00  0.00000000E+00
  0.00000000E+00  0.00000000E+00  0.00000000E+00
  0.00000000E+00  0.00000000E+00  0.00000000E+00
  0.00000000E+00  0.00000000E+00  0.00000000E+00
  0.00000000E+00  0.00000000E+00  0.00000000E+00
  0.00000000E+00  0.00000000E+00  0.00000000E+00
  0.00000000E+00  0.00000000E+00  0.00000000E+00
  0.00000000E+00  0.00000000E+00  0.00000000E+00
  0.00000000E+00  0.00000000E+00  0.00000000E+00
  0.00000000E+00  0.00000000E+00  0.00000000E+00
  0.00000000E+00  0.00000000E+00  0.00000000E+00
  0.00000000E+00  0.00000000E+00  0.00000000E+00
  0.00000000E+00  0.00000000E+00  0.00000000E+00
  0.00000000E+00  0.00000000E+00  0.00000000E+00
  0.00000000E+00  0.00000000E+00  0.00000000E+00
  0.00000000E+00  0.00000000E+00  0.00000000E+00
  0.00000000E+00  0.00000000E+00  0.00000000E+00
  0.00000000E+00  0.00000000E+00  0.00000000E+00
  0.00000000E+00  0.00000000E+00  0.00000000E+00
  0.00000000E+00  0.00000000E+00  0.00000000E+00
  0.00000000E+00  0.00000000E+00  0.00000000E+00
  0.00000000E+00  0.00000000E+00  0.00000000E+00
  0.00000000E+00  0.00000000E+00  0.00000000E+00
  0.00000000E+00  0.00000000E+00  0.00000000E+00
  0.00000000E+00  0.00000000E+00  0.00000000E+00
  0.00000000E+00  0.00000000E+00  0.00000000E+00
  0.00000000E+00  0.00000000E+00  0.00000000E+00
  0.00000000E+00  0.00000000E+00  0.00000000E+00
  0.00000000E+00  0.00000000E+00  0.00000000E+00
  0.00000000E+00  0.00000000E+00  0.00000000E+00
  0.00000000E+00  0.00000000E+00  0.00000000E+00
  0.00000000E+00  0.00000000E+00  0.00000000E+00
  0.00000000E+00  0.00000000E+00  0.00000000E+00
  0.00000000E+00  0.00000000E+00  0.00000000E+00
  0.00000000E+00  0.00000000E+00  0.00000000E+00
  0.00000000E+00  0.00000000E+00  0.00000000E+00
  0.00000000E+00  0.00000000E+00  0.00000000E+00
  0.00000000E+00  0.00000000E+00  0.00000000E+00
  0.00000000E+00  0.00000000E+00  0.00000000E+00
  0.00000000E+00  0.00000000E+00  0.00000000E+00
  0.00000000E+00  0.00000000E+00  0.00000000E+00
  0.00000000E+00  0.00000000E+00  0.00000000E+00
  0.00000000E+00  0.00000000E+00  0.00000000E+00
  0.00000000E+00  0.00000000E+00  0.00000000E+00
  0.00000000E+00  0.00000000E+00  0.00000000E+00
  0.00000000E+00  0.00000000E+00  0.00000000E+00
  0.00000000E+00  0.00000000E+00  0.00000000E+00
  0.00000000E+00  0.00000000E+00  0.00000000E+00
  0.00000000E+00  0.00000000E+00  0.00000000E+00
  0.00000000E+00  0.00000000E+00  0.00000000E+00
  0.00000000E+00  0.00000000E+00  0.00000000E+00
  0.00000000E+00  0.00000000E+00  0.00000000E+00
  0.00000000E+00  0.00000000E+00  0.00000000E+00
  0.00000000E+00  0.00000000E+00  0.00000000E+00
  0.00000000E+00  0.00000000E+00  0.00000000E+00
  0.00000000E+00  0.00000000E+00  0.00000000E+00
  0.00000000E+00  0.00000000E+00  0.00000000E+00
  0.00000000E+00  0.00000000E+00  0.00000000E+00
  0.00000000E+00  0.00000000E+00  0.00000000E+00
  0.00000000E+00  0.00000000E+00  0.00000000E+00
  0.00000000E+00  0.00000000E+00  0.00000000E+00
  0.00000000E+00  0.00000000E+00  0.00000000E+00
  0.00000000E+00  0.00000000E+00  0.00000000E+00
  0.00000000E+00  0.00000000E+00  0.00000000E+00
  0.00000000E+00  0.00000000E+00  0.00000000E+00
  0.00000000E+00  0.00000000E+00  0.00000000E+00
  0.00000000E+00  0.00000000E+00  0.00000000E+00
  0.00000000E+00  0.00000000E+00  0.00000000E+00
  0.00000000E+00  0.00000000E+00  0.00000000E+00
  0.00000000E+00  0.00000000E+00  0.00000000E+00
  0.00000000E+00  0.00000000E+00  0.00000000E+00
  0.00000000E+00  0.00000000E+00  0.00000000E+00
  0.00000000E+00  0.00000000E+00  0.00000000E+00
  0.00000000E+00  0.00000000E+00  0.00000000E+00
  0.00000000E+00  0.00000000E+00  0.00000000E+00
  0.00000000E+00  0.00000000E+00  0.00000000E+00
  0.00000000E+00  0.00000000E+00  0.00000000E+00
  0.00000000E+00  0.00000000E+00  0.00000000E+00
  0.00000000E+00  0.00000000E+00  0.00000000E+00
  0.00000000E+00  0.00000000E+00  0.00000000E+00
  0.00000000E+00  0.00000000E+00  0.00000000E+00
  0.00000000E+00  0.00000000E+00  0.00000000E+00
  0.00000000E+00  0.00000000E+00  0.00000000E+00
  0.00000000E+00  0.00000000E+00  0.00000000E+00
  0.00000000E+00  0.00000000E+00  0.00000000E+00
  0.00000000E+00  0.00000000E+00  0.00000000E+00
  0.00000000E+00  0.00000000E+00  0.00000000E+00
  0.00000000E+00  0.00000000E+00  0.00000000E+00
  0.00000000E+00  0.00000000E+00  0.00000000E+00
  0.00000000E+00  0.00000000E+00  0.00000000E+00
  0.00000000E+00  0.00000000E+00  0.00000000E+00
  0.00000000E+00  0.00000000E+00  0.00000000E+00
  0.00000000E+00  0.00000000E+00  0.00000000E+00
  0.00000000E+00  0.00000000E+00  0.00000000E+00
  0.00000000E+00  0.00000000E+00  0.00000000E+00
  0.00000000E+00  0.00000000E+00  0.00000000E+00
  0.00000000E+00  0.00000000E+00  0.00000000E+00
  0.00000000E+00  0.00000000E+00  0.00000000E+00
  0.00000000E+00  0.00000000E+00  0.00000000E+00
  0.00000000E+00  0.00000000E+00  0.00000000E+00
  0.00000000E+00  0.00000000E+00  0.00000000E+00
  0.00000000E+00  0.00000000E+00  0.00000000E+00
  0.00000000E+00  0.00000000E+00  0.00000000E+00
  0.00000000E+00  0.00000000E+00  0.00000000E+00
  0.00000000E+00  0.00000000E+00  0.00000000E+00
  0.00000000E+00  0.00000000E+00  0.00000000E+00
  0.00000000E+00  0.00000000E+00  0.00000000E+00
  0.00000000E+00  0.00000000E+00  0.00000000E+00
  0.00000000E+00  0.00000000E+00  0.00000000E+00
  0.00000000E+00  0.00000000E+00  0.00000000E+00
  0.00000000E+00  0.00000000E+00  0.00000000E+00
  0.00000000E+00  0.00000000E+00  0.00000000E+00
  0.00000000E+00  0.00000000E+00  0.00000000E+00
  0.00000000E+00  0.00000000E+00  0.00000000E+00
  0.00000000E+00  0.00000000E+00  0.00000000E+00
  0.00000000E+00  0.00000000E+00  0.00000000E+00
  0.00000000E+00  0.00000000E+00  0.00000000E+00
  0.00000000E+00  0.00000000E+00  0.00000000E+00
  0.00000000E+00  0.00000000E+00  0.00000000E+00
  0.00000000E+00  0.00000000E+00  0.00000000E+00
  0.00000000E+00  0.00000000E+00  0.00000000E+00
  0.00000000E+00  0.00000000E+00  0.00000000E+00
  0.00000000E+00  0.00000000E+00  0.00000000E+00
  0.00000000E+00  0.00000000E+00  0.00000000E+00
  0.00000000E+00  0.00000000E+00  0.00000000E+00
  0.00000000E+00  0.00000000E+00  0.00000000E+00
  0.00000000E+00  0.00000000E+00  0.00000000E+00
  0.00000000E+00  0.00000000E+00  0.00000000E+00
  0.00000000E+00  0.00000000E+00  0.00000000E+00
  0.00000000E+00  0.00000000E+00  0.00000000E+00
  0.00000000E+00  0.00000000E+00  0.00000000E+00
  0.00000000E+00  0.00000000E+00  0.00000000E+00
  0.00000000E+00  0.00000000E+00  0.00000000E+00
  0.00000000E+00  0.00000000E+00  0.00000000E+00
  0.00000000E+00  0.00000000E+00  0.00000000E+00
  0.00000000E+00  0.00000000E+00  0.00000000E+00
  0.00000000E+00  0.00000000E+00  0.00000000E+00
  0.00000000E+00  0.00000000E+00  0.00000000E+00
  0.00000000E+00  0.00000000E+00  0.00000000E+00
  0.00000000E+00  0.00000000E+00  0.00000000E+00
  0.00000000E+00  0.00000000E+00  0.00000000E+00
  0.00000000E+00  0.00000000E+00  0.00000000E+00
