W36 Se72                                
   1.00000000000000     
    19.6920000000000002    0.0000000000000000    0.0000000000000012
    -9.8459999999999965   17.0537722513231707    0.0000000000000012
     0.0000000000000000    0.0000000000000000   25.9200000000000017
   W    Se
    36    71
Direct
  0.1208877556854233  0.0471804621972112  0.5002439496814475
  0.1217976105514182  0.2143528089830440  0.4998316788981896
  0.1218362745949335  0.3796663185711679  0.4998086697083224
  0.1209644721940393  0.5459610941498596  0.5001987292086483
  0.1204963908615824  0.7128354220848934  0.5006234445776698
  0.1204659445967309  0.8798599839451100  0.5006450100030619
  0.2873145390023168  0.0471444211220557  0.5002216887505000
  0.2882682566938541  0.2154156030130849  0.4979503878842308
  0.2948284477797358  0.3835070553727391  0.4952247643666965
  0.2882888775969548  0.5450448137902058  0.4979150111479242
  0.2873718102852081  0.7123688838846931  0.5001982822443765
  0.2871298684048540  0.8796640366721462  0.5007900268053120
  0.4535603293156854  0.0467175623109668  0.5010276523203672
  0.4536574921243215  0.2143332454103799  0.4997869701958848
  0.4498455196607054  0.3834871215725570  0.4952584104753797
  0.4498269865051583  0.5385050919463197  0.4952256658561609
  0.4536669688376733  0.7114969147453749  0.4998086323418107
  0.4535645960038934  0.8790695767868684  0.5010641124174882
  0.6202486026800784  0.0462379335441270  0.5015014621688323
  0.6201279895212082  0.2132052988406912  0.5010473423138606
  0.6190000489132075  0.3796752962548666  0.4997869354277427
  0.6179180778426172  0.5450635870950578  0.4979513056379474
  0.6189810479721700  0.7115356983737513  0.4998317564337142
  0.6200994994874591  0.8791354139683563  0.5011312663268299
  0.7870609061015088  0.0462725252192655  0.5015638489892282
  0.7870941000492309  0.2130843638941897  0.5015010858325653
  0.7866152520405834  0.3797725181036213  0.5010274621155162
  0.7861888223172571  0.5460181941672175  0.5002221471067756
  0.7861536279911121  0.7124477350898317  0.5002446640982328
  0.7865680768585932  0.8790892324344171  0.5011243889088846
  0.9542444648039066  0.0467656601419861  0.5011251303803235
  0.9541982486825233  0.2132342556270501  0.5011314817970529
  0.9542634394678373  0.3797687958525131  0.5010641427613010
  0.9536688079277695  0.5462029888826621  0.5007899089001739
  0.9534722428544882  0.7128668406155612  0.5006456458576238
  0.9536360428584345  0.8796987040534319  0.5008601509630708
  0.0668346420019290  0.1037870084009000  0.5656888139791931
  0.0667949677215063  0.2695395738934323  0.5656502516820225
  0.0668507964504812  0.4353062355208976  0.5656175575187277
  0.0653994289351942  0.6015197235603722  0.5656847431469245
  0.0648100068097861  0.7685224165275386  0.5658494194357360
  0.0653725463487689  0.9360793442290998  0.5657612405172401
  0.2331181110324891  0.1051725903933658  0.5645363979172373
  0.2379797782866291  0.2752460971579538  0.5628237808400200
  0.2379955937129310  0.4349308511661434  0.5628242304075499
  0.2331694088112073  0.6001646132026224  0.5644948502078790
  0.2318124599365348  0.7679327488688088  0.5656843534526246
  0.2317751036147939  0.9360347895998160  0.5657347851075443
  0.3980232950408435  0.1037418737876266  0.5656128813935979
  0.3984193712962778  0.2751907171080390  0.5628425569779480
  0.3984029011588959  0.5953378499388577  0.5628243989323636
  0.3980262786091515  0.7664820589024046  0.5656173147108561
  0.3979922913165268  0.9351636547341471  0.5661694419736136
  0.5644245194529418  0.1021774324851776  0.5664574007339525
  0.5638396141138955  0.2694965761144346  0.5655825846124642
  0.5581426932541973  0.4349132746474993  0.5628425825874217
  0.5580885428492834  0.5953533158720248  0.5628244449104756
  0.5637939528928513  0.7665380922439127  0.5656503745988459
  0.5644008477921361  0.9345299095759003  0.5665118958475617
  0.7314184420689784  0.1019143277449999  0.5667898376019096
  0.7311555165159831  0.2689089941373339  0.5664576173099505
  0.7295912175850319  0.4353096526153166  0.5656126867691142
  0.7281612876947605  0.6002161837215780  0.5645362984656188
  0.7295472844755650  0.7664999840203848  0.5656889233033269
  0.7311144108495284  0.9345322788028696  0.5665575507052196
  0.8988008743048965  0.1022195154563619  0.5665578772524000
  0.8987984469396437  0.2689316850090577  0.5665122549456925
  0.8981689815503842  0.4353404541352504  0.5661692971374634
  0.8972979225061977  0.6015582853394790  0.5657349000132470
  0.8972552498480368  0.7679635988593603  0.5657616785162958
  0.8981466107054601  0.9351868479877723  0.5662407752655980
  0.0646197225300753  0.1021538885695961  0.4352290430718995
  0.0643998360867784  0.2682935698389599  0.4351365334732122
  0.0647103333645731  0.4347154280742700  0.4352053789324941
  0.0647237551468223  0.6016445262230903  0.4353980315564883
  0.0648280661049938  0.7685035428301603  0.4354808998948769
  0.0646542698401689  0.9352362530402374  0.4354368053594371
  0.2313590523080862  0.1016870962343788  0.4343779046426590
  0.2312758828876511  0.2697010835262432  0.4327596577719817
  0.2313028382827298  0.4337736389181188  0.4327251266177043
  0.2314256716085268  0.6019074036246863  0.4343149750412394
  0.2316878174500374  0.7686092450749555  0.4353980192711688
  0.2316362398925662  0.9351942316958244  0.4354128412309919
  0.3985276046311697  0.1021084928672380  0.4351890440410955
  0.3995304359558034  0.2697009005968454  0.4327636864812163
  0.3982016181097734  0.4351319608889170  0.4258340665214462
  0.3995602364810722  0.6020305217187882  0.4327251701837369
  0.3986178623427108  0.7686230596147396  0.4352052744084389
  0.3985053946990433  0.9353216375923026  0.4358442907023914
  0.5649516609427394  0.1017914335283052  0.4360367515477179
  0.5650241606233237  0.2683083361986718  0.4350950798708055
  0.5636321171860033  0.4338020719832585  0.4327636801813028
  0.5636355001126816  0.6020571230782110  0.4327609564057369
  0.5650421770307048  0.7689354398512549  0.4351375464168612
  0.5649539350980248  0.9353013210878345  0.4360714358883158
  0.7314900316969570  0.1018435016220209  0.4363574981724625
  0.7315411321827838  0.2683811613347515  0.4360357690489494
  0.7312246182681221  0.4348050854149008  0.4351887377232231
  0.7316481803822654  0.6019758560183774  0.4343804937218891
  0.7311789073497010  0.7687133596613265  0.4352286417715661
  0.7315070312914429  0.9353605871613695  0.4361253210203984
  0.8979733778909136  0.1018258086030883  0.4361262697919344
  0.8980317019445465  0.2683792751002798  0.4360714277758433
  0.8980114001470838  0.4348275896025697  0.4358439423319425
  0.8981390729941054  0.6016973365531939  0.4354128555062999
  0.8980965539649048  0.7686790708552067  0.4354375591982631
  0.8979643018506209  0.9353704839968060  0.4359438070419586
 
  0.00000000E+00  0.00000000E+00  0.00000000E+00
  0.00000000E+00  0.00000000E+00  0.00000000E+00
  0.00000000E+00  0.00000000E+00  0.00000000E+00
  0.00000000E+00  0.00000000E+00  0.00000000E+00
  0.00000000E+00  0.00000000E+00  0.00000000E+00
  0.00000000E+00  0.00000000E+00  0.00000000E+00
  0.00000000E+00  0.00000000E+00  0.00000000E+00
  0.00000000E+00  0.00000000E+00  0.00000000E+00
  0.00000000E+00  0.00000000E+00  0.00000000E+00
  0.00000000E+00  0.00000000E+00  0.00000000E+00
  0.00000000E+00  0.00000000E+00  0.00000000E+00
  0.00000000E+00  0.00000000E+00  0.00000000E+00
  0.00000000E+00  0.00000000E+00  0.00000000E+00
  0.00000000E+00  0.00000000E+00  0.00000000E+00
  0.00000000E+00  0.00000000E+00  0.00000000E+00
  0.00000000E+00  0.00000000E+00  0.00000000E+00
  0.00000000E+00  0.00000000E+00  0.00000000E+00
  0.00000000E+00  0.00000000E+00  0.00000000E+00
  0.00000000E+00  0.00000000E+00  0.00000000E+00
  0.00000000E+00  0.00000000E+00  0.00000000E+00
  0.00000000E+00  0.00000000E+00  0.00000000E+00
  0.00000000E+00  0.00000000E+00  0.00000000E+00
  0.00000000E+00  0.00000000E+00  0.00000000E+00
  0.00000000E+00  0.00000000E+00  0.00000000E+00
  0.00000000E+00  0.00000000E+00  0.00000000E+00
  0.00000000E+00  0.00000000E+00  0.00000000E+00
  0.00000000E+00  0.00000000E+00  0.00000000E+00
  0.00000000E+00  0.00000000E+00  0.00000000E+00
  0.00000000E+00  0.00000000E+00  0.00000000E+00
  0.00000000E+00  0.00000000E+00  0.00000000E+00
  0.00000000E+00  0.00000000E+00  0.00000000E+00
  0.00000000E+00  0.00000000E+00  0.00000000E+00
  0.00000000E+00  0.00000000E+00  0.00000000E+00
  0.00000000E+00  0.00000000E+00  0.00000000E+00
  0.00000000E+00  0.00000000E+00  0.00000000E+00
  0.00000000E+00  0.00000000E+00  0.00000000E+00
  0.00000000E+00  0.00000000E+00  0.00000000E+00
  0.00000000E+00  0.00000000E+00  0.00000000E+00
  0.00000000E+00  0.00000000E+00  0.00000000E+00
  0.00000000E+00  0.00000000E+00  0.00000000E+00
  0.00000000E+00  0.00000000E+00  0.00000000E+00
  0.00000000E+00  0.00000000E+00  0.00000000E+00
  0.00000000E+00  0.00000000E+00  0.00000000E+00
  0.00000000E+00  0.00000000E+00  0.00000000E+00
  0.00000000E+00  0.00000000E+00  0.00000000E+00
  0.00000000E+00  0.00000000E+00  0.00000000E+00
  0.00000000E+00  0.00000000E+00  0.00000000E+00
  0.00000000E+00  0.00000000E+00  0.00000000E+00
  0.00000000E+00  0.00000000E+00  0.00000000E+00
  0.00000000E+00  0.00000000E+00  0.00000000E+00
  0.00000000E+00  0.00000000E+00  0.00000000E+00
  0.00000000E+00  0.00000000E+00  0.00000000E+00
  0.00000000E+00  0.00000000E+00  0.00000000E+00
  0.00000000E+00  0.00000000E+00  0.00000000E+00
  0.00000000E+00  0.00000000E+00  0.00000000E+00
  0.00000000E+00  0.00000000E+00  0.00000000E+00
  0.00000000E+00  0.00000000E+00  0.00000000E+00
  0.00000000E+00  0.00000000E+00  0.00000000E+00
  0.00000000E+00  0.00000000E+00  0.00000000E+00
  0.00000000E+00  0.00000000E+00  0.00000000E+00
  0.00000000E+00  0.00000000E+00  0.00000000E+00
  0.00000000E+00  0.00000000E+00  0.00000000E+00
  0.00000000E+00  0.00000000E+00  0.00000000E+00
  0.00000000E+00  0.00000000E+00  0.00000000E+00
  0.00000000E+00  0.00000000E+00  0.00000000E+00
  0.00000000E+00  0.00000000E+00  0.00000000E+00
  0.00000000E+00  0.00000000E+00  0.00000000E+00
  0.00000000E+00  0.00000000E+00  0.00000000E+00
  0.00000000E+00  0.00000000E+00  0.00000000E+00
  0.00000000E+00  0.00000000E+00  0.00000000E+00
  0.00000000E+00  0.00000000E+00  0.00000000E+00
  0.00000000E+00  0.00000000E+00  0.00000000E+00
  0.00000000E+00  0.00000000E+00  0.00000000E+00
  0.00000000E+00  0.00000000E+00  0.00000000E+00
  0.00000000E+00  0.00000000E+00  0.00000000E+00
  0.00000000E+00  0.00000000E+00  0.00000000E+00
  0.00000000E+00  0.00000000E+00  0.00000000E+00
  0.00000000E+00  0.00000000E+00  0.00000000E+00
  0.00000000E+00  0.00000000E+00  0.00000000E+00
  0.00000000E+00  0.00000000E+00  0.00000000E+00
  0.00000000E+00  0.00000000E+00  0.00000000E+00
  0.00000000E+00  0.00000000E+00  0.00000000E+00
  0.00000000E+00  0.00000000E+00  0.00000000E+00
  0.00000000E+00  0.00000000E+00  0.00000000E+00
  0.00000000E+00  0.00000000E+00  0.00000000E+00
  0.00000000E+00  0.00000000E+00  0.00000000E+00
  0.00000000E+00  0.00000000E+00  0.00000000E+00
  0.00000000E+00  0.00000000E+00  0.00000000E+00
  0.00000000E+00  0.00000000E+00  0.00000000E+00
  0.00000000E+00  0.00000000E+00  0.00000000E+00
  0.00000000E+00  0.00000000E+00  0.00000000E+00
  0.00000000E+00  0.00000000E+00  0.00000000E+00
  0.00000000E+00  0.00000000E+00  0.00000000E+00
  0.00000000E+00  0.00000000E+00  0.00000000E+00
  0.00000000E+00  0.00000000E+00  0.00000000E+00
  0.00000000E+00  0.00000000E+00  0.00000000E+00
  0.00000000E+00  0.00000000E+00  0.00000000E+00
  0.00000000E+00  0.00000000E+00  0.00000000E+00
  0.00000000E+00  0.00000000E+00  0.00000000E+00
  0.00000000E+00  0.00000000E+00  0.00000000E+00
  0.00000000E+00  0.00000000E+00  0.00000000E+00
  0.00000000E+00  0.00000000E+00  0.00000000E+00
  0.00000000E+00  0.00000000E+00  0.00000000E+00
  0.00000000E+00  0.00000000E+00  0.00000000E+00
  0.00000000E+00  0.00000000E+00  0.00000000E+00
  0.00000000E+00  0.00000000E+00  0.00000000E+00
  0.00000000E+00  0.00000000E+00  0.00000000E+00
