Mo48 Se97                               
   1.00000000000000     
    33.0000000000000000    0.0000000000000000    0.0000000000000000
     0.0000000000000000   26.3120002747000008    0.0000000000000000
     0.0000000000000000    0.0000000000000000   18.0970001220999990
   Mo   Se   O    C 
    48    97     2     1
Direct
  0.2866221535641955  0.0277586894986939  0.4999980010145796
  0.2804278414556020  0.2908667777502722  0.4999930849690113
  0.2863517700875275  0.5277611226731661  0.4999914322556297
  0.2809768647908972  0.7904108239122432  0.4999895451057277
  0.4548186254708144  0.0358736258470995  0.4999983560927266
  0.4535554311661337  0.2855616336564962  0.5000000456590604
  0.4544499755704294  0.5358113927521120  0.5000050085906511
  0.4541613494727954  0.7854735724559994  0.5000034646939504
  0.6271477606026898  0.0359029624895184  0.5000006123266421
  0.6289001735404041  0.2866535543506452  0.5000052695135266
  0.6290887946471417  0.5341529542732987  0.5000039667726334
  0.6272054329371373  0.7850990191843052  0.5000015343999685
  0.2806759258858253  0.1557761650944858  0.4999944315695726
  0.2862733447392849  0.4183950598617143  0.4999853809797553
  0.2806820681285594  0.6555110180941004  0.4999956681321396
  0.2867314611747845  0.9182817042138893  0.4999992208035925
  0.4541753717872135  0.1606475107379793  0.4999990671082525
  0.4545852979464834  0.4102406578651249  0.5000015359683538
  0.4543193536140401  0.6601342302371014  0.5000064862669816
  0.4550621971962684  0.9102496708675223  0.5000011745614983
  0.6277974957019613  0.1610252721199905  0.5000012067242038
  0.6251418948224601  0.4103561927577636  0.5000076590797966
  0.6279980934590633  0.6599572556087245  0.5000053523692636
  0.6277657265683372  0.9104539857598255  0.5000011397582996
  0.3662251065791095  0.2230302770464879  0.4999976742465760
  0.3684883568570088  0.4730106846331798  0.4999969593090998
  0.3665699563016540  0.7229509948736780  0.4999975044536177
  0.3688004656202432  0.9730514686838039  0.4999991034665959
  0.5408109047635604  0.2234025777650842  0.5000013371013791
  0.5405628405313928  0.4731126018919432  0.5000047393118024
  0.5408243427860959  0.7225439864270252  0.5000037451689358
  0.5413271097969051  0.9730096694600713  0.4999997390580192
  0.7112900903686482  0.2131527121441615  0.5000040529978803
  0.7099774301727747  0.4601624470210257  0.5000066612980523
  0.7142859269713941  0.7150932989838160  0.5000028891413151
  0.7149362508881519  0.9648539092344049  0.5000035844849642
  0.3686400247478420  0.0974759305632337  0.4999957020632027
  0.3684143769509181  0.3489033664640199  0.4999963702799090
  0.3685619095852015  0.5973503832977225  0.4999994347131703
  0.3688467055932041  0.8487811868229608  0.5000002524656502
  0.5408676315916234  0.0985918828091819  0.5000000828049331
  0.5403576483370365  0.3477054923874991  0.5000032735408724
  0.5411970213263549  0.5976960862475201  0.5000051373736835
  0.5412203681638372  0.8479156263338846  0.5000002774208291
  0.7141332932877904  0.1058975645155954  0.5000036360831711
  0.7098724639952403  0.3604997981446003  0.5000091535980420
  0.7114417542317404  0.6077620097584240  0.5000043986041051
  0.7149618676637113  0.8561817609193335  0.5000032057623133
  0.2534257600015335  0.0926711056957576  0.5875013030198631
  0.2532643398177825  0.3536246705426516  0.5879904578699644
  0.2534051370246900  0.5926731043409609  0.5878301403433845
  0.2536286910940914  0.8533918671267174  0.5875852946869820
  0.4258626300569096  0.0981846981730525  0.5930359033799081
  0.4254816617377147  0.3480399761004203  0.5931355320218834
  0.4256605245921491  0.5981240150569048  0.5931681618094404
  0.4260227694703792  0.8479773154069672  0.5930636137712922
  0.5984073478818400  0.0981494137059272  0.5924310240252891
  0.5977613001030571  0.3466027237984699  0.5928228121574087
  0.5993728716736538  0.5963961566382395  0.5915911486406407
  0.5988984255649403  0.8476437865281305  0.5925183553963950
  0.4242262569381496  0.2228685454017690  0.5921798965964131
  0.4261242304915096  0.4730071625418391  0.5926882020899890
  0.4247061118461025  0.7227991926851429  0.5920548866616676
  0.4265352409402491  0.9729987110053281  0.5926315518907495
  0.5990330416526291  0.2245369936913935  0.5915738117137332
  0.5979158768730175  0.4741376242080188  0.5928429443258559
  0.5984664900785953  0.7228653786621221  0.5923624573455074
  0.5989733204342994  0.9732581705541453  0.5925368600470624
  0.3399462934733966  0.0346675922394356  0.5951438927076421
  0.3370301004956320  0.2862001022159494  0.5917873173380539
  0.3396913953368526  0.5346568502627059  0.5951394863084922
  0.3375048035166042  0.7861418726550243  0.5918929889446034
  0.5124345793844257  0.0356722179374221  0.5924411908120619
  0.5111750527801854  0.2852746154326173  0.5925171480352102
  0.5118779620907956  0.5357137422313248  0.5926547598112493
  0.5119847724226978  0.7853290753702282  0.5922675429635004
  0.6876608124527003  0.0355311567601007  0.5881380994414828
  0.6918485211758572  0.2853396109254633  0.5886711271765036
  0.6920778857577771  0.5354248670672572  0.5885949199412507
  0.6877391632145533  0.7854534153692496  0.5881215397596535
  0.3371176558179600  0.1600046715591960  0.5919628167422781
  0.3395735669422756  0.4115311068142141  0.5951834854120212
  0.3372242848083333  0.6600332852825730  0.5919066240300169
  0.3400383108552373  0.9114513283313677  0.5951936909828734
  0.5119670316740322  0.1609414463883077  0.5927137679828858
  0.5119674159251623  0.4104176935039529  0.5928038876940787
  0.5121324115380891  0.6602584976172831  0.5926863928786151
  0.5126583644740391  0.9104557729786596  0.5927044494808934
  0.6827131541274766  0.1593410494407621  0.5995742558606357
  0.6790151151420457  0.4103981606639248  0.6012446488422724
  0.6829206950860508  0.6616258723617821  0.5995754712944693
  0.6841995660434028  0.9105015005437507  0.5977729678832586
  0.2534264705524216  0.0926669806917589  0.4124872213138581
  0.2532775913471861  0.3536238848991116  0.4119738445158595
  0.2534051261264759  0.5926739574843607  0.4121611794797311
  0.2536285623739668  0.8533951488764092  0.4124061915675092
  0.4258647704919767  0.0981852933579355  0.4069576871686140
  0.4254835282140012  0.3480406826317793  0.4068618809672109
  0.4256634836463726  0.5981245315020757  0.4068392951184314
  0.4260242233595716  0.8479768035277708  0.4069402591570490
  0.5984080089088389  0.0981499204976574  0.4075694175026480
  0.5977638396000328  0.3466049872423130  0.4071869202692990
  0.5993729266917792  0.5963960546008251  0.4084151010463690
  0.5988989236028054  0.8476427245390488  0.4074809119115075
  0.2299266701257094  0.2232140133422017  0.4999819582796127
  0.2269551715425027  0.4730856178040957  0.4999743525678783
  0.2301305214483673  0.7231166065996192  0.4999985061448128
  0.2273606282090926  0.9728893742787789  0.5000305285202767
  0.4242274721999774  0.2228692165304603  0.4078170497415315
  0.4261268437674341  0.4730085179941621  0.4073120278906147
  0.4247093536423820  0.7227965704670147  0.4079501350985870
  0.4265359626583576  0.9729971795413040  0.4073671162807814
  0.5990336403511107  0.2245393244733425  0.4084307602171302
  0.5979167290222136  0.4741353550386983  0.4071646803306073
  0.5984667386497219  0.7228638611371618  0.4076446027749205
  0.5989737732687829  0.9732581998754573  0.4074630238686383
  0.3399474325765822  0.0346631244586194  0.4048483441063068
  0.3370310210299260  0.2862003256292275  0.4082051419177947
  0.3396968888328686  0.5346583935756616  0.4048514607917684
  0.3375127611135477  0.7861435026029396  0.4080976089487751
  0.5124355775744360  0.0356723633973635  0.4075572452587671
  0.5111772142325276  0.2852759686682246  0.4074847925585215
  0.5118783731528673  0.5357136308127748  0.4073561851864843
  0.5119828768394734  0.7853271702164432  0.4077377535214812
  0.6876619456767503  0.0355310012705172  0.4118658956734091
  0.6918458222482182  0.2853422005090357  0.4113417981863006
  0.6920799981826179  0.5354255469187936  0.4114132729866558
  0.6877408402136906  0.7854535843793398  0.4118810650883865
  0.3371209672470121  0.1600043488173578  0.4080269098310743
  0.3395818479059748  0.4115332744527520  0.4047973776670870
  0.3372262721907573  0.6600309264516766  0.4080848390670093
  0.3400392945595407  0.9114508563106196  0.4048045540232230
  0.5119680149444905  0.1609421899286950  0.4072859318610372
  0.5119688665291883  0.4104181512629396  0.4071988419676248
  0.5121323073342651  0.6602577454959934  0.4073227375403141
  0.5126579300431463  0.9104555662444973  0.4072956124594669
  0.6827154550858739  0.1593409655271044  0.4004294563319670
  0.7758115293296682  0.9105472198735193  0.5000036261433560
  0.7678715966205789  0.7825241402974874  0.5000015205484046
  0.7742304282054929  0.6509164309989660  0.5000000073067582
  0.7740955407641523  0.1700209766477378  0.5000246769513894
  0.7678105448783307  0.0385998647123402  0.5000030261657040
  0.6790157387394283  0.4103978436239501  0.3987718194880099
  0.6829190728338888  0.6616247769079626  0.4004331677439213
  0.6841994020542265  0.9104999915326278  0.4022345260768285
  0.7775556434368249  0.4549186393268367  0.5000097576220008
  0.7775208321994058  0.3656227671968458  0.5000212589211374
  0.7630055539182664  0.4102705355657029  0.5000115531535527
 
  0.00000000E+00  0.00000000E+00  0.00000000E+00
  0.00000000E+00  0.00000000E+00  0.00000000E+00
  0.00000000E+00  0.00000000E+00  0.00000000E+00
  0.00000000E+00  0.00000000E+00  0.00000000E+00
  0.00000000E+00  0.00000000E+00  0.00000000E+00
  0.00000000E+00  0.00000000E+00  0.00000000E+00
  0.00000000E+00  0.00000000E+00  0.00000000E+00
  0.00000000E+00  0.00000000E+00  0.00000000E+00
  0.00000000E+00  0.00000000E+00  0.00000000E+00
  0.00000000E+00  0.00000000E+00  0.00000000E+00
  0.00000000E+00  0.00000000E+00  0.00000000E+00
  0.00000000E+00  0.00000000E+00  0.00000000E+00
  0.00000000E+00  0.00000000E+00  0.00000000E+00
  0.00000000E+00  0.00000000E+00  0.00000000E+00
  0.00000000E+00  0.00000000E+00  0.00000000E+00
  0.00000000E+00  0.00000000E+00  0.00000000E+00
  0.00000000E+00  0.00000000E+00  0.00000000E+00
  0.00000000E+00  0.00000000E+00  0.00000000E+00
  0.00000000E+00  0.00000000E+00  0.00000000E+00
  0.00000000E+00  0.00000000E+00  0.00000000E+00
  0.00000000E+00  0.00000000E+00  0.00000000E+00
  0.00000000E+00  0.00000000E+00  0.00000000E+00
  0.00000000E+00  0.00000000E+00  0.00000000E+00
  0.00000000E+00  0.00000000E+00  0.00000000E+00
  0.00000000E+00  0.00000000E+00  0.00000000E+00
  0.00000000E+00  0.00000000E+00  0.00000000E+00
  0.00000000E+00  0.00000000E+00  0.00000000E+00
  0.00000000E+00  0.00000000E+00  0.00000000E+00
  0.00000000E+00  0.00000000E+00  0.00000000E+00
  0.00000000E+00  0.00000000E+00  0.00000000E+00
  0.00000000E+00  0.00000000E+00  0.00000000E+00
  0.00000000E+00  0.00000000E+00  0.00000000E+00
  0.00000000E+00  0.00000000E+00  0.00000000E+00
  0.00000000E+00  0.00000000E+00  0.00000000E+00
  0.00000000E+00  0.00000000E+00  0.00000000E+00
  0.00000000E+00  0.00000000E+00  0.00000000E+00
  0.00000000E+00  0.00000000E+00  0.00000000E+00
  0.00000000E+00  0.00000000E+00  0.00000000E+00
  0.00000000E+00  0.00000000E+00  0.00000000E+00
  0.00000000E+00  0.00000000E+00  0.00000000E+00
  0.00000000E+00  0.00000000E+00  0.00000000E+00
  0.00000000E+00  0.00000000E+00  0.00000000E+00
  0.00000000E+00  0.00000000E+00  0.00000000E+00
  0.00000000E+00  0.00000000E+00  0.00000000E+00
  0.00000000E+00  0.00000000E+00  0.00000000E+00
  0.00000000E+00  0.00000000E+00  0.00000000E+00
  0.00000000E+00  0.00000000E+00  0.00000000E+00
  0.00000000E+00  0.00000000E+00  0.00000000E+00
  0.00000000E+00  0.00000000E+00  0.00000000E+00
  0.00000000E+00  0.00000000E+00  0.00000000E+00
  0.00000000E+00  0.00000000E+00  0.00000000E+00
  0.00000000E+00  0.00000000E+00  0.00000000E+00
  0.00000000E+00  0.00000000E+00  0.00000000E+00
  0.00000000E+00  0.00000000E+00  0.00000000E+00
  0.00000000E+00  0.00000000E+00  0.00000000E+00
  0.00000000E+00  0.00000000E+00  0.00000000E+00
  0.00000000E+00  0.00000000E+00  0.00000000E+00
  0.00000000E+00  0.00000000E+00  0.00000000E+00
  0.00000000E+00  0.00000000E+00  0.00000000E+00
  0.00000000E+00  0.00000000E+00  0.00000000E+00
  0.00000000E+00  0.00000000E+00  0.00000000E+00
  0.00000000E+00  0.00000000E+00  0.00000000E+00
  0.00000000E+00  0.00000000E+00  0.00000000E+00
  0.00000000E+00  0.00000000E+00  0.00000000E+00
  0.00000000E+00  0.00000000E+00  0.00000000E+00
  0.00000000E+00  0.00000000E+00  0.00000000E+00
  0.00000000E+00  0.00000000E+00  0.00000000E+00
  0.00000000E+00  0.00000000E+00  0.00000000E+00
  0.00000000E+00  0.00000000E+00  0.00000000E+00
  0.00000000E+00  0.00000000E+00  0.00000000E+00
  0.00000000E+00  0.00000000E+00  0.00000000E+00
  0.00000000E+00  0.00000000E+00  0.00000000E+00
  0.00000000E+00  0.00000000E+00  0.00000000E+00
  0.00000000E+00  0.00000000E+00  0.00000000E+00
  0.00000000E+00  0.00000000E+00  0.00000000E+00
  0.00000000E+00  0.00000000E+00  0.00000000E+00
  0.00000000E+00  0.00000000E+00  0.00000000E+00
  0.00000000E+00  0.00000000E+00  0.00000000E+00
  0.00000000E+00  0.00000000E+00  0.00000000E+00
  0.00000000E+00  0.00000000E+00  0.00000000E+00
  0.00000000E+00  0.00000000E+00  0.00000000E+00
  0.00000000E+00  0.00000000E+00  0.00000000E+00
  0.00000000E+00  0.00000000E+00  0.00000000E+00
  0.00000000E+00  0.00000000E+00  0.00000000E+00
  0.00000000E+00  0.00000000E+00  0.00000000E+00
  0.00000000E+00  0.00000000E+00  0.00000000E+00
  0.00000000E+00  0.00000000E+00  0.00000000E+00
  0.00000000E+00  0.00000000E+00  0.00000000E+00
  0.00000000E+00  0.00000000E+00  0.00000000E+00
  0.00000000E+00  0.00000000E+00  0.00000000E+00
  0.00000000E+00  0.00000000E+00  0.00000000E+00
  0.00000000E+00  0.00000000E+00  0.00000000E+00
  0.00000000E+00  0.00000000E+00  0.00000000E+00
  0.00000000E+00  0.00000000E+00  0.00000000E+00
  0.00000000E+00  0.00000000E+00  0.00000000E+00
  0.00000000E+00  0.00000000E+00  0.00000000E+00
  0.00000000E+00  0.00000000E+00  0.00000000E+00
  0.00000000E+00  0.00000000E+00  0.00000000E+00
  0.00000000E+00  0.00000000E+00  0.00000000E+00
  0.00000000E+00  0.00000000E+00  0.00000000E+00
  0.00000000E+00  0.00000000E+00  0.00000000E+00
  0.00000000E+00  0.00000000E+00  0.00000000E+00
  0.00000000E+00  0.00000000E+00  0.00000000E+00
  0.00000000E+00  0.00000000E+00  0.00000000E+00
  0.00000000E+00  0.00000000E+00  0.00000000E+00
  0.00000000E+00  0.00000000E+00  0.00000000E+00
  0.00000000E+00  0.00000000E+00  0.00000000E+00
  0.00000000E+00  0.00000000E+00  0.00000000E+00
  0.00000000E+00  0.00000000E+00  0.00000000E+00
  0.00000000E+00  0.00000000E+00  0.00000000E+00
  0.00000000E+00  0.00000000E+00  0.00000000E+00
  0.00000000E+00  0.00000000E+00  0.00000000E+00
  0.00000000E+00  0.00000000E+00  0.00000000E+00
  0.00000000E+00  0.00000000E+00  0.00000000E+00
  0.00000000E+00  0.00000000E+00  0.00000000E+00
  0.00000000E+00  0.00000000E+00  0.00000000E+00
  0.00000000E+00  0.00000000E+00  0.00000000E+00
  0.00000000E+00  0.00000000E+00  0.00000000E+00
  0.00000000E+00  0.00000000E+00  0.00000000E+00
  0.00000000E+00  0.00000000E+00  0.00000000E+00
  0.00000000E+00  0.00000000E+00  0.00000000E+00
  0.00000000E+00  0.00000000E+00  0.00000000E+00
  0.00000000E+00  0.00000000E+00  0.00000000E+00
  0.00000000E+00  0.00000000E+00  0.00000000E+00
  0.00000000E+00  0.00000000E+00  0.00000000E+00
  0.00000000E+00  0.00000000E+00  0.00000000E+00
  0.00000000E+00  0.00000000E+00  0.00000000E+00
  0.00000000E+00  0.00000000E+00  0.00000000E+00
  0.00000000E+00  0.00000000E+00  0.00000000E+00
  0.00000000E+00  0.00000000E+00  0.00000000E+00
  0.00000000E+00  0.00000000E+00  0.00000000E+00
  0.00000000E+00  0.00000000E+00  0.00000000E+00
  0.00000000E+00  0.00000000E+00  0.00000000E+00
  0.00000000E+00  0.00000000E+00  0.00000000E+00
  0.00000000E+00  0.00000000E+00  0.00000000E+00
  0.00000000E+00  0.00000000E+00  0.00000000E+00
  0.00000000E+00  0.00000000E+00  0.00000000E+00
  0.00000000E+00  0.00000000E+00  0.00000000E+00
  0.00000000E+00  0.00000000E+00  0.00000000E+00
  0.00000000E+00  0.00000000E+00  0.00000000E+00
  0.00000000E+00  0.00000000E+00  0.00000000E+00
  0.00000000E+00  0.00000000E+00  0.00000000E+00
  0.00000000E+00  0.00000000E+00  0.00000000E+00
  0.00000000E+00  0.00000000E+00  0.00000000E+00
  0.00000000E+00  0.00000000E+00  0.00000000E+00
  0.00000000E+00  0.00000000E+00  0.00000000E+00
  0.00000000E+00  0.00000000E+00  0.00000000E+00
  0.00000000E+00  0.00000000E+00  0.00000000E+00
