Mo48 Se97
1.0
  33.0000000000         0.0000000000         0.0000000000
   0.0000000000        26.3120002747         0.0000000000
   0.0000000000         0.0000000000        18.0970001221
Mo Se O C
48 97 2 1
Cartesian
     9.462424950         0.728408260         9.048530464
     9.265247970         7.658001116         9.048126539
     9.462036540        13.882859936         9.048470382
     9.279102690        20.788301797         9.048426949
    15.003757560         0.941963295         9.048521596
    14.981034420         7.520610639         9.048427130
    15.013064550        14.093024144         9.048431473
    14.984859450        20.669474172         9.048383154
    20.691650430         0.938707185         9.048546389
    20.744790000         7.513480613         9.048485764
    20.739324540        14.111681457         9.048614434
    20.692626240        20.668938460         9.048508929
     9.271763490         4.109691320         9.048257742
     9.461089110        11.008931969         9.048222453
     9.273836880        17.245981664         9.048479973
     9.466591530        24.159582613         9.048530283
    14.985382500         4.227107306         9.048431111
    15.023614650        10.793647709         9.048428578
    14.991243960        17.370227719         9.048396727
    15.014193480        23.950924241         9.048519063
    20.696583270         4.220290129         9.048442694
    20.772415290        10.784823190         9.048616244
    20.702803770        17.382298875         9.048537884
    20.714398650        23.959174632         9.048519425
    12.092135550         5.870721135         9.048293393
    12.173404650        12.444210274         9.048408128
    12.097670640        19.019598613         9.048414643
    12.169384260        25.601163432         9.048592537
    17.842214940         5.872693745         9.048409395
    17.872662060        12.441100985         9.048460248
    17.839452180        19.020578736         9.048438893
    17.859744540        25.600653505         9.048536436
    23.422318260         5.615630765         9.048515263
    23.357179230        12.230419220         9.048777850
    23.561275320        18.827951213         9.048555257
    23.597708970        25.389422346         9.048560686
    12.163788450         2.564489108         9.048482869
    12.172314990         9.182769429         9.048277468
    12.171450720        15.712248064         9.048451561
    12.171183090        22.330803871         9.048467667
    17.839782840         2.587086117         9.048487755
    17.866172940         9.159347012         9.048446494
    17.858247990        15.734481704         9.048487574
    17.856670260        22.314818015         9.048482145
    23.561371680         2.785787239         9.048543494
    23.267841300         9.298468819         9.048736046
    23.441850630        16.007624737         9.048617692
    23.596640760        22.532434045         9.048487574
     8.364977280         2.442639551        10.623140310
     8.368807590         9.307688018        10.641498450
     8.369728290        15.590738194        10.634484415
     8.371731060        22.449479149        10.627896564
    14.051654760         2.583385071        10.732575404
    14.056434480         9.161353302        10.734888743
    14.056910670        15.732072841        10.733700675
    14.057729400        22.312687270        10.733695246
    19.736268750         2.568679820        10.724153965
    19.773484170         9.141177524        10.719804713
    19.758286020        15.721978768        10.720956949
    19.760341260        22.311100130        10.724361718
    14.007959790         5.870627464        10.715669910
    14.078161680        12.442081370        10.725402839
    14.014916850        19.018572972        10.714827133
    14.073565110        25.600461428        10.725962398
    19.750804920         5.888870889        10.712222974
    19.789275000        12.459855389        10.709866202
    19.738603830        19.037168978        10.722227539
    19.763061450        25.606617383        10.724824820
    11.219249910         0.910520981        10.771978907
    11.133681570         7.533969241        10.709401290
    11.221262910        14.064447733        10.771546027
    11.140661730        20.681252213        10.713237130
    16.903029330         0.934279928        10.722457914
    16.888311660         7.516083922        10.719342515
    16.913281440        14.087842521        10.722863829
    16.891397820        20.669919898        10.719964871
    22.694037300         0.931244049        10.642268839
    22.765014690         7.437030833        10.719262707
    22.791222300        14.143337424        10.688190339
    22.692535800        20.678910445        10.643513551
    11.130839940         4.212034476        10.714194824
    11.220720390        10.828086170        10.771565209
    11.137340280        17.360590159        10.712842435
    11.222845920        23.979831657        10.772604701
    16.889098710         4.230753096        10.726716500
    16.924444020        10.801710758        10.729627945
    16.895021220        17.378006862        10.726219013
    16.914577350        23.957181498        10.727555658
    22.510852320         4.165638526        10.846941568
    22.612844100        10.790807592        10.924002032
    22.517320650        17.437907183        10.849667700
    22.581133410        23.960913329        10.817935334
     8.364789180         2.442590610         7.473847506
     8.368943220         9.307636973         7.454680792
     8.369722680        15.590720302         7.462586647
     8.371689480        22.449498357         7.469063745
    14.051600640         2.583326922         7.364523166
    14.056620600         9.161270683         7.362141420
    14.056901430        15.732023637         7.363215115
    14.057781870        22.312762522         7.363276102
    19.736272710         2.568514844         7.372963607
    19.773574260         9.141204625         7.377349234
    19.758335520        15.721934827         7.376385207
    19.760371290        22.311004354         7.372776122
     7.595125560         5.881405122         9.047699450
     7.501765260        12.444696257         9.048557067
     7.600917390        19.018969757         9.048506033
     7.508287050        25.594792507         9.048260819
    14.007989160         5.870575629         7.381222535
    14.078147160        12.442121627         7.371599998
    14.014919160        19.018569288         7.382094448
    14.073555870        25.600372493         7.371162594
    19.750862010         5.888822738         7.384732629
    19.789410300        12.459881175         7.387423834
    19.738610760        19.037148455         7.374868859
    19.763082570        25.606607911         7.372395542
    11.219279610         0.910458621         7.325190784
    11.133924450         7.533886359         7.387046512
    11.221288980        14.064413001         7.325391842
    11.140790760        20.681490337         7.383630884
    16.902836280         0.934295978         7.374737113
    16.888321230         7.516047349         7.377681314
    16.913320710        14.087905144         7.374128149
    16.891488570        20.669926212         7.377081760
    22.694194710         0.931154851         7.454928540
    22.765245030         7.437121083         7.377921461
    22.791513360        14.143362158         7.409286096
    22.692457260        20.678930968         7.453462683
    11.130966660         4.211941069         7.382504526
    11.220729630        10.828102747         7.325087812
    11.137363710        17.360613840         7.384119503
    11.222924790        23.980068992         7.324597745
    16.889073630         4.230692316         7.370335380
    16.924423890        10.801794430         7.367478225
    16.895100090        17.377990548         7.370846982
    16.914605400        23.957245173         7.369635569
    22.510924590         4.165603268         7.250094568
    25.605452400        23.959791649         9.048631807
    25.341467910        20.596740699         9.048492641
    25.528235040        17.131116627         9.048630540
    25.515312240         4.495955431         9.048507300
    25.342436460         1.015511651         9.048506576
    22.613060580        10.790707080         7.173550591
    22.517344080        17.438057687         7.247525336
    22.581099090        23.960968058         7.279258426
    25.350000000        11.915000000         9.049000000
    25.350000000         9.625000000         9.049000000
    25.350000000        10.785000000         9.049000000
