H4 W48 C1 S98 O1                        
   1.00000000000000     
    33.0000000000000000    0.0000000000000000    0.0000000000000000
     0.0000000000000000   25.2255992900000017    0.0000000000000000
     0.0000000000000000    0.0000000000000000   17.4929999999999986
   W    S    O    C    H 
    48    98     1     1     4
Direct
  0.2875874313969034  0.0382879532493524  0.5002124650775843
  0.2904739213050869  0.2837968474760505  0.5001890282232379
  0.2887648912674236  0.5376713109036224  0.5001777870039065
  0.2902229084959441  0.7824536401026632  0.5001734722359931
  0.4547322601649977  0.0342568247801229  0.5000263535016151
  0.4559750777160564  0.2846927704493883  0.4999372877249710
  0.4563297470000643  0.5342575186609990  0.4999843834023907
  0.4555947483944458  0.7843329286588194  0.5000752740947005
  0.6215470184717269  0.0342907877947575  0.4998597422752253
  0.6231478885533950  0.2834636438919926  0.4997729246127833
  0.6241898804258132  0.5350905446660750  0.4999113934079680
  0.6217152539002067  0.7847749991452171  0.4999893069198665
  0.2899943427320623  0.1608213203339283  0.5001798222545757
  0.2887387770021532  0.4060341176059186  0.5002103650934807
  0.2906651176013761  0.6599432764009546  0.5001743407918796
  0.2876696104200939  0.9049636581152101  0.5001936313413060
  0.4552487435347017  0.1591820769443523  0.4999704208353934
  0.4563795251639405  0.4091771926752986  0.4999439922890458
  0.4560186928544878  0.6587797261534334  0.5000424719809093
  0.4548658978000383  0.9090977573475817  0.5000716182028532
  0.6207903472641180  0.1584517752283992  0.4997922399900624
  0.6247179176467523  0.4087625797405953  0.4997973794104454
  0.6227845558811700  0.6589689073109011  0.4999882479823894
  0.6218678872794524  0.9094666645454518  0.4999445350216095
  0.3719472778874249  0.2220785652598020  0.5000606732468714
  0.3720019819753822  0.4717595239274881  0.5000608866329228
  0.3721583878594147  0.7214509666848470  0.5001185115209148
  0.3706164476769271  0.9716757758688468  0.5001339290892669
  0.5389725119334171  0.2216786186228263  0.4998562601614419
  0.5403329384180841  0.4716735181083060  0.4998876447644585
  0.5390026768525670  0.7217391006364574  0.5000217852496659
  0.5384667165148301  0.9717639382732345  0.4999732122209474
  0.7032273226463286  0.2134763171380996  0.4996870349773713
  0.7042165979468470  0.4725222695321811  0.4998823849464580
  0.7031002158547824  0.7296568387748449  0.4999784710590000
  0.7075280160217081  0.9786211154622252  0.4998285694893080
  0.3724376877776801  0.0970292338877673  0.5000992123067516
  0.3734888925480255  0.3468573252453100  0.5000540105857817
  0.3735521265347795  0.5966729295095262  0.5000821392351503
  0.3726264161171886  0.8463486387190985  0.5001327812635039
  0.5378237279640291  0.0964564593449836  0.4999047971709338
  0.5400612339534943  0.3468243863958842  0.4998419767121315
  0.5398951078352059  0.5965947567598845  0.4999768813100929
  0.5384588233869753  0.8468885089151102  0.5000174640789357
  0.7056598466912849  0.0948930846742650  0.4997300874839251
  0.7065640822490246  0.3451061369781458  0.4997879246805477
  0.7067153205016449  0.5974885673442679  0.5000022481312051
  0.7067212032418549  0.8407915562368607  0.4999402257580563
  0.2614384123767362  0.0990422003701730  0.5889118805311473
  0.2622161948661589  0.3456404068956330  0.5890583003848157
  0.2622989108526084  0.5980623291221453  0.5889795685467468
  0.2615452459892316  0.8442641007442586  0.5888814005693931
  0.4273871603451799  0.0968138809898661  0.5907341338270131
  0.4285381401666501  0.3470638894587489  0.5907161552257854
  0.4285538714128901  0.5964023929491992  0.5908160954233820
  0.4275956722553274  0.8466024580034588  0.5908136247584912
  0.5930336544661714  0.0962758837926351  0.5900431324312299
  0.5959543268743746  0.3466685176501085  0.5896292398568526
  0.5954704240295562  0.5965491403309986  0.5903282900930207
  0.5939163561104931  0.8473458569258173  0.5901304147997737
  0.4277226175322806  0.2221007364255272  0.5899659850626200
  0.4280338250712997  0.4717034644625245  0.5897400465732441
  0.4279308463803955  0.7214742819735518  0.5900557113554952
  0.4264657192344590  0.9716610155792668  0.5898901735897066
  0.5943397771350037  0.2219662865703633  0.5902241339481268
  0.5963692773307050  0.4716343856348141  0.5894390899442709
  0.5944923676712029  0.7211820893491928  0.5899027494144967
  0.5941836397896876  0.9716156773305550  0.5901479694708155
  0.3425178966540145  0.0343986297564663  0.5896958262969020
  0.3444376790033686  0.2843336670067889  0.5908560061947972
  0.3437810081538714  0.5341786902398918  0.5897387710008968
  0.3441014857233180  0.7834761761350484  0.5909356730613911
  0.5101997087438062  0.0339015482365855  0.5902521942794934
  0.5115855076773295  0.2845428705605176  0.5899217730379742
  0.5120855359973021  0.5339485394283118  0.5899839710550479
  0.5110285627896118  0.7841960945876330  0.5903527088772735
  0.6774350944646140  0.0347152534652950  0.5921427211870784
  0.6811207994163843  0.2809015855548574  0.5889669844686468
  0.6811905808162412  0.5352968934161181  0.5915886185636743
  0.6759565810561788  0.7864220734744011  0.5945675758514369
  0.3439194588627291  0.1599825456661917  0.5908417502692732
  0.3437676420582119  0.4093753291077367  0.5897460950452198
  0.3445840719418014  0.6592281455574593  0.5909125004273996
  0.3426054716411162  0.9089299767595056  0.5896891575883415
  0.5106255701109202  0.1593905059494452  0.5901706546590687
  0.5121970179125853  0.4093516520256553  0.5899204892478332
  0.5115249382518651  0.6589549746798904  0.5901136693236617
  0.5104404226074692  0.9093986399678022  0.5901316910596286
  0.6761845116582835  0.1554358246678129  0.5920664456269534
  0.6816060881194224  0.4078894277279363  0.5907803938462727
  0.6807341428192450  0.6619767000361623  0.5890650653974693
  0.6798075001386069  0.9098743717508060  0.5862729941875473
  0.2613814893839738  0.0990096713011490  0.4115386563649873
  0.2621243200219509  0.3456418789682005  0.4114688959754612
  0.2622521967797685  0.5980707439237583  0.4114273049580604
  0.2615136665963495  0.8442734387770937  0.4115186445214437
  0.4273260809452487  0.0967798700458510  0.4093295504581365
  0.4284715918924678  0.3470679768254510  0.4092326390763171
  0.4285119705893634  0.5964377188448637  0.4092522508413100
  0.4275557366984529  0.8466049503163915  0.4093809744350680
  0.5929842468565300  0.0962303823897824  0.4096611420422726
  0.5959275078996227  0.3466914529922512  0.4099658949697550
  0.5954575045749964  0.5965967140548500  0.4096042446086872
  0.5938871393958923  0.8473174558193182  0.4098390265202327
  0.2382874933482932  0.2225934782192810  0.5002013111846612
  0.2398392470423322  0.4718412430840542  0.5002530413801660
  0.2383440864843856  0.7209365040349152  0.5001838270030190
  0.2392839075409232  0.9716080195067053  0.5002589802061596
  0.4276563244936919  0.2220826894529419  0.4100070397440854
  0.4279789018075606  0.4717273616406435  0.4102472682537955
  0.4278956139290138  0.7214951538753288  0.4101081903341144
  0.4264160610829890  0.9716348294769205  0.4102745094948355
  0.5942983344900739  0.2219558066076860  0.4093839530064811
  0.5963477976491595  0.4717011213739948  0.4102949013530980
  0.5944722057477759  0.7211901059788369  0.4101019794361525
  0.5941420541974136  0.9715649743510621  0.4097090619363206
  0.3424588999228955  0.0343798084476250  0.4106152384675509
  0.3443586579801164  0.2843310077865656  0.4093416898970792
  0.3437173862808017  0.5341908055232868  0.4104733182229652
  0.3440676603441051  0.7834796127948330  0.4093467530564337
  0.5101486194398892  0.0338590331692226  0.4096839872730935
  0.5115348076604470  0.2845334672179621  0.4098327528013400
  0.5120565764744224  0.5340011981637137  0.4099070365129613
  0.5109966912598018  0.7841951742434621  0.4097250370527865
  0.6773863606583923  0.0346490613696753  0.4074600297550974
  0.6811124661799196  0.2809491807577792  0.4105093129719822
  0.6811688473423363  0.5353386648969706  0.4082397092365787
  0.6759358561316677  0.7863915434953459  0.4053764448863204
  0.3438530510653812  0.1599548760358077  0.4093821846918957
  0.3436805983543511  0.4093750723090006  0.4104662725918559
  0.3445356868649094  0.6592539039882156  0.4093405545257812
  0.3425694042126910  0.9089287756721307  0.4106213690285241
  0.5105697709037639  0.1593610535121381  0.4096448213232884
  0.5121506242261671  0.4093766199411992  0.4098508104769198
  0.5114982743633060  0.6589856176721901  0.4099168815255275
  0.5103972105741088  0.9093700607998518  0.4099133801537308
  0.6761317376037225  0.1553989034429545  0.4073937584341278
  0.6816570315188529  0.4079807587129678  0.4088190136072127
  0.6807422327427638  0.6619626058966478  0.4109130347901707
  0.6797807627500837  0.9098147636135810  0.4135468975537708
  0.7582873739438482  0.9088748903925069  0.4999161237106355
  0.7623967735463156  0.7771315815149580  0.4999384829380638
  0.7707668611092102  0.6143281590312035  0.5001348680406978
  0.7733848966620510  0.3443422525086168  0.5000433700688173
  0.7617061694244193  0.1678212756450236  0.4996502558304602
  0.7629520961760841  0.0380719875729306  0.4996793822217058
  0.7656462689842574  0.4594037248696820  0.5023549159842304
  0.8036757697903102  0.4888979260308385  0.5070364552764399
  0.8283279907579049  0.4597532873859803  0.5051836697795971
  0.8041410035713745  0.5110920685535201  0.5608022160138746
  0.7714099731767200  0.4180686060544452  0.5018502845922432
  0.8053773148389012  0.5160570219891383  0.4583765316147129
 
  0.00000000E+00  0.00000000E+00  0.00000000E+00
  0.00000000E+00  0.00000000E+00  0.00000000E+00
  0.00000000E+00  0.00000000E+00  0.00000000E+00
  0.00000000E+00  0.00000000E+00  0.00000000E+00
  0.00000000E+00  0.00000000E+00  0.00000000E+00
  0.00000000E+00  0.00000000E+00  0.00000000E+00
  0.00000000E+00  0.00000000E+00  0.00000000E+00
  0.00000000E+00  0.00000000E+00  0.00000000E+00
  0.00000000E+00  0.00000000E+00  0.00000000E+00
  0.00000000E+00  0.00000000E+00  0.00000000E+00
  0.00000000E+00  0.00000000E+00  0.00000000E+00
  0.00000000E+00  0.00000000E+00  0.00000000E+00
  0.00000000E+00  0.00000000E+00  0.00000000E+00
  0.00000000E+00  0.00000000E+00  0.00000000E+00
  0.00000000E+00  0.00000000E+00  0.00000000E+00
  0.00000000E+00  0.00000000E+00  0.00000000E+00
  0.00000000E+00  0.00000000E+00  0.00000000E+00
  0.00000000E+00  0.00000000E+00  0.00000000E+00
  0.00000000E+00  0.00000000E+00  0.00000000E+00
  0.00000000E+00  0.00000000E+00  0.00000000E+00
  0.00000000E+00  0.00000000E+00  0.00000000E+00
  0.00000000E+00  0.00000000E+00  0.00000000E+00
  0.00000000E+00  0.00000000E+00  0.00000000E+00
  0.00000000E+00  0.00000000E+00  0.00000000E+00
  0.00000000E+00  0.00000000E+00  0.00000000E+00
  0.00000000E+00  0.00000000E+00  0.00000000E+00
  0.00000000E+00  0.00000000E+00  0.00000000E+00
  0.00000000E+00  0.00000000E+00  0.00000000E+00
  0.00000000E+00  0.00000000E+00  0.00000000E+00
  0.00000000E+00  0.00000000E+00  0.00000000E+00
  0.00000000E+00  0.00000000E+00  0.00000000E+00
  0.00000000E+00  0.00000000E+00  0.00000000E+00
  0.00000000E+00  0.00000000E+00  0.00000000E+00
  0.00000000E+00  0.00000000E+00  0.00000000E+00
  0.00000000E+00  0.00000000E+00  0.00000000E+00
  0.00000000E+00  0.00000000E+00  0.00000000E+00
  0.00000000E+00  0.00000000E+00  0.00000000E+00
  0.00000000E+00  0.00000000E+00  0.00000000E+00
  0.00000000E+00  0.00000000E+00  0.00000000E+00
  0.00000000E+00  0.00000000E+00  0.00000000E+00
  0.00000000E+00  0.00000000E+00  0.00000000E+00
  0.00000000E+00  0.00000000E+00  0.00000000E+00
  0.00000000E+00  0.00000000E+00  0.00000000E+00
  0.00000000E+00  0.00000000E+00  0.00000000E+00
  0.00000000E+00  0.00000000E+00  0.00000000E+00
  0.00000000E+00  0.00000000E+00  0.00000000E+00
  0.00000000E+00  0.00000000E+00  0.00000000E+00
  0.00000000E+00  0.00000000E+00  0.00000000E+00
  0.00000000E+00  0.00000000E+00  0.00000000E+00
  0.00000000E+00  0.00000000E+00  0.00000000E+00
  0.00000000E+00  0.00000000E+00  0.00000000E+00
  0.00000000E+00  0.00000000E+00  0.00000000E+00
  0.00000000E+00  0.00000000E+00  0.00000000E+00
  0.00000000E+00  0.00000000E+00  0.00000000E+00
  0.00000000E+00  0.00000000E+00  0.00000000E+00
  0.00000000E+00  0.00000000E+00  0.00000000E+00
  0.00000000E+00  0.00000000E+00  0.00000000E+00
  0.00000000E+00  0.00000000E+00  0.00000000E+00
  0.00000000E+00  0.00000000E+00  0.00000000E+00
  0.00000000E+00  0.00000000E+00  0.00000000E+00
  0.00000000E+00  0.00000000E+00  0.00000000E+00
  0.00000000E+00  0.00000000E+00  0.00000000E+00
  0.00000000E+00  0.00000000E+00  0.00000000E+00
  0.00000000E+00  0.00000000E+00  0.00000000E+00
  0.00000000E+00  0.00000000E+00  0.00000000E+00
  0.00000000E+00  0.00000000E+00  0.00000000E+00
  0.00000000E+00  0.00000000E+00  0.00000000E+00
  0.00000000E+00  0.00000000E+00  0.00000000E+00
  0.00000000E+00  0.00000000E+00  0.00000000E+00
  0.00000000E+00  0.00000000E+00  0.00000000E+00
  0.00000000E+00  0.00000000E+00  0.00000000E+00
  0.00000000E+00  0.00000000E+00  0.00000000E+00
  0.00000000E+00  0.00000000E+00  0.00000000E+00
  0.00000000E+00  0.00000000E+00  0.00000000E+00
  0.00000000E+00  0.00000000E+00  0.00000000E+00
  0.00000000E+00  0.00000000E+00  0.00000000E+00
  0.00000000E+00  0.00000000E+00  0.00000000E+00
  0.00000000E+00  0.00000000E+00  0.00000000E+00
  0.00000000E+00  0.00000000E+00  0.00000000E+00
  0.00000000E+00  0.00000000E+00  0.00000000E+00
  0.00000000E+00  0.00000000E+00  0.00000000E+00
  0.00000000E+00  0.00000000E+00  0.00000000E+00
  0.00000000E+00  0.00000000E+00  0.00000000E+00
  0.00000000E+00  0.00000000E+00  0.00000000E+00
  0.00000000E+00  0.00000000E+00  0.00000000E+00
  0.00000000E+00  0.00000000E+00  0.00000000E+00
  0.00000000E+00  0.00000000E+00  0.00000000E+00
  0.00000000E+00  0.00000000E+00  0.00000000E+00
  0.00000000E+00  0.00000000E+00  0.00000000E+00
  0.00000000E+00  0.00000000E+00  0.00000000E+00
  0.00000000E+00  0.00000000E+00  0.00000000E+00
  0.00000000E+00  0.00000000E+00  0.00000000E+00
  0.00000000E+00  0.00000000E+00  0.00000000E+00
  0.00000000E+00  0.00000000E+00  0.00000000E+00
  0.00000000E+00  0.00000000E+00  0.00000000E+00
  0.00000000E+00  0.00000000E+00  0.00000000E+00
  0.00000000E+00  0.00000000E+00  0.00000000E+00
  0.00000000E+00  0.00000000E+00  0.00000000E+00
  0.00000000E+00  0.00000000E+00  0.00000000E+00
  0.00000000E+00  0.00000000E+00  0.00000000E+00
  0.00000000E+00  0.00000000E+00  0.00000000E+00
  0.00000000E+00  0.00000000E+00  0.00000000E+00
  0.00000000E+00  0.00000000E+00  0.00000000E+00
  0.00000000E+00  0.00000000E+00  0.00000000E+00
  0.00000000E+00  0.00000000E+00  0.00000000E+00
  0.00000000E+00  0.00000000E+00  0.00000000E+00
  0.00000000E+00  0.00000000E+00  0.00000000E+00
  0.00000000E+00  0.00000000E+00  0.00000000E+00
  0.00000000E+00  0.00000000E+00  0.00000000E+00
  0.00000000E+00  0.00000000E+00  0.00000000E+00
  0.00000000E+00  0.00000000E+00  0.00000000E+00
  0.00000000E+00  0.00000000E+00  0.00000000E+00
  0.00000000E+00  0.00000000E+00  0.00000000E+00
  0.00000000E+00  0.00000000E+00  0.00000000E+00
  0.00000000E+00  0.00000000E+00  0.00000000E+00
  0.00000000E+00  0.00000000E+00  0.00000000E+00
  0.00000000E+00  0.00000000E+00  0.00000000E+00
  0.00000000E+00  0.00000000E+00  0.00000000E+00
  0.00000000E+00  0.00000000E+00  0.00000000E+00
  0.00000000E+00  0.00000000E+00  0.00000000E+00
  0.00000000E+00  0.00000000E+00  0.00000000E+00
  0.00000000E+00  0.00000000E+00  0.00000000E+00
  0.00000000E+00  0.00000000E+00  0.00000000E+00
  0.00000000E+00  0.00000000E+00  0.00000000E+00
  0.00000000E+00  0.00000000E+00  0.00000000E+00
  0.00000000E+00  0.00000000E+00  0.00000000E+00
  0.00000000E+00  0.00000000E+00  0.00000000E+00
  0.00000000E+00  0.00000000E+00  0.00000000E+00
  0.00000000E+00  0.00000000E+00  0.00000000E+00
  0.00000000E+00  0.00000000E+00  0.00000000E+00
  0.00000000E+00  0.00000000E+00  0.00000000E+00
  0.00000000E+00  0.00000000E+00  0.00000000E+00
  0.00000000E+00  0.00000000E+00  0.00000000E+00
  0.00000000E+00  0.00000000E+00  0.00000000E+00
  0.00000000E+00  0.00000000E+00  0.00000000E+00
  0.00000000E+00  0.00000000E+00  0.00000000E+00
  0.00000000E+00  0.00000000E+00  0.00000000E+00
  0.00000000E+00  0.00000000E+00  0.00000000E+00
  0.00000000E+00  0.00000000E+00  0.00000000E+00
  0.00000000E+00  0.00000000E+00  0.00000000E+00
  0.00000000E+00  0.00000000E+00  0.00000000E+00
  0.00000000E+00  0.00000000E+00  0.00000000E+00
  0.00000000E+00  0.00000000E+00  0.00000000E+00
  0.00000000E+00  0.00000000E+00  0.00000000E+00
  0.00000000E+00  0.00000000E+00  0.00000000E+00
  0.00000000E+00  0.00000000E+00  0.00000000E+00
  0.00000000E+00  0.00000000E+00  0.00000000E+00
  0.00000000E+00  0.00000000E+00  0.00000000E+00
  0.00000000E+00  0.00000000E+00  0.00000000E+00
  0.00000000E+00  0.00000000E+00  0.00000000E+00
  0.00000000E+00  0.00000000E+00  0.00000000E+00
  0.00000000E+00  0.00000000E+00  0.00000000E+00
