H4 W48 C1 S98 O1
1.0
  33.0000000000000000    0.0000000000000000    0.0000000000000000
   0.0000000000000000   25.2255992900000017    0.0000000000000000
   0.0000000000000000    0.0000000000000000   17.4929999999999986
W S O C H
48 98 1 1 4
direct
   0.2881245200000000    0.0395756100000000    0.5000585800000000 W
   0.2907878700000000    0.2846905700000000    0.5000413300000000 W
   0.2890264400000000    0.5389351000000000    0.4999901700000000 W
   0.2906657700000000    0.7839896300000000    0.5000037300000000 W
   0.4553453300000000    0.0355163600000000    0.4999986900000000 W
   0.4561445800000000    0.2858204200000000    0.4999965000000000 W
   0.4565765400000000    0.5355380700000000    0.4999832700000000 W
   0.4562147900000000    0.7855531000000000    0.4999811000000000 W
   0.6221746600000000    0.0358118600000000    0.4999923500000000 W
   0.6233079800000000    0.2855112300000000    0.4999964200000000 W
   0.6239908900000000    0.5359033400000000    0.4999914500000000 W
   0.6224447600000000    0.7860726800000000    0.4999879800000000 W
   0.2905086600000000    0.1621307500000000    0.5000469600000000 W
   0.2888891900000000    0.4070241300000000    0.5000186200000000 W
   0.2909720500000000    0.6611558400000001    0.4999850900000000 W
   0.2882889200000000    0.9064169000000000    0.5000520300000000 W
   0.4557358400000000    0.1603751000000000    0.5000013500000000 W
   0.4564143200000000    0.4103590800000000    0.4999898600000000 W
   0.4564395200000000    0.6600948000000000    0.4999770300000000 W
   0.4555047900000000    0.9103513600000001    0.4999893500000000 W
   0.6214788800000000    0.1598485600000000    0.4999948800000000 W
   0.6239964900000000    0.4091944700000000    0.4999945900000000 W
   0.6239611300000000    0.6599385400000000    0.4999865300000000 W
   0.6224799700000000    0.9108750400000000    0.4999893900000000 W
   0.3723251000000000    0.2232010800000000    0.5000166800000000 W
   0.3721798600000000    0.4729868200000000    0.4999893300000000 W
   0.3725936400000000    0.7227697900000000    0.4999838100000000 W
   0.3712498300000000    0.9729411600000000    0.5000154100000000 W
   0.5393092800000000    0.2229342400000000    0.4999968000000000 W
   0.5403167000000000    0.4728291400000000    0.4999868100000000 W
   0.5397687500000000    0.7229002200000000    0.4999794300000000 W
   0.5391496000000000    0.9731106300000000    0.4999873800000000 W
   0.7032897500000000    0.2152572900000000    0.4999990900000000 W
   0.6989894300000000    0.4740520000000000    0.4999970800000000 W
   0.7037590100000000    0.7318274200000000    0.4999937400000000 W
   0.7081423800000000    0.9802221500000000    0.4999975900000000 W
   0.3729878600000000    0.0982372900000000    0.5000177700000000 W
   0.3736564100000000    0.3480032100000000    0.5000045500000000 W
   0.3738722500000000    0.5979494800000000    0.4999827700000000 W
   0.3732284400000000    0.8476230900000000    0.4999963700000000 W
   0.5383778600000000    0.0978548600000000    0.4999944300000000 W
   0.5399643900000000    0.3478742400000000    0.4999932200000000 W
   0.5401989100000000    0.5978814500000000    0.4999805800000000 W
   0.5390921600000000    0.8481393100000000    0.4999837400000000 W
   0.7064575600000000    0.0977164500000000    0.5000015300000000 W
   0.7070270300000000    0.3478535400000000    0.4999962500000000 W
   0.7071088100000000    0.5939521300000000    0.4999975800000000 W
   0.7071442400000000    0.8423719400000000    0.4999937300000000 W
   0.2619319000000000    0.1002394900000000    0.5887071500000000 S
   0.2624057400000000    0.3466133300000000    0.5887641500000000 S
   0.2625932200000000    0.5993819800000000    0.5888107700000000 S
   0.2621091600000000    0.8457447700000000    0.5887693000000001 S
   0.4279174600000000    0.0979843000000000    0.5907276800000000 S
   0.4286323100000000    0.3482038600000000    0.5907673000000000 S
   0.4288569100000000    0.5977530000000000    0.5907372300000000 S
   0.4282112700000000    0.8478216000000000    0.5906854900000000 S
   0.5935877200000000    0.0976993300000000    0.5901529200000000 S
   0.5955773599999999    0.3476634000000000    0.5903133100000000 S
   0.5959125600000000    0.5980312400000000    0.5901593600000000 S
   0.5945219300000000    0.8486080800000000    0.5900845500000000 S
   0.4280426800000000    0.2231855900000000    0.5900237000000000 S
   0.4281593300000000    0.4729961900000000    0.5897244400000000 S
   0.4283833900000000    0.7227882500000000    0.5899338600000000 S
   0.4270923200000000    0.9728928900000000    0.5897992399999999 S
   0.5948226900000000    0.2234697000000000    0.5901506500000000 S
   0.5960539100000000    0.4726431800000000    0.5900436500000000 S
   0.5954680800000000    0.7220993400000000    0.5897062000000000 S
   0.5948515100000000    0.9730277600000000    0.5902183800000000 S
   0.3430720200000000    0.0356146700000000    0.5895723400000000 S
   0.3446832900000000    0.2854202700000000    0.5907962400000000 S
   0.3440080900000000    0.5354657900000001    0.5896003000000000 S
   0.3445803300000000    0.7848177300000000    0.5907575500000000 S
   0.5108097100000000    0.0351936700000000    0.5902624500000000 S
   0.5116429400000000    0.2855664500000000    0.5901095200000001 S
   0.5122967300000000    0.5353230300000000    0.5900546400000000 S
   0.5117018500000000    0.7853429900000000    0.5902460800000000 S
   0.6782005700000000    0.0366053000000000    0.5921767300000000 S
   0.6816818100000001    0.2826206500000000    0.5891709400000000 S
   0.6801813200000000    0.5369477700000000    0.5951035000000000 S
   0.6764705100000000    0.7879577000000000    0.5949693100000000 S
   0.3443723000000000    0.1611071300000000    0.5907912700000000 S
   0.3438756300000000    0.4105647900000000    0.5896247500000000 S
   0.3449180300000000    0.6605495200000000    0.5907299700000000 S
   0.3432419500000000    0.9102119100000000    0.5895613000000000 S
   0.5110884000000000    0.1606491600000000    0.5903191300000000 S
   0.5121136800000000    0.4105095000000000    0.5900405900000000 S
   0.5119829500000000    0.6603155100000000    0.5900441300000000 S
   0.5110791900000000    0.9106732000000000    0.5900520600000000 S
   0.6766778600000000    0.1573194100000000    0.5928382400000000 S
   0.6808015300000000    0.4083918500000000    0.5927096200000000 S
   0.6830724400000000    0.6624933100000000    0.5878001000000000 S
   0.6803127700000000    0.9114555300000000    0.5864598800000000 S
   0.2619141000000000    0.1002357600000000    0.4114121800000000 S
   0.2623881700000000    0.3466001400000000    0.4113154500000000 S
   0.2625921400000000    0.5993798800000000    0.4111635600000000 S
   0.2620878500000000    0.8457743300000000    0.4113124000000000 S
   0.4279061800000000    0.0979856700000000    0.4092810100000000 S
   0.4286256300000000    0.3482006200000000    0.4092222200000000 S
   0.4288552500000000    0.5977489100000000    0.4092203600000000 S
   0.4282050500000000    0.8478280100000000    0.4092882300000000 S
   0.5935876700000000    0.0977007400000000    0.4098354900000000 S
   0.5955778500000000    0.3476605700000000    0.4096745900000000 S
   0.5959161200000000    0.5980266900000000    0.4098095000000000 S
   0.5945243500000000    0.8486104400000000    0.4098874300000000 S
   0.2385672900000000    0.2235822800000000    0.5001081000000001 S
   0.2401492100000000    0.4730732000000000    0.4999966500000000 S
   0.2388373200000000    0.7223732800000000    0.4999850900000000 S
   0.2398038600000000    0.9728890400000000    0.5001935199999999 S
   0.4280330100000000    0.2231837300000000    0.4099827400000000 S
   0.4281576700000000    0.4729894900000000    0.4102468500000000 S
   0.4283800000000000    0.7227926000000000    0.4100231000000000 S
   0.4270815400000000    0.9728993900000000    0.4101989500000000 S
   0.5948222200000000    0.2234699600000000    0.4098398500000000 S
   0.5960579499999999    0.4726418400000000    0.4099377500000000 S
   0.5954724300000001    0.7221001400000000    0.4102573300000000 S
   0.5948535200000000    0.9730293700000000    0.4097610900000000 S
   0.3430522700000000    0.0356172200000000    0.4104889500000000 S
   0.3446651400000000    0.2854109700000000    0.4092399500000000 S
   0.3440045500000000    0.5354632499999999    0.4103659100000000 S
   0.3445699200000000    0.7848271700000000    0.4092277500000000 S
   0.5108057900000000    0.0351982800000000    0.4097241800000000 S
   0.5116425200000000    0.2855636900000000    0.4098784000000000 S
   0.5122969600000000    0.5353180300000000    0.4099098400000000 S
   0.5117036200000000    0.7853451700000000    0.4097140200000000 S
   0.6782050100000000    0.0366070100000000    0.4078169000000000 S
   0.6816835700000000    0.2826190900000000    0.4108211700000000 S
   0.6801874200000000    0.5369456600000000    0.4048833600000000 S
   0.6764734200000000    0.7879581900000000    0.4050120200000000 S
   0.3443555300000000    0.1611080900000000    0.4092608100000000 S
   0.3438642000000000    0.4105545500000000    0.4103804800000000 S
   0.3449150600000000    0.6605506600000000    0.4092330000000000 S
   0.3432187800000000    0.9102262000000000    0.4104787000000000 S
   0.5110858800000000    0.1606505000000000    0.4096752800000000 S
   0.5121142000000000    0.4105045200000000    0.4099385900000000 S
   0.5119841800000000    0.6603147100000000    0.4099098600000000 S
   0.5110776900000000    0.9106752600000000    0.4099183200000000 S
   0.6766812400000000    0.1573180200000000    0.4071570200000000 S
   0.6808028699999999    0.4083912100000000    0.4072804600000000 S
   0.6830793700000000    0.6624917299999999    0.4121825700000000 S
   0.6803154400000000    0.9114585900000000    0.4135250700000000 S
   0.7586702200000000    0.9106047000000000    0.4999895200000000 S
   0.7630292000000000    0.7787571200000000    0.5000064100000000 S
   0.7721236000000000    0.5931462199999999    0.5000092500000000 S
   0.7719390200000000    0.3512624200000000    0.4999949000000000 S
   0.7618333300000000    0.1686923500000000    0.5000124900000000 S
   0.7633491100000001    0.0396390200000000    0.5000063300000001 S
   0.7556175706060607    0.4398994389410631    0.4990453272989195 O
   0.7968206327272728    0.4586566666509146    0.5075377099662721 C
   0.8172396627272729    0.4246386122080940    0.5002143080340707 H
   0.8007611954545456    0.4759590631165964    0.5646701846704395 H
   0.7524459609090910    0.3973880508994274    0.5005003275847482 H
   0.8027879030303031    0.4885208558556739    0.4633638575681701 H
