W48 S99                                 
   1.00000000000000     
    33.0000000000000000    0.0000000000000000    0.0000000000000000
     0.0000000000000000   25.2255992888999998    0.0000000000000000
     0.0000000000000000    0.0000000000000000   17.4930000304999993
   W    S    O    C 
    48    99     2     1
Direct
  0.2874198057732486  0.0386450987629491  0.5000049946479873
  0.2891824340070436  0.2843225453367429  0.5000125651736913
  0.2871457909175972  0.5383471577273694  0.5000152793494312
  0.2889132070407845  0.7847574466088655  0.5000074351679966
  0.4546089547803466  0.0352049610221579  0.5000129940479008
  0.4547126508948246  0.2852707118370215  0.5000077931373559
  0.4542058788999699  0.5352711534681236  0.5000094254504568
  0.4544380027227750  0.7854479224265430  0.5000138013167186
  0.6214755673371143  0.0352232574106008  0.5000050929587900
  0.6213367064372062  0.2851810946965622  0.4999738974127324
  0.6221296537534352  0.5355123160444175  0.4999507919353556
  0.6210391986308020  0.7847113102049388  0.4999753755101314
  0.2892336407537052  0.1608576900305730  0.5000085441140998
  0.2872814872618936  0.4065433927532107  0.5000158991671745
  0.2888152722179617  0.6606280756505883  0.5000126769272641
  0.2873228657309155  0.9069841545686055  0.5000051361623891
  0.4548020259046190  0.1599536178747871  0.5000103638411746
  0.4545145166989664  0.4100380887568090  0.5000067504971549
  0.4543594951916851  0.6598182851529597  0.5000129619441630
  0.4545063127999018  0.9100347134785070  0.5000154401311282
  0.6214850193811331  0.1598403585153659  0.4999933510182241
  0.6208957944162342  0.4102841147674507  0.4999554387613679
  0.6202442748424920  0.6601230931661334  0.4999560469518947
  0.6214426130266411  0.9099238193988826  0.4999950435938340
  0.3709993030081506  0.2226144082081383  0.5000122085156511
  0.3701553677667962  0.4725563674083615  0.5000154353700693
  0.3706566418442164  0.7226597287382928  0.5000151178462736
  0.3703422818937457  0.9726957749625198  0.5000146143247346
  0.5383921938617021  0.2224972153607241  0.4999990828155745
  0.5379413143676347  0.4728192204993188  0.4999894923870632
  0.5372825383090867  0.7226617345908197  0.4999987832815385
  0.5383510434888983  0.9726193706821389  0.5000101830870404
  0.7068973372902286  0.2160479031631257  0.4999637039031741
  0.7026675719878028  0.4656428676186710  0.4998845514242419
  0.7049636664922929  0.7236778529883010  0.4999075224138044
  0.7067392082725961  0.9793508463494248  0.5000016051376258
  0.3720881657258885  0.0977860526900757  0.5000125002391967
  0.3719907316507342  0.3474835860955964  0.5000140379304434
  0.3716914170510744  0.5977107100375483  0.5000192107853887
  0.3718647456096328  0.8476213760635328  0.5000132750397638
  0.5379045755848105  0.0975269352519613  0.5000070710849212
  0.5378848613839710  0.3476511837319206  0.4999930717775043
  0.5379560468404710  0.5975436678867759  0.4999916259897687
  0.5380914591083011  0.8475516367519237  0.5000060523482173
  0.7060979091475844  0.0973554338291107  0.5000032690792869
  0.7057191047395761  0.3542243919664109  0.4998995043559301
  0.7032447399106068  0.6049554587995863  0.4998889939015303
  0.7065486257537472  0.8404003460907421  0.4999547295892676
  0.2609300896477907  0.0992127969198479  0.5888037401237391
  0.2608383615732207  0.3459470096025618  0.5888280847064689
  0.2606253359250796  0.5989853610324719  0.5888258406940793
  0.2607711292506693  0.8463930375928164  0.5888374254310427
  0.4270774413850646  0.0976023365210785  0.5907162603143409
  0.4269928925946218  0.3476575973594913  0.5907082914418746
  0.4266220609535417  0.5975427948236048  0.5907901161674565
  0.4268172591303751  0.8478014395802056  0.5907675223899245
  0.5933807385501718  0.0975494022928147  0.5899973206475178
  0.5933379901957937  0.3474422134625537  0.5900716495429673
  0.5935300291042974  0.5969502155859241  0.5904256591480809
  0.5937607761373371  0.8476095317557809  0.5901850877490764
  0.4267858717074756  0.2226141719648612  0.5899943800539325
  0.4260669464232092  0.4725698388463626  0.5897872843051527
  0.4264467990485576  0.7226496021343929  0.5899308467878674
  0.4262623436188192  0.9726561650619486  0.5898013930154955
  0.5940759379469255  0.2226528230935151  0.5902009371089560
  0.5936126883865761  0.4736276702875613  0.5899175420590095
  0.5925683575388151  0.7225719295966575  0.5900484582847750
  0.5940560350089176  0.9724221940307323  0.5902093732910897
  0.3422815770030684  0.0352536044723525  0.5897099650578699
  0.3431562676031890  0.2847810288738543  0.5906982467414108
  0.3419854392893457  0.5350734604931574  0.5897205535840957
  0.3429202145639504  0.7849200349106257  0.5906418514938305
  0.5101836353016085  0.0348980064325841  0.5901981937482625
  0.5102423076353126  0.2849480089640479  0.5900997579971782
  0.5098174448721774  0.5351241949986033  0.5900381101695822
  0.5098514775873439  0.7853318892638823  0.5903040849828903
  0.6774495303178591  0.0361441801785512  0.5925273301231665
  0.6790555609383603  0.2850044485280032  0.5865068951214053
  0.6814743978549296  0.5355036234069487  0.5873707183919263
  0.6768097943652603  0.7840397277459252  0.5924953831730234
  0.3432018313547772  0.1604560612665049  0.5907106707356953
  0.3421306522072870  0.4099900916159183  0.5897232801670722
  0.3428085835511019  0.6604514462168141  0.5906620876321231
  0.3421669346610164  0.9102195676355197  0.5897230557819914
  0.5103060103155851  0.1601873376337105  0.5902326838940771
  0.5100971438179955  0.4102869129381427  0.5902067254508446
  0.5098075333577323  0.6599188313707797  0.5902425551949440
  0.5101978938484512  0.9102029874569999  0.5900179318109821
  0.6775484907929074  0.1589637407043800  0.5922988200708245
  0.6752370251371705  0.4091499644462500  0.5945821779760017
  0.6757879703011077  0.6626145567386812  0.5922951667741105
  0.6792021366141244  0.9097999614902508  0.5864558095507361
  0.2609377118281445  0.0992122636160582  0.4112017227779794
  0.2608388900276959  0.3459476594501334  0.4111995519815715
  0.2606276846741626  0.5989848083925000  0.4112003824948435
  0.2607758176757302  0.8463930833466572  0.4111688233256842
  0.4270766706484418  0.0976003531321479  0.4093067854321062
  0.4269879504174797  0.3476569047208085  0.4093107089970509
  0.4266169031411955  0.5975445471464461  0.4092395402812281
  0.4268169933581503  0.8478022778604515  0.4092617755455674
  0.5933762705120091  0.0975422401927149  0.4100076121321390
  0.5933195170647879  0.3474311687360881  0.4098815120662178
  0.5935062150028476  0.5969532553857207  0.4095103293642242
  0.5937467734166382  0.8476227637686093  0.4098018653977883
  0.2374578486883268  0.2225538426824567  0.5000004396310950
  0.2383527020062138  0.4724005354705138  0.5000022119529064
  0.2373257316116960  0.7227461631575257  0.4999946069715617
  0.2384711445379458  0.9728365112692092  0.4999912788959734
  0.4267836742006322  0.2226126766513432  0.4100261601606767
  0.4260621956780193  0.4725711195206403  0.4102347071873569
  0.4264450503873702  0.7226498422250495  0.4100979843020180
  0.4262620556958227  0.9726543478248386  0.4102294817662809
  0.5940669862339415  0.2226407136482944  0.4097775930905131
  0.5935883691060576  0.4736258308073169  0.4100147686213338
  0.5925482742971363  0.7225843121502371  0.4099084253796643
  0.5940510199423731  0.9724275841806989  0.4097983915016472
  0.3422864074153589  0.0352522089535768  0.4103132553959853
  0.3431571601332665  0.2847813641159911  0.4093291459653017
  0.3419853533247737  0.5350765489023473  0.4103155969887702
  0.3429235600497736  0.7849180597431576  0.4093815331456623
  0.5101806135207081  0.0348957594156602  0.4098225564520650
  0.5102343501729955  0.2849438930270419  0.4098996747155666
  0.5098047217797430  0.5351267369841878  0.4099572615216662
  0.5098432402354339  0.7853381919471512  0.4097106578030346
  0.6774531556404103  0.0361454717168162  0.4074839276986003
  0.6790344861217619  0.2849765993112593  0.4133887522128687
  0.6814306202581963  0.5355050049405760  0.4124346280754754
  0.6767863387094369  0.7840686985018378  0.4074009283105681
  0.3432039467193670  0.1604560656865505  0.4093114815100238
  0.3421290508593632  0.4099909555851896  0.4103065326494805
  0.3428111717502874  0.6604493202338397  0.4093711489036041
  0.3421707753510373  0.9102202352113347  0.4102988215013341
  0.5103008888672458  0.1601819000472726  0.4097787745579187
  0.5100864070980157  0.4102847502266787  0.4097867679190094
  0.5097962105179058  0.6599234039786225  0.4097613766664616
  0.5101933146748866  0.9102067354775742  0.4100032771650229
  0.6775412213662134  0.1589413092925006  0.4076755222801953
  0.6751901805262767  0.4091393433822069  0.4052450144700603
  0.6757473342716883  0.6626290297873626  0.4075388811285734
  0.6791926923341500  0.9098212658560829  0.4135122389915865
  0.7572053932603496  0.9089021114050615  0.4999650225112894
  0.7619703193737009  0.7807079381937131  0.4998918426853912
  0.7612208630682995  0.6516567461687216  0.4998106451550262
  0.7615589504351734  0.4184236992475886  0.4997698106916152
  0.7572438451648607  0.2867944993764386  0.4999176811165260
  0.7622090122937304  0.1590849180332105  0.4999680172551037
  0.7622423575376446  0.0358712834476397  0.5000608970255260
  0.8767538510204734  0.5763596852717449  0.4960631421837067
  0.8137631802242810  0.5330936475344547  0.5048863109803593
  0.8452845151133397  0.5547515103544750  0.5004836935716678
 
  0.00000000E+00  0.00000000E+00  0.00000000E+00
  0.00000000E+00  0.00000000E+00  0.00000000E+00
  0.00000000E+00  0.00000000E+00  0.00000000E+00
  0.00000000E+00  0.00000000E+00  0.00000000E+00
  0.00000000E+00  0.00000000E+00  0.00000000E+00
  0.00000000E+00  0.00000000E+00  0.00000000E+00
  0.00000000E+00  0.00000000E+00  0.00000000E+00
  0.00000000E+00  0.00000000E+00  0.00000000E+00
  0.00000000E+00  0.00000000E+00  0.00000000E+00
  0.00000000E+00  0.00000000E+00  0.00000000E+00
  0.00000000E+00  0.00000000E+00  0.00000000E+00
  0.00000000E+00  0.00000000E+00  0.00000000E+00
  0.00000000E+00  0.00000000E+00  0.00000000E+00
  0.00000000E+00  0.00000000E+00  0.00000000E+00
  0.00000000E+00  0.00000000E+00  0.00000000E+00
  0.00000000E+00  0.00000000E+00  0.00000000E+00
  0.00000000E+00  0.00000000E+00  0.00000000E+00
  0.00000000E+00  0.00000000E+00  0.00000000E+00
  0.00000000E+00  0.00000000E+00  0.00000000E+00
  0.00000000E+00  0.00000000E+00  0.00000000E+00
  0.00000000E+00  0.00000000E+00  0.00000000E+00
  0.00000000E+00  0.00000000E+00  0.00000000E+00
  0.00000000E+00  0.00000000E+00  0.00000000E+00
  0.00000000E+00  0.00000000E+00  0.00000000E+00
  0.00000000E+00  0.00000000E+00  0.00000000E+00
  0.00000000E+00  0.00000000E+00  0.00000000E+00
  0.00000000E+00  0.00000000E+00  0.00000000E+00
  0.00000000E+00  0.00000000E+00  0.00000000E+00
  0.00000000E+00  0.00000000E+00  0.00000000E+00
  0.00000000E+00  0.00000000E+00  0.00000000E+00
  0.00000000E+00  0.00000000E+00  0.00000000E+00
  0.00000000E+00  0.00000000E+00  0.00000000E+00
  0.00000000E+00  0.00000000E+00  0.00000000E+00
  0.00000000E+00  0.00000000E+00  0.00000000E+00
  0.00000000E+00  0.00000000E+00  0.00000000E+00
  0.00000000E+00  0.00000000E+00  0.00000000E+00
  0.00000000E+00  0.00000000E+00  0.00000000E+00
  0.00000000E+00  0.00000000E+00  0.00000000E+00
  0.00000000E+00  0.00000000E+00  0.00000000E+00
  0.00000000E+00  0.00000000E+00  0.00000000E+00
  0.00000000E+00  0.00000000E+00  0.00000000E+00
  0.00000000E+00  0.00000000E+00  0.00000000E+00
  0.00000000E+00  0.00000000E+00  0.00000000E+00
  0.00000000E+00  0.00000000E+00  0.00000000E+00
  0.00000000E+00  0.00000000E+00  0.00000000E+00
  0.00000000E+00  0.00000000E+00  0.00000000E+00
  0.00000000E+00  0.00000000E+00  0.00000000E+00
  0.00000000E+00  0.00000000E+00  0.00000000E+00
  0.00000000E+00  0.00000000E+00  0.00000000E+00
  0.00000000E+00  0.00000000E+00  0.00000000E+00
  0.00000000E+00  0.00000000E+00  0.00000000E+00
  0.00000000E+00  0.00000000E+00  0.00000000E+00
  0.00000000E+00  0.00000000E+00  0.00000000E+00
  0.00000000E+00  0.00000000E+00  0.00000000E+00
  0.00000000E+00  0.00000000E+00  0.00000000E+00
  0.00000000E+00  0.00000000E+00  0.00000000E+00
  0.00000000E+00  0.00000000E+00  0.00000000E+00
  0.00000000E+00  0.00000000E+00  0.00000000E+00
  0.00000000E+00  0.00000000E+00  0.00000000E+00
  0.00000000E+00  0.00000000E+00  0.00000000E+00
  0.00000000E+00  0.00000000E+00  0.00000000E+00
  0.00000000E+00  0.00000000E+00  0.00000000E+00
  0.00000000E+00  0.00000000E+00  0.00000000E+00
  0.00000000E+00  0.00000000E+00  0.00000000E+00
  0.00000000E+00  0.00000000E+00  0.00000000E+00
  0.00000000E+00  0.00000000E+00  0.00000000E+00
  0.00000000E+00  0.00000000E+00  0.00000000E+00
  0.00000000E+00  0.00000000E+00  0.00000000E+00
  0.00000000E+00  0.00000000E+00  0.00000000E+00
  0.00000000E+00  0.00000000E+00  0.00000000E+00
  0.00000000E+00  0.00000000E+00  0.00000000E+00
  0.00000000E+00  0.00000000E+00  0.00000000E+00
  0.00000000E+00  0.00000000E+00  0.00000000E+00
  0.00000000E+00  0.00000000E+00  0.00000000E+00
  0.00000000E+00  0.00000000E+00  0.00000000E+00
  0.00000000E+00  0.00000000E+00  0.00000000E+00
  0.00000000E+00  0.00000000E+00  0.00000000E+00
  0.00000000E+00  0.00000000E+00  0.00000000E+00
  0.00000000E+00  0.00000000E+00  0.00000000E+00
  0.00000000E+00  0.00000000E+00  0.00000000E+00
  0.00000000E+00  0.00000000E+00  0.00000000E+00
  0.00000000E+00  0.00000000E+00  0.00000000E+00
  0.00000000E+00  0.00000000E+00  0.00000000E+00
  0.00000000E+00  0.00000000E+00  0.00000000E+00
  0.00000000E+00  0.00000000E+00  0.00000000E+00
  0.00000000E+00  0.00000000E+00  0.00000000E+00
  0.00000000E+00  0.00000000E+00  0.00000000E+00
  0.00000000E+00  0.00000000E+00  0.00000000E+00
  0.00000000E+00  0.00000000E+00  0.00000000E+00
  0.00000000E+00  0.00000000E+00  0.00000000E+00
  0.00000000E+00  0.00000000E+00  0.00000000E+00
  0.00000000E+00  0.00000000E+00  0.00000000E+00
  0.00000000E+00  0.00000000E+00  0.00000000E+00
  0.00000000E+00  0.00000000E+00  0.00000000E+00
  0.00000000E+00  0.00000000E+00  0.00000000E+00
  0.00000000E+00  0.00000000E+00  0.00000000E+00
  0.00000000E+00  0.00000000E+00  0.00000000E+00
  0.00000000E+00  0.00000000E+00  0.00000000E+00
  0.00000000E+00  0.00000000E+00  0.00000000E+00
  0.00000000E+00  0.00000000E+00  0.00000000E+00
  0.00000000E+00  0.00000000E+00  0.00000000E+00
  0.00000000E+00  0.00000000E+00  0.00000000E+00
  0.00000000E+00  0.00000000E+00  0.00000000E+00
  0.00000000E+00  0.00000000E+00  0.00000000E+00
  0.00000000E+00  0.00000000E+00  0.00000000E+00
  0.00000000E+00  0.00000000E+00  0.00000000E+00
  0.00000000E+00  0.00000000E+00  0.00000000E+00
  0.00000000E+00  0.00000000E+00  0.00000000E+00
  0.00000000E+00  0.00000000E+00  0.00000000E+00
  0.00000000E+00  0.00000000E+00  0.00000000E+00
  0.00000000E+00  0.00000000E+00  0.00000000E+00
  0.00000000E+00  0.00000000E+00  0.00000000E+00
  0.00000000E+00  0.00000000E+00  0.00000000E+00
  0.00000000E+00  0.00000000E+00  0.00000000E+00
  0.00000000E+00  0.00000000E+00  0.00000000E+00
  0.00000000E+00  0.00000000E+00  0.00000000E+00
  0.00000000E+00  0.00000000E+00  0.00000000E+00
  0.00000000E+00  0.00000000E+00  0.00000000E+00
  0.00000000E+00  0.00000000E+00  0.00000000E+00
  0.00000000E+00  0.00000000E+00  0.00000000E+00
  0.00000000E+00  0.00000000E+00  0.00000000E+00
  0.00000000E+00  0.00000000E+00  0.00000000E+00
  0.00000000E+00  0.00000000E+00  0.00000000E+00
  0.00000000E+00  0.00000000E+00  0.00000000E+00
  0.00000000E+00  0.00000000E+00  0.00000000E+00
  0.00000000E+00  0.00000000E+00  0.00000000E+00
  0.00000000E+00  0.00000000E+00  0.00000000E+00
  0.00000000E+00  0.00000000E+00  0.00000000E+00
  0.00000000E+00  0.00000000E+00  0.00000000E+00
  0.00000000E+00  0.00000000E+00  0.00000000E+00
  0.00000000E+00  0.00000000E+00  0.00000000E+00
  0.00000000E+00  0.00000000E+00  0.00000000E+00
  0.00000000E+00  0.00000000E+00  0.00000000E+00
  0.00000000E+00  0.00000000E+00  0.00000000E+00
  0.00000000E+00  0.00000000E+00  0.00000000E+00
  0.00000000E+00  0.00000000E+00  0.00000000E+00
  0.00000000E+00  0.00000000E+00  0.00000000E+00
  0.00000000E+00  0.00000000E+00  0.00000000E+00
  0.00000000E+00  0.00000000E+00  0.00000000E+00
  0.00000000E+00  0.00000000E+00  0.00000000E+00
  0.00000000E+00  0.00000000E+00  0.00000000E+00
  0.00000000E+00  0.00000000E+00  0.00000000E+00
  0.00000000E+00  0.00000000E+00  0.00000000E+00
  0.00000000E+00  0.00000000E+00  0.00000000E+00
  0.00000000E+00  0.00000000E+00  0.00000000E+00
  0.00000000E+00  0.00000000E+00  0.00000000E+00
  0.00000000E+00  0.00000000E+00  0.00000000E+00
  0.00000000E+00  0.00000000E+00  0.00000000E+00
  0.00000000E+00  0.00000000E+00  0.00000000E+00
  0.00000000E+00  0.00000000E+00  0.00000000E+00
