W48 S99
1.0
  33.0000000000         0.0000000000         0.0000000000
   0.0000000000        25.2255992889         0.0000000000
   0.0000000000         0.0000000000        17.4930000305
W S O C
48 99 2 1
Cartesian
     9.536953800         0.977525018         8.746488470
     9.591508740         7.189572018         8.746485146
     9.534558990        13.592832844         8.746449460
     9.592096800        19.799442466         8.746476400
    15.053326200         0.896748865         8.746515059
    15.056151660         7.205361225         8.746503339
    15.044035050        13.512933028         8.746501765
    15.053297160        19.823358099         8.746494942
    20.560681020         0.898596388         8.746516284
    20.555510250         7.204253569         8.746519258
    20.582114520        13.519145841         8.746516284
    20.548769010        19.804639948         8.746507712
     9.591902760         4.059863950         8.746484272
     9.536429100        10.271595630         8.746483922
     9.591160920        16.677101030         8.746429169
     9.535468140        22.883336808         8.746486546
    15.058592340         4.043498843         8.746512085
    15.051234000        10.353380050         8.746502114
    15.050900700        16.655167119         8.746490744
    15.052488660        22.965494063         8.746507012
    20.558563410         4.042218896         8.746518208
    20.541815580        10.359160748         8.746514360
    20.522749830        16.661064864         8.746511386
    20.561335410        22.963681603         8.746509112
    12.292221480         5.624607874         8.746493543
    12.270046800        11.931691058         8.746488120
    12.290354670        18.238925848         8.746465729
    12.273426990        24.544378701         8.746501590
    17.817269910         5.622576961         8.746513835
    17.804872800        11.937148112         8.746515584
    17.786695740        18.240050657         8.746503689
    17.818202820        24.544931646         8.746515234
    23.377677180         5.460681083         8.746514534
    23.237425200        11.761796395         8.746516459
    23.317340640        18.267255205         8.746504389
    23.375347380        24.714694884         8.746503164
    12.329219430         2.474125012         8.746502114
    12.327774360         8.775890135         8.746498091
    12.323413080        15.088257578         8.746479024
    12.326822640        21.389566369         8.746487245
    17.801681370         2.469484259         8.746530803
    17.801345100         8.779633867         8.746511910
    17.807009880        15.083839566         8.746508587
    17.811960540        21.390498203         8.746512610
    23.351657670         2.467076728         8.746505438
    23.342938740         8.947535455         8.746516809
    23.262672510        15.265386438         8.746512960
    23.369982570        21.207916577         8.746501240
     8.661899730         2.506553025        10.300563794
     8.661252270         8.742522217        10.300645311
     8.659995960        15.122268244        10.299815793
     8.660383380        21.354266423        10.299747046
    14.143783830         2.470309388        10.333115118
    14.142482310         8.779310474        10.333058616
    14.135690910        15.084360475        10.334484470
    14.140071660        21.395206561        10.334005687
    19.632453060         2.470022321        10.320702785
    19.631363400         8.774006288        10.322361471
    19.639424310        15.069321981        10.329238669
    19.648417800        21.391814979        10.324404304
    14.133778560         5.624235797        10.320048547
    14.114371920        11.931645904        10.317125117
    14.130723420        18.239693210        10.319795073
    14.118588990        24.544196572        10.317076661
    19.654575930         5.627065604        10.324537076
    19.641403980        11.956536508        10.319923822
    19.610299500        18.236956990        10.322374066
    19.656485970        24.539991969        10.324407278
    11.346592290         0.896104856        10.315892035
    11.374361790         7.194032660        10.331721276
    11.342943480        13.509158522        10.316273033
    11.373447690        19.807690480        10.332545721
    16.887201870         0.889599678        10.324138410
    16.888330470         7.197905042        10.322567539
    16.878089250        13.509280614        10.321819538
    16.881448320        19.820975037        10.326378389
    22.407900240         0.921852625        10.364970921
    22.460716080         7.200792616        10.260283712
    22.535044950        13.519325700        10.279527936
    22.387763310        19.787394972        10.365826503
    11.374711590         4.055424497        10.331767982
    11.345227410        10.353842940        10.316281079
    11.371833990        16.670550194        10.332736570
    11.344839000        22.967647320        10.315974252
    16.890483390         4.050028994        10.324536726
    16.884761850        10.359953084        10.324489320
    16.879538610        16.657962116        10.325273531
    16.890115110        22.970448370        10.321041449
    22.407958980         4.020275652        10.361015578
    22.335605490        10.331615907        10.402025818
    22.357102680        16.724019383        10.361061235
    22.467512430        22.960096541        10.259098386
     8.661905670         2.506544448         7.192405799
     8.661260520         8.742524487         7.192324457
     8.660006850        15.122231919         7.193067559
     8.660379420        21.354280297         7.193214500
    14.143805940         2.470301821         7.159907828
    14.142496170         8.779308709         7.159944214
    14.135717970        15.084351141         7.158496668
    14.140093440        21.395219931         7.158988221
    19.632435570         2.470028375         7.172340803
    19.631360100         8.774003513         7.170663749
    19.639428270        15.069317945         7.163787601
    19.648414170        21.391815484         7.168614969
     7.891028640         5.624535477         8.746452084
     7.921671450        11.930921173         8.746486896
     7.887330000        18.238757845         8.746468878
     7.921847010        24.543958190         8.746493368
    14.133797370         5.624230499         7.172959531
    14.114395350        11.931651454         7.175872115
    14.130753780        18.239698255         7.173163674
    14.118609450        24.544203887         7.175944186
    19.654571310         5.627064595         7.168486396
    19.641400680        11.956536760         7.173108046
    19.610303790        18.236953962         7.170642758
    19.656477390        24.539990960         7.168610246
    11.346609120         0.896103090         7.177093826
    11.374375650         7.194034678         7.161258113
    11.342988030        13.509144648         7.176667522
    11.373452970        19.807713435         7.160389061
    16.887204840         0.889608507         7.168907452
    16.888336410         7.197906303         7.170459956
    16.878103440        13.509273046         7.171204283
    16.881465810        19.820980839         7.166632487
    22.407886380         0.921857418         7.128033833
    22.460710140         7.200788076         7.232749555
    22.535041320        13.519310564         7.213517401
    22.387754730        19.787394972         7.127179825
    11.374739640         4.055424749         7.161209657
    11.345244240        10.353843697         7.176704257
    11.371864350        16.670511851         7.160155179
    11.344859130        22.967659933         7.177000239
    16.890492960         4.050022183         7.168502314
    16.884789240        10.359951571         7.168540449
    16.879555440        16.657959593         7.167735421
    16.890119070        22.970453163         7.171987095
    22.407948090         4.020279940         7.131999671
    22.335608130        10.331620700         7.091007624
    22.357095750        16.724006518         7.131960662
    22.467505830        22.960094775         7.233909341
    25.040863980        22.937817040         8.746497741
    25.199759640        19.700872427         8.746497391
    25.179768240        16.427735386         8.746510511
    25.186447110        10.581602353         8.746511211
    25.040833950         7.246546556         8.746519432
    25.203137190         4.024702492         8.746501765
    25.205851770         0.917202033         8.746497741
    25.281000000         14.67900000         8.746000000
    25.281000000         12.35900000         8.746000000
    25.281000000         13.51900000         8.746000000
