W48 S97                                 
   1.00000000000000     
    33.0000000000000000    0.0000000000000000    0.0000000000000000
     0.0000000000000000   25.2255992888999998    0.0000000000000000
     0.0000000000000000    0.0000000000000000   17.4930000304999993
   W    S    O    C 
    48    97     2     1
Direct
  0.2886938382193081  0.0392826572587535  0.5000021227606294
  0.2907581959917800  0.2841502665600285  0.5000023598434898
  0.2884977314588221  0.5393883812454375  0.5000030330142751
  0.2909176759739972  0.7842768090598436  0.5000015082860840
  0.4561248942286433  0.0355430775338081  0.4999998258810830
  0.4560736736806437  0.2856995368767135  0.4999998529769119
  0.4558046318547072  0.5356144890853092  0.5000007236647163
  0.4563722152816704  0.7857916114050409  0.4999999692606849
  0.6231360507930597  0.0359616710283958  0.4999990971723917
  0.6241722185879206  0.2859256819021074  0.4999999497684313
  0.6241469805951031  0.5350369058051475  0.5000034395108464
  0.6231426464463508  0.7849995623841505  0.5000000116602795
  0.2908501819186677  0.1617020176063899  0.5000017690518272
  0.2884688407386445  0.4066086662545823  0.5000031595813148
  0.2908171186582075  0.6618655948865925  0.5000020750469826
  0.2886992643280981  0.9066831555764375  0.5000013859713988
  0.4562403219889919  0.1603681713265282  0.4999998414866165
  0.4559118687284747  0.4103697835191649  0.5000001489167447
  0.4562141726975372  0.6601643113352391  0.5000006506537773
  0.4562408507104114  0.9103762137508636  0.4999997111765078
  0.6220801212418843  0.1607584034645627  0.5000006487129491
  0.6212703926914481  0.4104828790738392  0.5000015588849576
  0.6220625811037335  0.6601287419833962  0.5000019493614285
  0.6235659052627611  0.9104806436290853  0.4999989587954133
  0.3725033412898128  0.2229765345657840  0.5000007363462488
  0.3716401637270406  0.4729818294509984  0.5000022071463112
  0.3726180906784670  0.7230338591418581  0.5000009320480174
  0.3718917847787900  0.9729789615666560  0.5000004153602231
  0.5397661370488673  0.2232887381039557  0.4999995428168453
  0.5393505947998258  0.4731390840094556  0.4999999598571193
  0.5393295151477475  0.7229576234200908  0.5000000104496840
  0.5400186836343395  0.9730585635268622  0.4999991232094804
  0.7052340841741329  0.2184779082986421  0.5000036407712735
  0.7054621771606416  0.4696023646451250  0.5000062400029789
  0.7069639336986570  0.7244086989211524  0.5000029208863214
  0.7089279167507633  0.9804083339466876  0.4999995327685831
  0.3735644119723686  0.0981323795047097  0.5000006106775977
  0.3733760575881481  0.3478318634905782  0.5000016338389820
  0.3733867537421849  0.5981721999210742  0.5000017011789770
  0.3736212802240711  0.8478684870982414  0.5000005531134674
  0.5392891845064179  0.0979571841825899  0.4999996831396739
  0.5394055085722187  0.3478641812428775  0.4999998000476760
  0.5396859561342954  0.5976250565870478  0.5000007995460127
  0.5400600955959758  0.8479672870797880  0.4999993890874379
  0.7069902230682217  0.0964970228042510  0.5000015220896519
  0.7054469136445338  0.3513402772610827  0.5000067653527484
  0.7052393212680736  0.6024262888639483  0.5000083118161094
  0.7089258047785800  0.8404863313802120  0.5000005390372007
  0.2623650751986349  0.0997938797924770  0.5887285578626714
  0.2621916652591721  0.3460449486442117  0.5886886168075972
  0.2622635349695526  0.5999772577454600  0.5887082538048735
  0.2623842779467180  0.8461604207508068  0.5887115183539435
  0.4285519146376880  0.0979317252766210  0.5907037085128030
  0.4283401501830602  0.3480593800867843  0.5907284664360873
  0.4283240099700569  0.5979507612211407  0.5907566465549422
  0.4286169249466408  0.8481045501293044  0.5907251072174406
  0.5946141134942117  0.0981391119752626  0.5900815482107360
  0.5948580286009930  0.3472628868233648  0.5903481949089745
  0.5953725539851159  0.5969344603446249  0.5902064493977772
  0.5958399381825390  0.8480826467687472  0.5900411256338676
  0.4282263149655829  0.2229849686661087  0.5900234791563037
  0.4275320560259911  0.4729614212305549  0.5897744031185651
  0.4283988080246955  0.7230154699196851  0.5899504607351642
  0.4278210896139080  0.9729373255440849  0.5897577729136971
  0.5954461798396338  0.2239878625980164  0.5901956933345247
  0.5948307728614241  0.4737108435377941  0.5903252282754995
  0.5946496154172788  0.7227832504088172  0.5900695362460322
  0.5958259018030676  0.9729045167728780  0.5900206207245045
  0.3436829764177886  0.0355559250945104  0.5895579814952145
  0.3446278078838959  0.2850951827559134  0.5907912145702108
  0.3434640146945178  0.5355910308888502  0.5895505123585110
  0.3448069356530512  0.7851778009258513  0.5907805478208566
  0.5116832818822726  0.0352423688448583  0.5901953664312102
  0.5115451873632865  0.2854514665089021  0.5901633019700729
  0.5113636634693101  0.5354542890102902  0.5901209650901662
  0.5118490275095504  0.7856846771148391  0.5902347544298820
  0.6788596534510727  0.0365282632060079  0.5924285431696298
  0.6824579222370839  0.2849348578221776  0.5892742806658658
  0.6824547340677840  0.5359912008411984  0.5892600827450676
  0.6788523459386842  0.7843838570188332  0.5924475665325108
  0.3447250449285287  0.1608133424428846  0.5907819147021895
  0.3434408674428729  0.4103943539953817  0.5895496823602370
  0.3446875891347669  0.6609451294872700  0.5907843139100052
  0.3436890656053254  0.9104165775825082  0.5895506978086821
  0.5117344855016789  0.1607245605348797  0.5901595081240772
  0.5115008062230928  0.4105381592374757  0.5901339680579236
  0.5117058834176792  0.6602229717636346  0.5901595175913221
  0.5119850628145485  0.9105578278893082  0.5899681048591031
  0.6780452453429673  0.1585492721057762  0.5910798221525392
  0.6766279118375845  0.4104856679989267  0.5915129083045628
  0.6780316133582782  0.6623509753183726  0.5910810410355439
  0.6815778229771546  0.9104529295808708  0.5859806000713912
  0.2623635923128202  0.0997937713820520  0.4112767710995475
  0.2621907695380569  0.3460454375654338  0.4113182385999901
  0.2622630487838872  0.5999767935399352  0.4112974986931023
  0.2623832272044859  0.8461602862853405  0.4112926127531151
  0.4285512801717492  0.0979317653673046  0.4092959493477605
  0.4283392319138316  0.3480594567208620  0.4092721315955108
  0.4283234632045114  0.5979505747292324  0.4092452864989451
  0.4286165746217811  0.8481043386371742  0.4092747075351747
  0.5946144796912616  0.0981398742154685  0.4099176839378127
  0.5948594562895876  0.3472632493901173  0.4096524591442339
  0.5953740992168433  0.5969340364833172  0.4097983021189987
  0.5958399699720907  0.8480819329360606  0.4099570415114412
  0.2386804368112144  0.2228675136571046  0.5000015501527199
  0.2399573346383502  0.4730085236282763  0.5000021640087738
  0.2387402879787207  0.7231251158755183  0.5000012385139009
  0.2401130447913645  0.9729707547107551  0.5000013589342358
  0.4282257603608385  0.2229851407863752  0.4099764908969495
  0.4275314170769074  0.4729618612956304  0.4102274028131760
  0.4283983272742480  0.7230149294805032  0.4100503238260551
  0.4278204009597284  0.9729372483032097  0.4102418569134531
  0.5954468956297652  0.2239875257450172  0.4098043956850941
  0.5948321797306978  0.4737111073430662  0.4096774886187649
  0.5946504695046938  0.7227819369550386  0.4099315907625719
  0.5958260627879471  0.9729046640649991  0.4099772216511743
  0.3436821854259823  0.0355560425189823  0.4104440158469564
  0.3446270439451313  0.2850954773252997  0.4092117984527561
  0.3434633980111317  0.5355911137653209  0.4104545882718486
  0.3448063803989924  0.7851775613027909  0.4092213191258313
  0.5116831523541185  0.0352425747660282  0.4098029229543601
  0.5115452208095232  0.2854517776818177  0.4098358930106065
  0.5113635885682543  0.5354544958932390  0.4098799128342223
  0.5118489631534576  0.7856842926968998  0.4097646141627893
  0.6788605077818104  0.0365295871302017  0.4075702765443409
  0.6824613378424383  0.2849285579934583  0.4107335619480729
  0.6824578967343174  0.5359887260060230  0.4107513303548323
  0.6788533174372497  0.7843825147499893  0.4075544493257490
  0.3447243952746429  0.1608134028992485  0.4092201385106790
  0.3434402286342018  0.4103954378719530  0.4104555774653502
  0.3446870931039775  0.6609447203414580  0.4092186518512579
  0.3436884874557133  0.9104166140365391  0.4104507526288510
  0.5117343917238271  0.1607246762876878  0.4098392073041204
  0.5115008871761765  0.4105384375618173  0.4098657611928761
  0.5117058335854439  0.6602225716813982  0.4098410472828282
  0.5119848838601857  0.9105576291107769  0.4100304693836608
  0.6780470311273589  0.1585490141910184  0.4089251927592339
  0.6766301879522675  0.4104842561356459  0.4084967656141155
  0.6780341574496395  0.6623472092901456  0.4089265107669043
  0.6815783016518396  0.9104525242251742  0.4140187039487692
  0.7594767056241973  0.9104320198722663  0.5000007641750688
  0.7644104412524875  0.7803544964213939  0.5000029110487875
  0.7635008578408374  0.6479389890356437  0.5000058449114305
  0.7635101724269191  0.1729936405755576  0.5000055940226209
  0.7644227603329338  0.0404981871807547  0.5000009315562381
  0.7714347029428912  0.4566957778636941  0.5000106783011523
  0.7714632091785364  0.3641022511561040  0.4997722925690320
  0.7561230371434903  0.4103861944355533  0.4999546383151280
 
  0.00000000E+00  0.00000000E+00  0.00000000E+00
  0.00000000E+00  0.00000000E+00  0.00000000E+00
  0.00000000E+00  0.00000000E+00  0.00000000E+00
  0.00000000E+00  0.00000000E+00  0.00000000E+00
  0.00000000E+00  0.00000000E+00  0.00000000E+00
  0.00000000E+00  0.00000000E+00  0.00000000E+00
  0.00000000E+00  0.00000000E+00  0.00000000E+00
  0.00000000E+00  0.00000000E+00  0.00000000E+00
  0.00000000E+00  0.00000000E+00  0.00000000E+00
  0.00000000E+00  0.00000000E+00  0.00000000E+00
  0.00000000E+00  0.00000000E+00  0.00000000E+00
  0.00000000E+00  0.00000000E+00  0.00000000E+00
  0.00000000E+00  0.00000000E+00  0.00000000E+00
  0.00000000E+00  0.00000000E+00  0.00000000E+00
  0.00000000E+00  0.00000000E+00  0.00000000E+00
  0.00000000E+00  0.00000000E+00  0.00000000E+00
  0.00000000E+00  0.00000000E+00  0.00000000E+00
  0.00000000E+00  0.00000000E+00  0.00000000E+00
  0.00000000E+00  0.00000000E+00  0.00000000E+00
  0.00000000E+00  0.00000000E+00  0.00000000E+00
  0.00000000E+00  0.00000000E+00  0.00000000E+00
  0.00000000E+00  0.00000000E+00  0.00000000E+00
  0.00000000E+00  0.00000000E+00  0.00000000E+00
  0.00000000E+00  0.00000000E+00  0.00000000E+00
  0.00000000E+00  0.00000000E+00  0.00000000E+00
  0.00000000E+00  0.00000000E+00  0.00000000E+00
  0.00000000E+00  0.00000000E+00  0.00000000E+00
  0.00000000E+00  0.00000000E+00  0.00000000E+00
  0.00000000E+00  0.00000000E+00  0.00000000E+00
  0.00000000E+00  0.00000000E+00  0.00000000E+00
  0.00000000E+00  0.00000000E+00  0.00000000E+00
  0.00000000E+00  0.00000000E+00  0.00000000E+00
  0.00000000E+00  0.00000000E+00  0.00000000E+00
  0.00000000E+00  0.00000000E+00  0.00000000E+00
  0.00000000E+00  0.00000000E+00  0.00000000E+00
  0.00000000E+00  0.00000000E+00  0.00000000E+00
  0.00000000E+00  0.00000000E+00  0.00000000E+00
  0.00000000E+00  0.00000000E+00  0.00000000E+00
  0.00000000E+00  0.00000000E+00  0.00000000E+00
  0.00000000E+00  0.00000000E+00  0.00000000E+00
  0.00000000E+00  0.00000000E+00  0.00000000E+00
  0.00000000E+00  0.00000000E+00  0.00000000E+00
  0.00000000E+00  0.00000000E+00  0.00000000E+00
  0.00000000E+00  0.00000000E+00  0.00000000E+00
  0.00000000E+00  0.00000000E+00  0.00000000E+00
  0.00000000E+00  0.00000000E+00  0.00000000E+00
  0.00000000E+00  0.00000000E+00  0.00000000E+00
  0.00000000E+00  0.00000000E+00  0.00000000E+00
  0.00000000E+00  0.00000000E+00  0.00000000E+00
  0.00000000E+00  0.00000000E+00  0.00000000E+00
  0.00000000E+00  0.00000000E+00  0.00000000E+00
  0.00000000E+00  0.00000000E+00  0.00000000E+00
  0.00000000E+00  0.00000000E+00  0.00000000E+00
  0.00000000E+00  0.00000000E+00  0.00000000E+00
  0.00000000E+00  0.00000000E+00  0.00000000E+00
  0.00000000E+00  0.00000000E+00  0.00000000E+00
  0.00000000E+00  0.00000000E+00  0.00000000E+00
  0.00000000E+00  0.00000000E+00  0.00000000E+00
  0.00000000E+00  0.00000000E+00  0.00000000E+00
  0.00000000E+00  0.00000000E+00  0.00000000E+00
  0.00000000E+00  0.00000000E+00  0.00000000E+00
  0.00000000E+00  0.00000000E+00  0.00000000E+00
  0.00000000E+00  0.00000000E+00  0.00000000E+00
  0.00000000E+00  0.00000000E+00  0.00000000E+00
  0.00000000E+00  0.00000000E+00  0.00000000E+00
  0.00000000E+00  0.00000000E+00  0.00000000E+00
  0.00000000E+00  0.00000000E+00  0.00000000E+00
  0.00000000E+00  0.00000000E+00  0.00000000E+00
  0.00000000E+00  0.00000000E+00  0.00000000E+00
  0.00000000E+00  0.00000000E+00  0.00000000E+00
  0.00000000E+00  0.00000000E+00  0.00000000E+00
  0.00000000E+00  0.00000000E+00  0.00000000E+00
  0.00000000E+00  0.00000000E+00  0.00000000E+00
  0.00000000E+00  0.00000000E+00  0.00000000E+00
  0.00000000E+00  0.00000000E+00  0.00000000E+00
  0.00000000E+00  0.00000000E+00  0.00000000E+00
  0.00000000E+00  0.00000000E+00  0.00000000E+00
  0.00000000E+00  0.00000000E+00  0.00000000E+00
  0.00000000E+00  0.00000000E+00  0.00000000E+00
  0.00000000E+00  0.00000000E+00  0.00000000E+00
  0.00000000E+00  0.00000000E+00  0.00000000E+00
  0.00000000E+00  0.00000000E+00  0.00000000E+00
  0.00000000E+00  0.00000000E+00  0.00000000E+00
  0.00000000E+00  0.00000000E+00  0.00000000E+00
  0.00000000E+00  0.00000000E+00  0.00000000E+00
  0.00000000E+00  0.00000000E+00  0.00000000E+00
  0.00000000E+00  0.00000000E+00  0.00000000E+00
  0.00000000E+00  0.00000000E+00  0.00000000E+00
  0.00000000E+00  0.00000000E+00  0.00000000E+00
  0.00000000E+00  0.00000000E+00  0.00000000E+00
  0.00000000E+00  0.00000000E+00  0.00000000E+00
  0.00000000E+00  0.00000000E+00  0.00000000E+00
  0.00000000E+00  0.00000000E+00  0.00000000E+00
  0.00000000E+00  0.00000000E+00  0.00000000E+00
  0.00000000E+00  0.00000000E+00  0.00000000E+00
  0.00000000E+00  0.00000000E+00  0.00000000E+00
  0.00000000E+00  0.00000000E+00  0.00000000E+00
  0.00000000E+00  0.00000000E+00  0.00000000E+00
  0.00000000E+00  0.00000000E+00  0.00000000E+00
  0.00000000E+00  0.00000000E+00  0.00000000E+00
  0.00000000E+00  0.00000000E+00  0.00000000E+00
  0.00000000E+00  0.00000000E+00  0.00000000E+00
  0.00000000E+00  0.00000000E+00  0.00000000E+00
  0.00000000E+00  0.00000000E+00  0.00000000E+00
  0.00000000E+00  0.00000000E+00  0.00000000E+00
  0.00000000E+00  0.00000000E+00  0.00000000E+00
  0.00000000E+00  0.00000000E+00  0.00000000E+00
  0.00000000E+00  0.00000000E+00  0.00000000E+00
  0.00000000E+00  0.00000000E+00  0.00000000E+00
  0.00000000E+00  0.00000000E+00  0.00000000E+00
  0.00000000E+00  0.00000000E+00  0.00000000E+00
  0.00000000E+00  0.00000000E+00  0.00000000E+00
  0.00000000E+00  0.00000000E+00  0.00000000E+00
  0.00000000E+00  0.00000000E+00  0.00000000E+00
  0.00000000E+00  0.00000000E+00  0.00000000E+00
  0.00000000E+00  0.00000000E+00  0.00000000E+00
  0.00000000E+00  0.00000000E+00  0.00000000E+00
  0.00000000E+00  0.00000000E+00  0.00000000E+00
  0.00000000E+00  0.00000000E+00  0.00000000E+00
  0.00000000E+00  0.00000000E+00  0.00000000E+00
  0.00000000E+00  0.00000000E+00  0.00000000E+00
  0.00000000E+00  0.00000000E+00  0.00000000E+00
  0.00000000E+00  0.00000000E+00  0.00000000E+00
  0.00000000E+00  0.00000000E+00  0.00000000E+00
  0.00000000E+00  0.00000000E+00  0.00000000E+00
  0.00000000E+00  0.00000000E+00  0.00000000E+00
  0.00000000E+00  0.00000000E+00  0.00000000E+00
  0.00000000E+00  0.00000000E+00  0.00000000E+00
  0.00000000E+00  0.00000000E+00  0.00000000E+00
  0.00000000E+00  0.00000000E+00  0.00000000E+00
  0.00000000E+00  0.00000000E+00  0.00000000E+00
  0.00000000E+00  0.00000000E+00  0.00000000E+00
  0.00000000E+00  0.00000000E+00  0.00000000E+00
  0.00000000E+00  0.00000000E+00  0.00000000E+00
  0.00000000E+00  0.00000000E+00  0.00000000E+00
  0.00000000E+00  0.00000000E+00  0.00000000E+00
  0.00000000E+00  0.00000000E+00  0.00000000E+00
  0.00000000E+00  0.00000000E+00  0.00000000E+00
  0.00000000E+00  0.00000000E+00  0.00000000E+00
  0.00000000E+00  0.00000000E+00  0.00000000E+00
  0.00000000E+00  0.00000000E+00  0.00000000E+00
  0.00000000E+00  0.00000000E+00  0.00000000E+00
  0.00000000E+00  0.00000000E+00  0.00000000E+00
  0.00000000E+00  0.00000000E+00  0.00000000E+00
  0.00000000E+00  0.00000000E+00  0.00000000E+00
  0.00000000E+00  0.00000000E+00  0.00000000E+00
  0.00000000E+00  0.00000000E+00  0.00000000E+00
  0.00000000E+00  0.00000000E+00  0.00000000E+00
