W48 S97
1.0
  33.0000000000         0.0000000000         0.0000000000
   0.0000000000        25.2255992889         0.0000000000
   0.0000000000         0.0000000000        17.4930000305
W S O C
48 97 2 1
Cartesian
     9.533886450         0.982656157         8.746527654
     9.595911600         7.185193610         8.746529753
     9.535546680        13.593117389         8.746530628
     9.593899920        19.795633905         8.746537450
    15.048565620         0.896291273         8.746549171
    15.058263660         7.208139825         8.746548646
    15.049988910        13.510357242         8.746513660
    15.054866310        19.822445942         8.746515584
    20.555485830         0.901269797         8.746516983
    20.597097510         7.194274574         8.746526954
    20.592886050        13.518946307         8.746515584
    20.554592850        19.807036632         8.746495467
     9.594365880         4.067250510         8.746519782
     9.536929380        10.268265599         8.746538500
     9.594367860        16.678155712         8.746539200
     9.533083890        22.880406603         8.746535701
    15.054754440         4.045066866         8.746554768
    15.058312170        10.351408165         8.746526605
    15.053117310        16.654227466         8.746511386
    15.050614920        22.964716105         8.746530278
    20.524449990         4.045648316         8.746517683
    20.564835390        10.354545977         8.746524331
    20.521918230        16.661111532         8.746505263
    20.567918580        22.966523519         8.746493893
    12.293599230         5.626359792         8.746530978
    12.274556580        11.930375543         8.746514884
    12.292406280        18.237859309         8.746524505
    12.270733860        24.544404935         8.746531153
    17.811672120         5.628170233         8.746562815
    17.813958690        11.934892439         8.746524505
    17.791479090        18.240539025         8.746508062
    17.813172300        24.544404431         8.746532902
    23.275261350         5.476538147         8.746490919
    23.168483580        11.851048601         8.746517158
    23.321643510        18.287340584         8.746502989
    23.385664500        24.722707543         8.746481997
    12.326913720         2.475423374         8.746537275
    12.331065450         8.775856838         8.746528354
    12.327016020        15.086260467         8.746516284
    12.326268570        21.388549273         8.746521357
    17.791094970         2.468094076         8.746548471
    17.816931330         8.776648165         8.746536925
    17.807105910        15.081006984         8.746517683
    17.813388450        21.391220412         8.746514185
    23.324779170         2.423889241         8.746483572
    23.172393420         8.867949951         8.746504389
    23.275886700        15.224317397         8.746514534
    23.384425020        21.206808921         8.746489345
     8.660879370         2.511695516        10.299722730
     8.662194750         8.740490547        10.299937719
     8.661853530        15.121748092        10.299891188
     8.659998930        21.351527931        10.299617073
    14.140659060         2.470875955        10.333391507
    14.145827190         8.780785920        10.333663873
    14.139749910        15.082002638        10.334258985
    14.139921840        21.393859010        10.333893382
    19.615706220         2.469611396        10.322936116
    19.655049810         8.768364835        10.321469153
    19.638934260        15.068258722        10.327168897
    19.652541810        21.394716680        10.322769583
    14.134116480         5.626874394        10.320405754
    14.120269350        11.929421763        10.316743244
    14.132818260        18.238621375        10.319917699
    14.115292290        24.543118178        10.317238296
    19.644655470         5.642179018        10.325795172
    19.653197520        11.942240404        10.320298872
    19.616035230        18.238077258        10.322966204
    19.653468450        24.539522773        10.322335407
    11.344021920         0.897174169        10.315489171
    11.377006080         7.194975341        10.332968352
    11.345610540        13.507592769        10.315815766
    11.374580910        19.806229918        10.333117042
    16.880402880         0.887345014        10.325100525
    16.890661920         7.203092182        10.322895882
    16.884053340        13.505778544        10.322593079
    16.884098220        19.820622131        10.325953134
    22.395022650         0.912314574        10.364242337
    22.515800010         7.155576739        10.309505691
    22.507089660        13.555672004        10.312443815
    22.392170460        19.794539618        10.365439733
    11.375204610         4.057711450        10.332746016
    11.347595490        10.353296301        10.315683343
    11.375087130        16.668564687        10.332952783
    11.343174150        22.966901903        10.315546198
    16.884286980         4.052139872        10.324479524
    16.896229020        10.356588242        10.322372492
    16.882058160        16.658098334        10.324638185
    16.888315290        22.969039268        10.321231074
    22.368711420         3.981740522        10.344195534
    22.394942130        10.357914856        10.396935005
    22.369171110        16.724824080        10.341629661
    22.481160570        22.965373989        10.253141845
     8.660843730         2.511690470         7.193305114
     8.662148220         8.740498620         7.193136132
     8.661844290        15.121755912         7.193157123
     8.659960650        21.351520616         7.193450831
    14.140626060         2.470881757         7.159547473
    14.145795180         8.780806100         7.159308868
    14.139717570        15.081997593         7.158730374
    14.139880260        21.393848163         7.159059418
    19.615728330         2.469623504         7.169963679
    19.655068950         8.768378456         7.171523180
    19.638957690        15.068239047         7.165813115
    19.652554680        21.394695995         7.170118667
     7.888744710         5.626984630         8.746523631
     7.924029630        11.929839751         8.746549870
     7.887506550        18.236550605         8.746594477
     7.922589510        24.544452107         8.746545147
    14.134082490         5.626883223         7.172539874
    14.120232390        11.929422520         7.176243841
    14.132774370        18.238611284         7.173056267
    14.115247740        24.543116916         7.175706107
    19.644670320         5.642197685         7.167161476
    19.653212040        11.942238890         7.172706932
    19.616052720        18.238057330         7.169968402
    19.653481980        24.539530593         7.170555817
    11.343988920         0.897171142         7.177501413
    11.376981000         7.194991738         7.160032029
    11.345575230        13.507598319         7.177208230
    11.374548570        19.806218062         7.159896633
    16.880386710         0.887342996         7.167786326
    16.890665880         7.203110849         7.170059016
    16.884051690        13.505755589         7.170398905
    16.884083370        19.820608761         7.166962230
    22.395053010         0.912318105         7.128653785
    22.515805290         7.155607009         7.183456730
    22.507109790        13.555666455         7.180564612
    22.392207750        19.794529780         7.127503795
    11.375175240         4.057714982         7.160235297
    11.347564470        10.353302607         7.177337329
    11.375051820        16.668568471         7.160084857
    11.343137190        22.966897867         7.177462579
    16.884286320         4.052175188         7.168432867
    16.896230670        10.356606909         7.170614769
    16.882042650        16.658072604         7.168319337
    16.888297140        22.969034223         7.171664874
    22.368732540         3.981759189         7.148729451
    22.394956980        10.357939325         7.096076221
    22.369198500        16.724806927         7.151356025
    22.481202480        22.965370457         7.239764773
    25.056142980        22.965276870         8.746484621
    25.218296400        19.699881566         8.746514534
    25.193691930        16.382070493         8.746543923
    25.191210330         4.312283153         8.746483747
    25.218048240         1.003608792         8.746487245
    25.288000000        11.514000000         8.746000000
    25.288000000         9.194000000         8.746000000
    25.288000000        10.354000000         8.746000000
