Mo  S                                   
   1.00000000000000     
    33.0000000000000000    0.0000000000000000    0.0000000000000000
     0.0000000000000000   25.5200004577999984    0.0000000000000000
     0.0000000000000000    0.0000000000000000   17.4729003905999996
   Mo   S    O    C 
    48    98     1     1
Direct
  0.2855699633696660  0.1028780396269220  0.4998388298990297
  0.3695006614079906  0.0339872767849879  0.4996864591673669
  0.2878479782903317  0.2123837886280977  0.5000968923941329
  0.3696723091093593  0.1588410442609933  0.4996625465520294
  0.4522349249339297  0.0965340286661512  0.4994925059937406
  0.5350230575437021  0.0341564437610430  0.4997225209412861
  0.2845885207963204  0.3483434288202830  0.5010980804418353
  0.3686796355124915  0.2845851932708994  0.5001453034534570
  0.4518900046464873  0.2217101143511498  0.4996233804152459
  0.5346989944437337  0.1590081479945048  0.4998183947426293
  0.6167968832963580  0.0966899879729396  0.5010982756440825
  0.2888826903141170  0.4732257665926231  0.5026503393288192
  0.3683894456952654  0.4082589083486895  0.5010723553067468
  0.4513492944386520  0.3465316409887561  0.5001154803317988
  0.5346007881004016  0.2843454582676981  0.5000069918465907
  0.2883126269938561  0.6023426198593368  0.5019129674770416
  0.3689276753491775  0.5347287263404752  0.5014461744682254
  0.4514046606962160  0.4714629795525177  0.5007474136219834
  0.5344685365745876  0.4088381565243673  0.5002039412305440
  0.2854068203294345  0.7168185212857249  0.5011361315713295
  0.3703842223386168  0.6593249822537852  0.5011828151285211
  0.4524480118254637  0.5963961046159623  0.5008530612850582
  0.5348393763418622  0.5339113272149203  0.5003430822652301
  0.4525663177720088  0.7215976244596715  0.5006520542109724
  0.5351376087030507  0.6587716193469745  0.5002297111858084
  0.6180137970242212  0.2216667061129043  0.5013022218862424
  0.7002592989666191  0.0359263329175132  0.4993388153279774
  0.6165479238164341  0.3465670657909722  0.5012632624034284
  0.6998724812820857  0.1579485138813664  0.5077326231776109
  0.6181345415346697  0.4713306073653228  0.5001758204342764
  0.6997720845040656  0.2854547234300805  0.5076158842562626
  0.6169332171027702  0.5963087235917879  0.4989816154066977
  0.7000197974029237  0.4073459130325349  0.4994630408636034
  0.6185170600353025  0.7213927626593513  0.4987835241272144
  0.7001866408255730  0.5351803838257126  0.5010070410461510
  0.7002055292948711  0.6572324950495789  0.4924482192741844
  0.2853193186952729  0.8539304698266617  0.5005187360188503
  0.3696674496573856  0.7838630366434592  0.5006631979888644
  0.2852950641842453  0.9640093383605380  0.5000603702200163
  0.3695321846807159  0.9088624369378522  0.5001097159303360
  0.4522833042629946  0.8464665356339198  0.5002406865696053
  0.5352717865220111  0.7841836630713306  0.5000356739127455
  0.4521399558199407  0.9714507587567720  0.4997625360567635
  0.5350496092939016  0.9088748007565707  0.4998683316683377
  0.6171395563462394  0.8465432726877729  0.4988085531139943
  0.6184487204582053  0.9715828825433891  0.4999188866491542
  0.7002927832099755  0.7853901572821655  0.4923757996156782
  0.7004403243247106  0.9075249023143052  0.5011409648078797
  0.3117819074543865  0.0336763404420139  0.4141733898874317
  0.3118956165771773  0.0337949655848714  0.5854620465583300
  0.3157738236876727  0.1574607608847185  0.4053992940748486
  0.3159443547445562  0.1572481308208781  0.5942660725745533
  0.3969648688638162  0.0961389059368081  0.4102342446084037
  0.3970494411897241  0.0961483571345702  0.5889258271760457
  0.4797313216987010  0.0338645818431367  0.4102845285336581
  0.4796461607023398  0.0339656413390395  0.5889377137328660
  0.3099589288019120  0.2819608869123559  0.4134849762171950
  0.3102583418186970  0.2813569797770272  0.5873723401697358
  0.3964264821708128  0.2226203398145795  0.4107165003845688
  0.3965685970076555  0.2223221126624387  0.5888321471194596
  0.4794704172783741  0.1592632232715067  0.4100955079073572
  0.4792968334180671  0.1591535730358087  0.5890654261681311
  0.5623842022942452  0.0968002935120147  0.4102508052974561
  0.5616639687725489  0.0964844237995954  0.5900085224550111
  0.3111923621108773  0.4089093620110613  0.4103225893596463
  0.3111213511874058  0.4080798106384939  0.5923668674313796
  0.3957838701002182  0.3467214442766827  0.4107257101251455
  0.3960689239452299  0.3461588177397896  0.5900719603635814
  0.4792870157139181  0.2843651005717998  0.4105025206379091
  0.4791947155706023  0.2840786179942034  0.5892039395167284
  0.5628367535637436  0.2217297942034985  0.4111471423901539
  0.5618613143264490  0.2216155779451469  0.5893327640954549
  0.6456403700655896  0.0342791410423777  0.4113990636938086
  0.6464013931006155  0.0338761519835716  0.5896280247811995
  0.6475734602891277  0.1592942378257868  0.4137405936236083
  0.6439080484329249  0.1594413748512410  0.5920069928115294
  0.3117137764871854  0.5371691044681181  0.4116612426007967
  0.3118529393175100  0.5377514135225288  0.5921298626781907
  0.3955283229455521  0.4714699240214875  0.4120943021000804
  0.3959673998807038  0.4712301195023140  0.5902299690589381
  0.4788936722426644  0.4091916287965326  0.4110187001513603
  0.4790068041824175  0.4088796628891090  0.5896052215115546
  0.5620534431550500  0.3465605790527997  0.4104718070500111
  0.5614397152495680  0.3466876449890887  0.5903505141736476
  0.3157389508795230  0.6604321584861936  0.4087535911400837
  0.3159448716085062  0.6608220810797399  0.5940500015191250
  0.3971856638981359  0.5960978379941410  0.4118803684675800
  0.3975031642286854  0.5960922262422340  0.5904577030157802
  0.4793150121883827  0.5336376440309026  0.4113081354532974
  0.4796200443363051  0.5335982351674797  0.5900161771829893
  0.5624006973483620  0.4713175076554770  0.4111149193511812
  0.5624716710221976  0.4712934711582704  0.5893623435283546
  0.3972935336207728  0.7218310656780578  0.4113547598563642
  0.3974835106529109  0.7221356328651918  0.5903433198591229
  0.4797094933463972  0.6589262042508544  0.4111511674172098
  0.4800607699368699  0.6590774595761025  0.5900831413346904
  0.5617996152936410  0.5961184502775223  0.4100378380752255
  0.5625266700600575  0.5964444557881750  0.5897952807768261
  0.5623997896181742  0.7213817315430161  0.4106989213271618
  0.5633948130711480  0.7215044602093784  0.5889112458261866
  0.6473936729615614  0.2841051183725194  0.4137533257129207
  0.6438497557265573  0.2838620881985069  0.5920498575790543
  0.7274744462800391  0.0968947110351061  0.4164921559630728
  0.7257912012297207  0.0970137474865206  0.5924086576761443
  0.6453674195542207  0.4088518085253902  0.4114818775710806
  0.6462020641812343  0.4092101630048323  0.5898949369817187
  0.7491594068698765  0.2217421432314488  0.5059348169499935
  0.6464048830674164  0.5334391160493951  0.4104970294062791
  0.6454924321205373  0.5338512395037182  0.5888209951222496
  0.7272939019621901  0.3464711919783660  0.4164086418558081
  0.7257211138432590  0.3463242333482558  0.5924041601639358
  0.6442757720197394  0.6590232498102458  0.4081475316362715
  0.6478847822824151  0.6588637130463191  0.5863438584294569
  0.7493284136511499  0.4711817126082062  0.5002970202274647
  0.7260127645580220  0.5962009880513894  0.4079429784822900
  0.7275665601663288  0.5960808594409314  0.5837966969509699
  0.7493479863431161  0.7212794415262908  0.4947230653642949
  0.2296117221463081  0.1654432829770998  0.5001065149771644
  0.2206593376420875  0.3384151819534522  0.5017302721396778
  0.2304570694801672  0.6484939395095014  0.5021358378834613
  0.2353340820056244  0.0353335490445531  0.5000366200651584
  0.3120193362961396  0.7842554384700986  0.4146511471519715
  0.3121803849870378  0.7845861364599324  0.5869121357815389
  0.3148249007210124  0.9087448463100762  0.4064606543789936
  0.3149321904999801  0.9090998716164498  0.5939760537771380
  0.3968131721782451  0.8460539199920925  0.4110301841460778
  0.3969111996360247  0.8463942298525439  0.5896303199169558
  0.4798434417833936  0.7839874112564241  0.4109571767021457
  0.4801137985332899  0.7842154016136480  0.5897271098129185
  0.3966719185796189  0.9715302392179841  0.4105230493828294
  0.3967452814917030  0.9717810674412832  0.5891346731354368
  0.4795901536419261  0.9089078175035683  0.4105457448711051
  0.4796980792439831  0.9091428321645918  0.5893918615944793
  0.5620652640737085  0.8466685035167681  0.4097373617269230
  0.5626898698233632  0.8465054822671126  0.5895296333631322
  0.5628284119874690  0.9715095238234299  0.4107202279819340
  0.5627495817003871  0.9715306005391542  0.5889209292623784
  0.6443730471683375  0.7836790687552643  0.4080944411233076
  0.6479805850647570  0.7839529153818476  0.5862686071598746
  0.6467871421128748  0.9093940580300340  0.4103906336974090
  0.6456759711357992  0.9090438844000652  0.5886734235722451
  0.7262485365182911  0.8463674581465375  0.4080919330575278
  0.7276654542160766  0.8466051634733149  0.5838936580501651
  0.7493640212987404  0.9718124737186800  0.5003535430066692
  0.2285162497179150  0.9083337921096888  0.5003405307124286
  0.2347259350925267  0.7810920236971503  0.5010832525024150
  0.1971590723812063  0.4805067782303886  0.4483462445878063
  0.2306274688619512  0.4775156639667092  0.4690021479839807
 
  0.00000000E+00  0.00000000E+00  0.00000000E+00
  0.00000000E+00  0.00000000E+00  0.00000000E+00
  0.00000000E+00  0.00000000E+00  0.00000000E+00
  0.00000000E+00  0.00000000E+00  0.00000000E+00
  0.00000000E+00  0.00000000E+00  0.00000000E+00
  0.00000000E+00  0.00000000E+00  0.00000000E+00
  0.00000000E+00  0.00000000E+00  0.00000000E+00
  0.00000000E+00  0.00000000E+00  0.00000000E+00
  0.00000000E+00  0.00000000E+00  0.00000000E+00
  0.00000000E+00  0.00000000E+00  0.00000000E+00
  0.00000000E+00  0.00000000E+00  0.00000000E+00
  0.00000000E+00  0.00000000E+00  0.00000000E+00
  0.00000000E+00  0.00000000E+00  0.00000000E+00
  0.00000000E+00  0.00000000E+00  0.00000000E+00
  0.00000000E+00  0.00000000E+00  0.00000000E+00
  0.00000000E+00  0.00000000E+00  0.00000000E+00
  0.00000000E+00  0.00000000E+00  0.00000000E+00
  0.00000000E+00  0.00000000E+00  0.00000000E+00
  0.00000000E+00  0.00000000E+00  0.00000000E+00
  0.00000000E+00  0.00000000E+00  0.00000000E+00
  0.00000000E+00  0.00000000E+00  0.00000000E+00
  0.00000000E+00  0.00000000E+00  0.00000000E+00
  0.00000000E+00  0.00000000E+00  0.00000000E+00
  0.00000000E+00  0.00000000E+00  0.00000000E+00
  0.00000000E+00  0.00000000E+00  0.00000000E+00
  0.00000000E+00  0.00000000E+00  0.00000000E+00
  0.00000000E+00  0.00000000E+00  0.00000000E+00
  0.00000000E+00  0.00000000E+00  0.00000000E+00
  0.00000000E+00  0.00000000E+00  0.00000000E+00
  0.00000000E+00  0.00000000E+00  0.00000000E+00
  0.00000000E+00  0.00000000E+00  0.00000000E+00
  0.00000000E+00  0.00000000E+00  0.00000000E+00
  0.00000000E+00  0.00000000E+00  0.00000000E+00
  0.00000000E+00  0.00000000E+00  0.00000000E+00
  0.00000000E+00  0.00000000E+00  0.00000000E+00
  0.00000000E+00  0.00000000E+00  0.00000000E+00
  0.00000000E+00  0.00000000E+00  0.00000000E+00
  0.00000000E+00  0.00000000E+00  0.00000000E+00
  0.00000000E+00  0.00000000E+00  0.00000000E+00
  0.00000000E+00  0.00000000E+00  0.00000000E+00
  0.00000000E+00  0.00000000E+00  0.00000000E+00
  0.00000000E+00  0.00000000E+00  0.00000000E+00
  0.00000000E+00  0.00000000E+00  0.00000000E+00
  0.00000000E+00  0.00000000E+00  0.00000000E+00
  0.00000000E+00  0.00000000E+00  0.00000000E+00
  0.00000000E+00  0.00000000E+00  0.00000000E+00
  0.00000000E+00  0.00000000E+00  0.00000000E+00
  0.00000000E+00  0.00000000E+00  0.00000000E+00
  0.00000000E+00  0.00000000E+00  0.00000000E+00
  0.00000000E+00  0.00000000E+00  0.00000000E+00
  0.00000000E+00  0.00000000E+00  0.00000000E+00
  0.00000000E+00  0.00000000E+00  0.00000000E+00
  0.00000000E+00  0.00000000E+00  0.00000000E+00
  0.00000000E+00  0.00000000E+00  0.00000000E+00
  0.00000000E+00  0.00000000E+00  0.00000000E+00
  0.00000000E+00  0.00000000E+00  0.00000000E+00
  0.00000000E+00  0.00000000E+00  0.00000000E+00
  0.00000000E+00  0.00000000E+00  0.00000000E+00
  0.00000000E+00  0.00000000E+00  0.00000000E+00
  0.00000000E+00  0.00000000E+00  0.00000000E+00
  0.00000000E+00  0.00000000E+00  0.00000000E+00
  0.00000000E+00  0.00000000E+00  0.00000000E+00
  0.00000000E+00  0.00000000E+00  0.00000000E+00
  0.00000000E+00  0.00000000E+00  0.00000000E+00
  0.00000000E+00  0.00000000E+00  0.00000000E+00
  0.00000000E+00  0.00000000E+00  0.00000000E+00
  0.00000000E+00  0.00000000E+00  0.00000000E+00
  0.00000000E+00  0.00000000E+00  0.00000000E+00
  0.00000000E+00  0.00000000E+00  0.00000000E+00
  0.00000000E+00  0.00000000E+00  0.00000000E+00
  0.00000000E+00  0.00000000E+00  0.00000000E+00
  0.00000000E+00  0.00000000E+00  0.00000000E+00
  0.00000000E+00  0.00000000E+00  0.00000000E+00
  0.00000000E+00  0.00000000E+00  0.00000000E+00
  0.00000000E+00  0.00000000E+00  0.00000000E+00
  0.00000000E+00  0.00000000E+00  0.00000000E+00
  0.00000000E+00  0.00000000E+00  0.00000000E+00
  0.00000000E+00  0.00000000E+00  0.00000000E+00
  0.00000000E+00  0.00000000E+00  0.00000000E+00
  0.00000000E+00  0.00000000E+00  0.00000000E+00
  0.00000000E+00  0.00000000E+00  0.00000000E+00
  0.00000000E+00  0.00000000E+00  0.00000000E+00
  0.00000000E+00  0.00000000E+00  0.00000000E+00
  0.00000000E+00  0.00000000E+00  0.00000000E+00
  0.00000000E+00  0.00000000E+00  0.00000000E+00
  0.00000000E+00  0.00000000E+00  0.00000000E+00
  0.00000000E+00  0.00000000E+00  0.00000000E+00
  0.00000000E+00  0.00000000E+00  0.00000000E+00
  0.00000000E+00  0.00000000E+00  0.00000000E+00
  0.00000000E+00  0.00000000E+00  0.00000000E+00
  0.00000000E+00  0.00000000E+00  0.00000000E+00
  0.00000000E+00  0.00000000E+00  0.00000000E+00
  0.00000000E+00  0.00000000E+00  0.00000000E+00
  0.00000000E+00  0.00000000E+00  0.00000000E+00
  0.00000000E+00  0.00000000E+00  0.00000000E+00
  0.00000000E+00  0.00000000E+00  0.00000000E+00
  0.00000000E+00  0.00000000E+00  0.00000000E+00
  0.00000000E+00  0.00000000E+00  0.00000000E+00
  0.00000000E+00  0.00000000E+00  0.00000000E+00
  0.00000000E+00  0.00000000E+00  0.00000000E+00
  0.00000000E+00  0.00000000E+00  0.00000000E+00
  0.00000000E+00  0.00000000E+00  0.00000000E+00
  0.00000000E+00  0.00000000E+00  0.00000000E+00
  0.00000000E+00  0.00000000E+00  0.00000000E+00
  0.00000000E+00  0.00000000E+00  0.00000000E+00
  0.00000000E+00  0.00000000E+00  0.00000000E+00
  0.00000000E+00  0.00000000E+00  0.00000000E+00
  0.00000000E+00  0.00000000E+00  0.00000000E+00
  0.00000000E+00  0.00000000E+00  0.00000000E+00
  0.00000000E+00  0.00000000E+00  0.00000000E+00
  0.00000000E+00  0.00000000E+00  0.00000000E+00
  0.00000000E+00  0.00000000E+00  0.00000000E+00
  0.00000000E+00  0.00000000E+00  0.00000000E+00
  0.00000000E+00  0.00000000E+00  0.00000000E+00
  0.00000000E+00  0.00000000E+00  0.00000000E+00
  0.00000000E+00  0.00000000E+00  0.00000000E+00
  0.00000000E+00  0.00000000E+00  0.00000000E+00
  0.00000000E+00  0.00000000E+00  0.00000000E+00
  0.00000000E+00  0.00000000E+00  0.00000000E+00
  0.00000000E+00  0.00000000E+00  0.00000000E+00
  0.00000000E+00  0.00000000E+00  0.00000000E+00
  0.00000000E+00  0.00000000E+00  0.00000000E+00
  0.00000000E+00  0.00000000E+00  0.00000000E+00
  0.00000000E+00  0.00000000E+00  0.00000000E+00
  0.00000000E+00  0.00000000E+00  0.00000000E+00
  0.00000000E+00  0.00000000E+00  0.00000000E+00
  0.00000000E+00  0.00000000E+00  0.00000000E+00
  0.00000000E+00  0.00000000E+00  0.00000000E+00
  0.00000000E+00  0.00000000E+00  0.00000000E+00
  0.00000000E+00  0.00000000E+00  0.00000000E+00
  0.00000000E+00  0.00000000E+00  0.00000000E+00
  0.00000000E+00  0.00000000E+00  0.00000000E+00
  0.00000000E+00  0.00000000E+00  0.00000000E+00
  0.00000000E+00  0.00000000E+00  0.00000000E+00
  0.00000000E+00  0.00000000E+00  0.00000000E+00
  0.00000000E+00  0.00000000E+00  0.00000000E+00
  0.00000000E+00  0.00000000E+00  0.00000000E+00
  0.00000000E+00  0.00000000E+00  0.00000000E+00
  0.00000000E+00  0.00000000E+00  0.00000000E+00
  0.00000000E+00  0.00000000E+00  0.00000000E+00
  0.00000000E+00  0.00000000E+00  0.00000000E+00
  0.00000000E+00  0.00000000E+00  0.00000000E+00
  0.00000000E+00  0.00000000E+00  0.00000000E+00
  0.00000000E+00  0.00000000E+00  0.00000000E+00
  0.00000000E+00  0.00000000E+00  0.00000000E+00
  0.00000000E+00  0.00000000E+00  0.00000000E+00
  0.00000000E+00  0.00000000E+00  0.00000000E+00
  0.00000000E+00  0.00000000E+00  0.00000000E+00
