Mo48 H4 C1 S97 O1                       
   1.00000000000000     
    33.0000000000000000    0.0000000000000000    0.0000000000000000
     0.0000000000000000   25.5199999999999996    0.0000000000000000
     0.0000000000000000    0.0000000000000000   17.4728999999999992
   Mo   S    O    C    H 
    48    97     1     1     4
Direct
  0.2845811529447566  0.1052490078543425  0.4967710071675206
  0.3693804115846199  0.0357290738700016  0.4996250953810298
  0.2853762319825794  0.2265001563949647  0.4962031085536281
  0.3697150581650007  0.1607709805011197  0.4989664396658946
  0.4519481173516171  0.0980711567572182  0.5017305476123812
  0.5350438683890339  0.0354486072953498  0.5046344172375137
  0.2852074328855227  0.3431169374373970  0.4956361044107094
  0.3697233314831578  0.2848659135488872  0.4982215097938949
  0.4527163645137987  0.2227847586214728  0.5006315680509235
  0.5351799584877120  0.1602543234381915  0.5028973153825129
  0.6171794084418798  0.0982782267393269  0.5054866738351247
  0.2841411058429425  0.4646021966489129  0.4952626441501212
  0.3692721678702521  0.4090799133141002  0.4977773239298772
  0.4522941792211372  0.3470838080255867  0.5001803386994624
  0.5355842759331259  0.2852897207500940  0.5021483323275869
  0.2851330934455202  0.6049878580989926  0.4954267263149044
  0.3688130582174791  0.5343034594209690  0.4976652864994967
  0.4512008202265299  0.4719379026707002  0.5000934483823486
  0.5343972214695721  0.4098484621081480  0.5028184046662627
  0.2851269967927421  0.7153100555275946  0.4959182619091299
  0.3690033248580168  0.6597287378074957  0.4980064588557811
  0.4512667835663172  0.5971831176483025  0.5000615903943625
  0.5338146852391631  0.5347967841229611  0.5027815047081452
  0.4516311133587147  0.7223046869681720  0.5005265222183262
  0.5345353952961009  0.6595343010428734  0.5022044325211656
  0.6181086219873568  0.2233626217534202  0.5028581022202877
  0.7014750831084180  0.0379628114307759  0.4998520960911403
  0.6185745223714927  0.3486587137585765  0.5063324492029728
  0.6979509929964286  0.1601714547935569  0.5065525996305098
  0.6142585165842724  0.4729866435822820  0.5060724832448840
  0.6997270187491896  0.2803193712203665  0.5050429087356960
  0.6178956483541893  0.5958523748298505  0.5065689996536396
  0.6936682516359296  0.4225283937621152  0.5126615837095875
  0.6172049712674332  0.7215884119860682  0.5034015256800901
  0.6930029186271848  0.5239000743201885  0.5114332213808217
  0.6990575883650142  0.6636505688507026  0.5077033644126345
  0.2853484786798923  0.8549457628041823  0.4966873843834955
  0.3691804838678246  0.7850706579905942  0.4987886777280957
  0.2855486323323291  0.9651703207240651  0.4970291116487448
  0.3694221371338927  0.9104256149543333  0.4995553765068844
  0.4518139632715745  0.8476495204871786  0.5016678797567998
  0.5344918594471537  0.7848058785877767  0.5029654824486008
  0.4519781622933080  0.9729496021046400  0.5023271142797697
  0.5347436437572249  0.9100190258756335  0.5046182448919010
  0.6166271026055318  0.8468244321288430  0.5057241266199680
  0.6185632358492026  0.9725796095807042  0.5066985037122773
  0.6973479935703177  0.7848427354482428  0.5077206556075954
  0.7011272494028697  0.9068565897545557  0.4999570746153844
  0.3125857945100196  0.0357561796197349  0.4122070896053996
  0.3110850959969974  0.0359008751159306  0.5834304003572156
  0.3145570397561061  0.1624050624081935  0.4061660639077279
  0.3130930448902686  0.1628010578713362  0.5885451038675972
  0.3972232186856986  0.0977260597855354  0.4105210552098701
  0.3957748047457089  0.0981789532145269  0.5897440054618872
  0.4803079225351750  0.0352305099836188  0.4137916975707879
  0.4788364623778749  0.0356130963507856  0.5921992017259521
  0.3145391227104120  0.2846535371898451  0.4045147430882030
  0.3131206267342694  0.2850492184934473  0.5888783316112387
  0.3981319374218951  0.2225134938368316  0.4099347782376181
  0.3968685105176141  0.2229895534281880  0.5886208348929011
  0.4803956667292388  0.1598505784193597  0.4123260960806733
  0.4793429285040034  0.1605359594095125  0.5912204808149001
  0.5627314565428334  0.0973413650015023  0.4146027784493759
  0.5619344556935374  0.0981400373332748  0.5942688864059954
  0.3141394622534318  0.4070902855835190  0.4050168205779214
  0.3126926666818485  0.4073083785598814  0.5874127941866083
  0.3978167471683718  0.3469496650472187  0.4093168956156529
  0.3964728996727639  0.3472107624639322  0.5880992501694948
  0.4808442303257773  0.2849448142090888  0.4114515301233786
  0.4797104747983656  0.2851827533164678  0.5904232265031771
  0.5631779174600394  0.2226907194133810  0.4129829985886523
  0.5626088704694396  0.2230791838300236  0.5918792919782959
  0.6450373879754053  0.0347206483622899  0.4167518105296075
  0.6482131814337425  0.0359669772887303  0.5931709575252232
  0.6459915104856053  0.1597091899663237  0.4144865320738472
  0.6436764902046788  0.1627717570615178  0.5954635197184494
  0.3119877162516718  0.5342062472113497  0.4104329618537306
  0.3106227440941647  0.5341412878149746  0.5816195232833306
  0.3965819909454436  0.4719817385333457  0.4088244149934712
  0.3951153475863290  0.4720391598548073  0.5881123127470399
  0.4799217740880120  0.4096648149062742  0.4115683374984850
  0.4782994827297000  0.4096625506873444  0.5904532597782952
  0.5642560935190707  0.3480354697018609  0.4145866379440958
  0.5622731088106057  0.3474313627269041  0.5929462782695407
  0.3152314109248253  0.6601072758266755  0.4023828434376941
  0.3137493079524677  0.6597250475618860  0.5905607320489800
  0.3966262042130149  0.5970123803324792  0.4092150927271576
  0.3952462191941120  0.5968220187529009  0.5878672681207524
  0.4793158407393580  0.5347695844416652  0.4116074078790931
  0.4776704216516515  0.5348077905142288  0.5902625221050145
  0.5610700587786258  0.4725171320066237  0.4132324613092387
  0.5589891006201813  0.4725498326786939  0.5945107607950773
  0.3969039041443125  0.7228597881681799  0.4098006701552890
  0.3955777677290737  0.7223724867972164  0.5883749751931739
  0.4796131687015263  0.6598049046884791  0.4116061009904491
  0.4783812386808149  0.6595466992298156  0.5901599032399584
  0.5634026120729716  0.5968911154524010  0.4147144698705177
  0.5612929464053935  0.5973749151043281  0.5928943383057728
  0.5623515295836378  0.7221413710498016  0.4132669842965198
  0.5614878699812188  0.7218041858096849  0.5920586574005440
  0.6495379099079092  0.2870555776457541  0.4149437862076431
  0.6480858749133397  0.2839129926450556  0.5952765016437995
  0.7273921379149121  0.0957116580231455  0.4151534034551324
  0.7259709189090341  0.1010775288920280  0.5918537878366629
  0.6470911743923340  0.4129341005149037  0.4167557437094634
  0.6434284343080613  0.4124637579183335  0.6001870077263491
  0.7439881245133557  0.2207643347349714  0.4576219989972020
  0.6462411692225397  0.5328315014186383  0.4154341351692581
  0.6429649991038918  0.5331455432710684  0.6004801702901266
  0.7384316724125183  0.3523794541628673  0.5419602220074726
  0.6490671299425272  0.6577856115148881  0.4163633743826904
  0.6465531234637979  0.6609189079866565  0.5961417524800199
  0.7362588602058194  0.5934301002008857  0.5526330510754944
  0.7434324961921923  0.7234669073883534  0.4606154631732871
  0.2304121253903207  0.1636143094408301  0.4949212592219739
  0.2297757825753372  0.2847499289711575  0.4942686847003502
  0.2283569856502481  0.6589609250040327  0.4939651812400275
  0.2357565464407372  0.0371162225166984  0.4954088913913811
  0.3122594724334057  0.7853121044648342  0.4114855656305371
  0.3108474579784314  0.7848743699397669  0.5827094444236278
  0.3157150959695218  0.9103781681195257  0.4037775856923098
  0.3140580019648738  0.9100953274495028  0.5918974699283894
  0.3971823182814956  0.8477043694449701  0.4107307428617412
  0.3956934994445193  0.8472062107138133  0.5893134134905866
  0.4797099611915702  0.7852505341221411  0.4124675264173461
  0.4785566710467912  0.7845632213820670  0.5909966257671724
  0.3973788204210598  0.9732275475178832  0.4112779164160829
  0.3957826224126567  0.9731977983592945  0.5898218971087744
  0.4800707823968921  0.9104584742550983  0.4136226475260279
  0.4785692141994520  0.9100494609772047  0.5922872316668943
  0.5622129067281890  0.8477344133519006  0.4147660276423578
  0.5612761833218703  0.8470408656229359  0.5942483219280591
  0.5631697157531863  0.9726272387017038  0.4165456317128339
  0.5623876225088513  0.9726401495922672  0.5944075361140913
  0.6454750972774067  0.7850670490759634  0.4151932039830417
  0.6427242696347151  0.7823578669392514  0.5958977252939750
  0.6447368528403626  0.9101331352743212  0.4169017775551688
  0.6478668590522516  0.9090764771096898  0.5933060759274473
  0.7270567963371308  0.8487853546312185  0.4158609144606815
  0.7254004445874794  0.8438543826979960  0.5926323360805336
  0.7492443173621615  0.9722318947812101  0.5061666306369267
  0.2286795217375293  0.9113173918873596  0.4950511942245946
  0.2352954959683544  0.7851896947454537  0.4948286741799073
  0.2353840943803646  0.5328465084648597  0.4938430266492684
  0.2301333295708387  0.4060283844450055  0.4938411193594185
  0.7534738936076250  0.4790416091894678  0.4827644915937764
  0.7924360527092931  0.4816220769594980  0.5240295279765599
  0.8103982705748586  0.4470119525644835  0.5089444382574727
  0.7848495310734986  0.4812434787151732  0.5849326711454169
  0.7587162576238519  0.4785446689630039  0.4277685656117456
  0.8078017401740970  0.5182805954855942  0.5090113437941030
 
  0.00000000E+00  0.00000000E+00  0.00000000E+00
  0.00000000E+00  0.00000000E+00  0.00000000E+00
  0.00000000E+00  0.00000000E+00  0.00000000E+00
  0.00000000E+00  0.00000000E+00  0.00000000E+00
  0.00000000E+00  0.00000000E+00  0.00000000E+00
  0.00000000E+00  0.00000000E+00  0.00000000E+00
  0.00000000E+00  0.00000000E+00  0.00000000E+00
  0.00000000E+00  0.00000000E+00  0.00000000E+00
  0.00000000E+00  0.00000000E+00  0.00000000E+00
  0.00000000E+00  0.00000000E+00  0.00000000E+00
  0.00000000E+00  0.00000000E+00  0.00000000E+00
  0.00000000E+00  0.00000000E+00  0.00000000E+00
  0.00000000E+00  0.00000000E+00  0.00000000E+00
  0.00000000E+00  0.00000000E+00  0.00000000E+00
  0.00000000E+00  0.00000000E+00  0.00000000E+00
  0.00000000E+00  0.00000000E+00  0.00000000E+00
  0.00000000E+00  0.00000000E+00  0.00000000E+00
  0.00000000E+00  0.00000000E+00  0.00000000E+00
  0.00000000E+00  0.00000000E+00  0.00000000E+00
  0.00000000E+00  0.00000000E+00  0.00000000E+00
  0.00000000E+00  0.00000000E+00  0.00000000E+00
  0.00000000E+00  0.00000000E+00  0.00000000E+00
  0.00000000E+00  0.00000000E+00  0.00000000E+00
  0.00000000E+00  0.00000000E+00  0.00000000E+00
  0.00000000E+00  0.00000000E+00  0.00000000E+00
  0.00000000E+00  0.00000000E+00  0.00000000E+00
  0.00000000E+00  0.00000000E+00  0.00000000E+00
  0.00000000E+00  0.00000000E+00  0.00000000E+00
  0.00000000E+00  0.00000000E+00  0.00000000E+00
  0.00000000E+00  0.00000000E+00  0.00000000E+00
  0.00000000E+00  0.00000000E+00  0.00000000E+00
  0.00000000E+00  0.00000000E+00  0.00000000E+00
  0.00000000E+00  0.00000000E+00  0.00000000E+00
  0.00000000E+00  0.00000000E+00  0.00000000E+00
  0.00000000E+00  0.00000000E+00  0.00000000E+00
  0.00000000E+00  0.00000000E+00  0.00000000E+00
  0.00000000E+00  0.00000000E+00  0.00000000E+00
  0.00000000E+00  0.00000000E+00  0.00000000E+00
  0.00000000E+00  0.00000000E+00  0.00000000E+00
  0.00000000E+00  0.00000000E+00  0.00000000E+00
  0.00000000E+00  0.00000000E+00  0.00000000E+00
  0.00000000E+00  0.00000000E+00  0.00000000E+00
  0.00000000E+00  0.00000000E+00  0.00000000E+00
  0.00000000E+00  0.00000000E+00  0.00000000E+00
  0.00000000E+00  0.00000000E+00  0.00000000E+00
  0.00000000E+00  0.00000000E+00  0.00000000E+00
  0.00000000E+00  0.00000000E+00  0.00000000E+00
  0.00000000E+00  0.00000000E+00  0.00000000E+00
  0.00000000E+00  0.00000000E+00  0.00000000E+00
  0.00000000E+00  0.00000000E+00  0.00000000E+00
  0.00000000E+00  0.00000000E+00  0.00000000E+00
  0.00000000E+00  0.00000000E+00  0.00000000E+00
  0.00000000E+00  0.00000000E+00  0.00000000E+00
  0.00000000E+00  0.00000000E+00  0.00000000E+00
  0.00000000E+00  0.00000000E+00  0.00000000E+00
  0.00000000E+00  0.00000000E+00  0.00000000E+00
  0.00000000E+00  0.00000000E+00  0.00000000E+00
  0.00000000E+00  0.00000000E+00  0.00000000E+00
  0.00000000E+00  0.00000000E+00  0.00000000E+00
  0.00000000E+00  0.00000000E+00  0.00000000E+00
  0.00000000E+00  0.00000000E+00  0.00000000E+00
  0.00000000E+00  0.00000000E+00  0.00000000E+00
  0.00000000E+00  0.00000000E+00  0.00000000E+00
  0.00000000E+00  0.00000000E+00  0.00000000E+00
  0.00000000E+00  0.00000000E+00  0.00000000E+00
  0.00000000E+00  0.00000000E+00  0.00000000E+00
  0.00000000E+00  0.00000000E+00  0.00000000E+00
  0.00000000E+00  0.00000000E+00  0.00000000E+00
  0.00000000E+00  0.00000000E+00  0.00000000E+00
  0.00000000E+00  0.00000000E+00  0.00000000E+00
  0.00000000E+00  0.00000000E+00  0.00000000E+00
  0.00000000E+00  0.00000000E+00  0.00000000E+00
  0.00000000E+00  0.00000000E+00  0.00000000E+00
  0.00000000E+00  0.00000000E+00  0.00000000E+00
  0.00000000E+00  0.00000000E+00  0.00000000E+00
  0.00000000E+00  0.00000000E+00  0.00000000E+00
  0.00000000E+00  0.00000000E+00  0.00000000E+00
  0.00000000E+00  0.00000000E+00  0.00000000E+00
  0.00000000E+00  0.00000000E+00  0.00000000E+00
  0.00000000E+00  0.00000000E+00  0.00000000E+00
  0.00000000E+00  0.00000000E+00  0.00000000E+00
  0.00000000E+00  0.00000000E+00  0.00000000E+00
  0.00000000E+00  0.00000000E+00  0.00000000E+00
  0.00000000E+00  0.00000000E+00  0.00000000E+00
  0.00000000E+00  0.00000000E+00  0.00000000E+00
  0.00000000E+00  0.00000000E+00  0.00000000E+00
  0.00000000E+00  0.00000000E+00  0.00000000E+00
  0.00000000E+00  0.00000000E+00  0.00000000E+00
  0.00000000E+00  0.00000000E+00  0.00000000E+00
  0.00000000E+00  0.00000000E+00  0.00000000E+00
  0.00000000E+00  0.00000000E+00  0.00000000E+00
  0.00000000E+00  0.00000000E+00  0.00000000E+00
  0.00000000E+00  0.00000000E+00  0.00000000E+00
  0.00000000E+00  0.00000000E+00  0.00000000E+00
  0.00000000E+00  0.00000000E+00  0.00000000E+00
  0.00000000E+00  0.00000000E+00  0.00000000E+00
  0.00000000E+00  0.00000000E+00  0.00000000E+00
  0.00000000E+00  0.00000000E+00  0.00000000E+00
  0.00000000E+00  0.00000000E+00  0.00000000E+00
  0.00000000E+00  0.00000000E+00  0.00000000E+00
  0.00000000E+00  0.00000000E+00  0.00000000E+00
  0.00000000E+00  0.00000000E+00  0.00000000E+00
  0.00000000E+00  0.00000000E+00  0.00000000E+00
  0.00000000E+00  0.00000000E+00  0.00000000E+00
  0.00000000E+00  0.00000000E+00  0.00000000E+00
  0.00000000E+00  0.00000000E+00  0.00000000E+00
  0.00000000E+00  0.00000000E+00  0.00000000E+00
  0.00000000E+00  0.00000000E+00  0.00000000E+00
  0.00000000E+00  0.00000000E+00  0.00000000E+00
  0.00000000E+00  0.00000000E+00  0.00000000E+00
  0.00000000E+00  0.00000000E+00  0.00000000E+00
  0.00000000E+00  0.00000000E+00  0.00000000E+00
  0.00000000E+00  0.00000000E+00  0.00000000E+00
  0.00000000E+00  0.00000000E+00  0.00000000E+00
  0.00000000E+00  0.00000000E+00  0.00000000E+00
  0.00000000E+00  0.00000000E+00  0.00000000E+00
  0.00000000E+00  0.00000000E+00  0.00000000E+00
  0.00000000E+00  0.00000000E+00  0.00000000E+00
  0.00000000E+00  0.00000000E+00  0.00000000E+00
  0.00000000E+00  0.00000000E+00  0.00000000E+00
  0.00000000E+00  0.00000000E+00  0.00000000E+00
  0.00000000E+00  0.00000000E+00  0.00000000E+00
  0.00000000E+00  0.00000000E+00  0.00000000E+00
  0.00000000E+00  0.00000000E+00  0.00000000E+00
  0.00000000E+00  0.00000000E+00  0.00000000E+00
  0.00000000E+00  0.00000000E+00  0.00000000E+00
  0.00000000E+00  0.00000000E+00  0.00000000E+00
  0.00000000E+00  0.00000000E+00  0.00000000E+00
  0.00000000E+00  0.00000000E+00  0.00000000E+00
  0.00000000E+00  0.00000000E+00  0.00000000E+00
  0.00000000E+00  0.00000000E+00  0.00000000E+00
  0.00000000E+00  0.00000000E+00  0.00000000E+00
  0.00000000E+00  0.00000000E+00  0.00000000E+00
  0.00000000E+00  0.00000000E+00  0.00000000E+00
  0.00000000E+00  0.00000000E+00  0.00000000E+00
  0.00000000E+00  0.00000000E+00  0.00000000E+00
  0.00000000E+00  0.00000000E+00  0.00000000E+00
  0.00000000E+00  0.00000000E+00  0.00000000E+00
  0.00000000E+00  0.00000000E+00  0.00000000E+00
  0.00000000E+00  0.00000000E+00  0.00000000E+00
  0.00000000E+00  0.00000000E+00  0.00000000E+00
  0.00000000E+00  0.00000000E+00  0.00000000E+00
  0.00000000E+00  0.00000000E+00  0.00000000E+00
  0.00000000E+00  0.00000000E+00  0.00000000E+00
  0.00000000E+00  0.00000000E+00  0.00000000E+00
  0.00000000E+00  0.00000000E+00  0.00000000E+00
  0.00000000E+00  0.00000000E+00  0.00000000E+00
  0.00000000E+00  0.00000000E+00  0.00000000E+00
  0.00000000E+00  0.00000000E+00  0.00000000E+00
  0.00000000E+00  0.00000000E+00  0.00000000E+00
  0.00000000E+00  0.00000000E+00  0.00000000E+00
