Mo48 H4 C1 S97 O1
1.0
  33.0000000000000000    0.0000000000000000    0.0000000000000000
   0.0000000000000000   25.5199999999999996    0.0000000000000000
   0.0000000000000000    0.0000000000000000   17.4728999999999992
Mo S O C H
48 97 1 1 4
direct
   0.2848025373655574    0.1048478301198656    0.4973372694664846 Mo
   0.3697452006088682    0.0352835982030513    0.4986999907585457 Mo
   0.2853186908183361    0.2258348373589669    0.4971830269535147 Mo
   0.3698013410926748    0.1602784641508848    0.4983563716364756 Mo
   0.4522203170402292    0.0977211021196780    0.4999412956298883 Mo
   0.5353942606738826    0.0352660056185528    0.5020601306906229 Mo
   0.2849724678177665    0.3425020138204360    0.4970716973110925 Mo
   0.3695086624008965    0.2843466535796253    0.4981589997448523 Mo
   0.4526732946290011    0.2223640539055651    0.4994552807698724 Mo
   0.5353920731861450    0.1600790956901719    0.5010864546453035 Mo
   0.6175514186756743    0.0982848677608743    0.5035655378344401 Mo
   0.2839316825848428    0.4641218037527892    0.4970452689646763 Mo
   0.3689483026250429    0.4086320485958197    0.4982530528066533 Mo
   0.4518943871501406    0.3465756866868972    0.4996496723684629 Mo
   0.5353641269492329    0.2849845864557423    0.5011466849520261 Mo
   0.2851895498345058    0.6045201363370865    0.4972177077226263 Mo
   0.3687049063973262    0.5339481491411888    0.4983978386975139 Mo
   0.4508203351188982    0.4714693002672590    0.5000504250520805 Mo
   0.5336729283874888    0.4093211580238858    0.5022630989180072 Mo
   0.2854071384331149    0.7150283799281283    0.4973834675294029 Mo
   0.3692344804319134    0.6593501810647808    0.4985111119729453 Mo
   0.4513744037837526    0.5968362507166844    0.5001026505647630 Mo
   0.5335733260468061    0.5341484894271318    0.5026267339098851 Mo
   0.4522150706440442    0.7218196039297524    0.5000269316839479 Mo
   0.5350870097720204    0.6588034855267964    0.5021245529863236 Mo
   0.6184183427708874    0.2234720070861727    0.5019160841025041 Mo
   0.7018879238503928    0.0383455892418425    0.4984978743483452 Mo
   0.6178947624803968    0.3481865084205324    0.5058298377035655 Mo
   0.6982634046666902    0.1607584020312558    0.5056667887439801 Mo
   0.6129103072251425    0.4715882428087568    0.5057745489016980 Mo
   0.6997392596226319    0.2828265491215944    0.5061794322029058 Mo
   0.6177581645407813    0.5955834219781906    0.5065307029282593 Mo
   0.6922109880446428    0.4222188712200889    0.5116313983620984 Mo
   0.6191108615317873    0.7203745954654863    0.5033510662561937 Mo
   0.6920262349893420    0.5200878571602914    0.5112329933537652 Mo
   0.6990894950519007    0.6534878044605961    0.5094724629292955 Mo
   0.2858048775913318    0.8545226752807551    0.4975434812592212 Mo
   0.3696878071538592    0.7846562940362318    0.4986578590958359 Mo
   0.2859714408354961    0.9649485641071109    0.4975470272086682 Mo
   0.3699720981783372    0.9099915266901988    0.4988005791858967 Mo
   0.4525089820343524    0.8471364318170771    0.5002117464746973 Mo
   0.5354467771575173    0.7842433118429710    0.5017503818801998 Mo
   0.4524669297104182    0.9725632141544835    0.5003229976813728 Mo
   0.5352869113469154    0.9096177179967739    0.5021126302720447 Mo
   0.6170504518715205    0.8466922965241039    0.5031293673151822 Mo
   0.6188460922413910    0.9725260481862250    0.5038156093414372 Mo
   0.6993551299624272    0.7858359785684428    0.5043400146107686 Mo
   0.7010818918677941    0.9064347659600713    0.4997997342914857 Mo
   0.3125548396101507    0.0353928251389206    0.4122109485698360 S
   0.3118376727907233    0.0355073152578456    0.5834798060452613 S
   0.3142630822242580    0.1620318410041577    0.4063667885797742 S
   0.3135949230799184    0.1621738162563275    0.5888823263258729 S
   0.3971882381982468    0.0974260004652407    0.4093727254722666 S
   0.3963466391005070    0.0976529172027867    0.5885828062439629 S
   0.4804883573615584    0.0350196958177023    0.4115665339079300 S
   0.4793987585454005    0.0352489035313326    0.5900021529655319 S
   0.3139619579558257    0.2842571868090289    0.4052664606903988 S
   0.3133176278441283    0.2843219990364645    0.5896595444104236 S
   0.3978357048777141    0.2222399024098038    0.4092646956867796 S
   0.3970729589964535    0.2223587296771257    0.5879645335892860 S
   0.4804848242880624    0.1597685368111073    0.4106887874065137 S
   0.4796281952672174    0.1600414280897340    0.5895766410783807 S
   0.5631499436145404    0.0974870074676275    0.4124877086467791 S
   0.5622307993938307    0.0977940593299849    0.5920375061293868 S
   0.3135023044290435    0.4067078110333284    0.4062368734325759 S
   0.3127471279212983    0.4066824449893502    0.5886567548784996 S
   0.3972411494264563    0.3466494906018553    0.4092251140423571 S
   0.3963465751008073    0.3465500421370535    0.5880798913824634 S
   0.4805752221390307    0.2847349561400065    0.4104903989611515 S
   0.4795482450747883    0.2845448301765501    0.5895263298925144 S
   0.5634737583719627    0.2228351873240584    0.4117678291228017 S
   0.5626814730012200    0.2226822675987350    0.5904739065241102 S
   0.6457925947278653    0.0350328407592357    0.4146054609337568 S
   0.6483235527720481    0.0357777840772684    0.5910703388312584 S
   0.6464949423856794    0.1603023871513187    0.4132049521923093 S
   0.6438483878938186    0.1626452273068963    0.5940694080026958 S
   0.3115850456755851    0.5337969539844707    0.4119200024163021 S
   0.3108408220358001    0.5337154330736027    0.5831095475174095 S
   0.3960575301462939    0.4716286666349490    0.4091827650273885 S
   0.3950082611669288    0.4715254766901893    0.5885391976966545 S
   0.4792398332270551    0.4092917042111210    0.4110590717036047 S
   0.4777900885277120    0.4089886476434259    0.5901767258214647 S
   0.5637690741939991    0.3477890183597339    0.4137340219337133 S
   0.5616840931342750    0.3469325189623547    0.5923575023159202 S
   0.3150832875172824    0.6595621881192031    0.4037336938076876 S
   0.3143010106779229    0.6594452852331329    0.5917107615901358 S
   0.3965408855006345    0.5965358773860103    0.4096515202512521 S
   0.3955445668940101    0.5964917138569277    0.5882695608014501 S
   0.4790133841305959    0.5343153124377125    0.4115726734097649 S
   0.4774918755605881    0.5343063271909756    0.5901959618998944 S
   0.5601971410978948    0.4719053385692007    0.4125148979188964 S
   0.5580753847969291    0.4716537522659294    0.5945779835513250 S
   0.3971720654492685    0.7221954410853684    0.4098178464316078 S
   0.3962977231344169    0.7221296298875117    0.5882061938989693 S
   0.4801088294328082    0.6591550244830202    0.4114208054784427 S
   0.4788744544724608    0.6592597914911877    0.5899518785044364 S
   0.5635143498896227    0.5961313439496863    0.4144903639627557 S
   0.5613221397486399    0.5966058378883119    0.5928312423083995 S
   0.5638708622801474    0.7209700471201330    0.4134931648734863 S
   0.5627658108822615    0.7214290898925597    0.5911833690348445 S
   0.6499661856701664    0.2878253594516593    0.4146782053200297 S
   0.6475271149058059    0.2842603774706021    0.5949319416911152 S
   0.7283392979104519    0.0964929577274418    0.4151291367325385 S
   0.7257230668962222    0.1011910568423033    0.5912956363195292 S
   0.6459513054809705    0.4125960275750629    0.4153099222457399 S
   0.6424635161140628    0.4120330688026854    0.6003034900771098 S
   0.7438573393318535    0.2224764141771089    0.4595147253960761 S
   0.6455978128679973    0.5309616135619351    0.4154588284503262 S
   0.6424683121432508    0.5308337206200093    0.6005387366039798 S
   0.7380765361417687    0.3546915549760357    0.5431342698485508 S
   0.6498966999620066    0.6555176115375616    0.4159798989048582 S
   0.6473571829084008    0.6582990579992938    0.5970543837849291 S
   0.7409337857824596    0.5829807960871562    0.5383661583666850 S
   0.7423033994347037    0.7195777862621924    0.4717420233400205 S
   0.2304378333550758    0.1627983588302584    0.4966129071507979 S
   0.2296215195528362    0.2840793821146548    0.4967325995683183 S
   0.2285774329466719    0.6588409635055825    0.4965579359513228 S
   0.2360567980146442    0.0364481945985844    0.4967198964403892 S
   0.3123683269003550    0.7847560842120771    0.4122814058329567 S
   0.3116786464869463    0.7846771005712796    0.5833899941373559 S
   0.3157846783678835    0.9099162165677157    0.4040497552491473 S
   0.3150046391202892    0.9098954118935438    0.5919240135395683 S
   0.3975289183757056    0.8470348373285361    0.4099654152296139 S
   0.3966474116238317    0.8469539018539649    0.5884079823312192 S
   0.4804576333813984    0.7843398497319285    0.4114471980270977 S
   0.4794886718385385    0.7842945984556664    0.5897808085445178 S
   0.3975324757425156    0.9727801823726452    0.4099910132726521 S
   0.3966181372021111    0.9728434528010510    0.5885215290002037 S
   0.4804057861405582    0.9098821593736446    0.4115626233676650 S
   0.4793550291788691    0.9098196195450612    0.5901927631141533 S
   0.5627056019616390    0.8469722077196593    0.4124832888538137 S
   0.5619760654740702    0.8469432496311171    0.5921806036188286 S
   0.5634786491782080    0.9724744327686778    0.4137941615674166 S
   0.5627791269239566    0.9724864958067982    0.5916686076861666 S
   0.6458752406473209    0.7835474808362406    0.4141551445474576 S
   0.6447891452573487    0.7835589305107860    0.5925869784440749 S
   0.6453491858410487    0.9100162706033288    0.4142082785182026 S
   0.6472735550865210    0.9094976506991230    0.5912083028281501 S
   0.7249626010044636    0.8469678296332290    0.4112494996635192 S
   0.7274585030489220    0.8454476953350536    0.5899934499720842 S
   0.7490866531856497    0.9716847083004438    0.5028830016614307 S
   0.2291912365539943    0.9109045765271873    0.4969541976010561 S
   0.2357811054502221    0.7849738662335994    0.4968748829447946 S
   0.2353348752037192    0.5326616174894525    0.4964573628443034 S
   0.2299228393822119    0.4056293255335959    0.4962851676676934 S
   0.7486543755954027    0.4863292827088807    0.5102801458012696 O
   0.7898574377166148    0.5048701255772192    0.5187822977050749 C
   0.8102764677166148    0.4712445060631127    0.5114504712767201 H
   0.7937980004438876    0.5219729202480657    0.5759804949133230 H
   0.7454827658984329    0.4443083093546488    0.5117368198507977 H
   0.7958247080196451    0.5343897991665609    0.4745576297907619 H
